 Entering Gaussian System, Link 0=g16
 Input=/Users/yarger/Downloads/1112Tetrafluoroethane_Opt_Freq_DFT_WB97XD_6311pp2d3p_Gaussian16.gjf
 Output=/Users/yarger/Downloads/1112Tetrafluoroethane_Opt_Freq_DFT_WB97XD_6311pp2d3p_Gaussian16.log
 Initial command:
 /Users/yarger/Applications/g16/l1.exe "/Users/yarger/Applications/scratch/Gau-83445.inp" -scrdir="/Users/yarger/Applications/scratch/"
 Entering Link 1 = /Users/yarger/Applications/g16/l1.exe PID=     83446.
  
 Copyright (c) 1988,1990,1992,1993,1995,1998,2003,2009,2016,
            Gaussian, Inc.  All Rights Reserved.
  
 This is part of the Gaussian(R) 16 program.  It is based on
 the Gaussian(R) 09 system (copyright 2009, Gaussian, Inc.),
 the Gaussian(R) 03 system (copyright 2003, Gaussian, Inc.),
 the Gaussian(R) 98 system (copyright 1998, Gaussian, Inc.),
 the Gaussian(R) 94 system (copyright 1995, Gaussian, Inc.),
 the Gaussian 92(TM) system (copyright 1992, Gaussian, Inc.),
 the Gaussian 90(TM) system (copyright 1990, Gaussian, Inc.),
 the Gaussian 88(TM) system (copyright 1988, Gaussian, Inc.),
 the Gaussian 86(TM) system (copyright 1986, Carnegie Mellon
 University), and the Gaussian 82(TM) system (copyright 1983,
 Carnegie Mellon University). Gaussian is a federally registered
 trademark of Gaussian, Inc.
  
 This software contains proprietary and confidential information,
 including trade secrets, belonging to Gaussian, Inc.
  
 This software is provided under written license and may be
 used, copied, transmitted, or stored only in accord with that
 written license.
  
 The following legend is applicable only to US Government
 contracts under FAR:
  
                    RESTRICTED RIGHTS LEGEND
  
 Use, reproduction and disclosure by the US Government is
 subject to restrictions as set forth in subparagraphs (a)
 and (c) of the Commercial Computer Software - Restricted
 Rights clause in FAR 52.227-19.
  
 Gaussian, Inc.
 340 Quinnipiac St., Bldg. 40, Wallingford CT 06492
  
  
 ---------------------------------------------------------------
 Warning -- This program may not be used in any manner that
 competes with the business of Gaussian, Inc. or will provide
 assistance to any competitor of Gaussian, Inc.  The licensee
 of this program is prohibited from giving any competitor of
 Gaussian, Inc. access to this program.  By using this program,
 the user acknowledges that Gaussian, Inc. is engaged in the
 business of creating and licensing software in the field of
 computational chemistry and represents and warrants to the
 licensee that it is not a competitor of Gaussian, Inc. and that
 it will not use this program in any manner prohibited above.
 ---------------------------------------------------------------
  

 Cite this work as:
 Gaussian 16, Revision A.03,
 M. J. Frisch, G. W. Trucks, H. B. Schlegel, G. E. Scuseria, 
 M. A. Robb, J. R. Cheeseman, G. Scalmani, V. Barone, 
 G. A. Petersson, H. Nakatsuji, X. Li, M. Caricato, A. V. Marenich, 
 J. Bloino, B. G. Janesko, R. Gomperts, B. Mennucci, H. P. Hratchian, 
 J. V. Ortiz, A. F. Izmaylov, J. L. Sonnenberg, D. Williams-Young, 
 F. Ding, F. Lipparini, F. Egidi, J. Goings, B. Peng, A. Petrone, 
 T. Henderson, D. Ranasinghe, V. G. Zakrzewski, J. Gao, N. Rega, 
 G. Zheng, W. Liang, M. Hada, M. Ehara, K. Toyota, R. Fukuda, 
 J. Hasegawa, M. Ishida, T. Nakajima, Y. Honda, O. Kitao, H. Nakai, 
 T. Vreven, K. Throssell, J. A. Montgomery, Jr., J. E. Peralta, 
 F. Ogliaro, M. J. Bearpark, J. J. Heyd, E. N. Brothers, K. N. Kudin, 
 V. N. Staroverov, T. A. Keith, R. Kobayashi, J. Normand, 
 K. Raghavachari, A. P. Rendell, J. C. Burant, S. S. Iyengar, 
 J. Tomasi, M. Cossi, J. M. Millam, M. Klene, C. Adamo, R. Cammi, 
 J. W. Ochterski, R. L. Martin, K. Morokuma, O. Farkas, 
 J. B. Foresman, and D. J. Fox, Gaussian, Inc., Wallingford CT, 2016.
 
 ******************************************
 Gaussian 16:  EM64M-G16RevA.03 25-Dec-2016
                 2-Apr-2026 
 ******************************************
 %nprocshared=4
 Will use up to    4 processors via shared memory.
 %mem=8GB
 %chk=1112Tetrafluoroethane_Opt_Freq_DFT_WB97XD_6311pp2d3p_Gaussian16.chk
 ----------------------------------------------------------------------
 #p opt=tight freq=raman wb97xd/6-311++g(2d,3p) guess=save geom=connect
 ivity polar
 ----------------------------------------------------------------------
 1/7=10,18=20,19=15,26=3,38=1,57=2/1,3;
 2/9=110,12=2,17=6,18=5,40=1/2;
 3/5=4,6=6,7=1512,11=2,25=1,30=1,71=1,74=-58/1,2,3;
 4//1;
 5/5=2,38=5,98=1/2;
 6/7=2,8=2,9=2,10=2,28=1/1;
 7//1,2,3,16;
 1/7=10,18=20,19=15,26=3/3(2);
 2/9=110/2;
 99//99;
 2/9=110/2;
 3/5=4,6=6,7=1512,11=2,25=1,30=1,71=1,74=-58/1,2,3;
 4/5=5,16=3,69=1/1;
 5/5=2,38=5,98=1/2;
 7//1,2,3,16;
 1/7=10,18=20,19=15,26=3/3(-5);
 2/9=110/2;
 6/7=2,8=2,9=2,10=2,19=2,28=1/1;
 99/9=1/99;
 Leave Link    1 at Thu Apr  2 15:16:57 2026, MaxMem=  1073741824 cpu:               0.1 elap:               0.0
 (Enter /Users/yarger/Applications/g16/l101.exe)
 ---------------------------------
 r134a - 1,1,1,2-Tetrafluoroethane
 ---------------------------------
 Symbolic Z-matrix:
 Charge =  0 Multiplicity = 1
 C                    -1.50144   1.41061   1.45695 
 H                    -1.18245   2.43192   1.44839 
 C                    -0.30505   0.49643   1.13366 
 F                     0.66039   0.67411   2.06041 
 F                    -0.70751  -0.79214   1.14446 
 F                     0.18076   0.80592  -0.08728 
 F                    -1.98724   1.10112   2.6779 
 H                    -2.26664   1.26978   0.72242 
 
 ITRead=  0  0  0  0  0  0  0  0
 MicOpt= -1 -1 -1 -1 -1 -1 -1 -1
 NAtoms=      8 NQM=        8 NQMF=       0 NMMI=      0 NMMIF=      0
                NMic=       0 NMicF=      0.
                    Isotopes and Nuclear Properties:
 (Nuclear quadrupole moments (NQMom) in fm**2, nuclear magnetic moments (NMagM)
  in nuclear magnetons)

  Atom         1           2           3           4           5           6           7           8
 IAtWgt=          12           1          12          19          19          19          19           1
 AtmWgt=  12.0000000   1.0078250  12.0000000  18.9984033  18.9984033  18.9984033  18.9984033   1.0078250
 NucSpn=           0           1           0           1           1           1           1           1
 AtZEff=  -0.0000000  -0.0000000  -0.0000000  -0.0000000  -0.0000000  -0.0000000  -0.0000000  -0.0000000
 NQMom=    0.0000000   0.0000000   0.0000000   0.0000000   0.0000000   0.0000000   0.0000000   0.0000000
 NMagM=    0.0000000   2.7928460   0.0000000   2.6288670   2.6288670   2.6288670   2.6288670   2.7928460
 AtZNuc=   6.0000000   1.0000000   6.0000000   9.0000000   9.0000000   9.0000000   9.0000000   1.0000000
 Leave Link  101 at Thu Apr  2 15:16:57 2026, MaxMem=  1073741824 cpu:               0.7 elap:               0.2
 (Enter /Users/yarger/Applications/g16/l103.exe)

 GradGradGradGradGradGradGradGradGradGradGradGradGradGradGradGradGradGrad
 Berny optimization.
 Initialization pass.
                           ----------------------------
                           !    Initial Parameters    !
                           ! (Angstroms and Degrees)  !
 --------------------------                            --------------------------
 ! Name  Definition              Value          Derivative Info.                !
 --------------------------------------------------------------------------------
 ! R1    R(1,2)                  1.07           estimate D2E/DX2                !
 ! R2    R(1,3)                  1.54           estimate D2E/DX2                !
 ! R3    R(1,7)                  1.35           estimate D2E/DX2                !
 ! R4    R(1,8)                  1.07           estimate D2E/DX2                !
 ! R5    R(3,4)                  1.35           estimate D2E/DX2                !
 ! R6    R(3,5)                  1.35           estimate D2E/DX2                !
 ! R7    R(3,6)                  1.35           estimate D2E/DX2                !
 ! A1    A(2,1,3)              109.4712         estimate D2E/DX2                !
 ! A2    A(2,1,7)              109.4712         estimate D2E/DX2                !
 ! A3    A(2,1,8)              109.4712         estimate D2E/DX2                !
 ! A4    A(3,1,7)              109.4712         estimate D2E/DX2                !
 ! A5    A(3,1,8)              109.4712         estimate D2E/DX2                !
 ! A6    A(7,1,8)              109.4712         estimate D2E/DX2                !
 ! A7    A(1,3,4)              109.4712         estimate D2E/DX2                !
 ! A8    A(1,3,5)              109.4712         estimate D2E/DX2                !
 ! A9    A(1,3,6)              109.4712         estimate D2E/DX2                !
 ! A10   A(4,3,5)              109.4712         estimate D2E/DX2                !
 ! A11   A(4,3,6)              109.4712         estimate D2E/DX2                !
 ! A12   A(5,3,6)              109.4712         estimate D2E/DX2                !
 ! D1    D(2,1,3,4)             60.0            estimate D2E/DX2                !
 ! D2    D(2,1,3,5)            180.0            estimate D2E/DX2                !
 ! D3    D(2,1,3,6)            -60.0            estimate D2E/DX2                !
 ! D4    D(7,1,3,4)            -60.0            estimate D2E/DX2                !
 ! D5    D(7,1,3,5)             60.0            estimate D2E/DX2                !
 ! D6    D(7,1,3,6)            180.0            estimate D2E/DX2                !
 ! D7    D(8,1,3,4)           -180.0            estimate D2E/DX2                !
 ! D8    D(8,1,3,5)            -60.0            estimate D2E/DX2                !
 ! D9    D(8,1,3,6)             60.0            estimate D2E/DX2                !
 --------------------------------------------------------------------------------
 Trust Radius=3.00D-01 FncErr=1.00D-07 GrdErr=1.00D-06 EigMax=2.50D+02 EigMin=1.00D-04
 Number of steps in this run=     38 maximum allowed number of steps=    100.
 GradGradGradGradGradGradGradGradGradGradGradGradGradGradGradGradGradGrad

 Leave Link  103 at Thu Apr  2 15:16:57 2026, MaxMem=  1073741824 cpu:               0.0 elap:               0.0
 (Enter /Users/yarger/Applications/g16/l202.exe)
                          Input orientation:                          
 ---------------------------------------------------------------------
 Center     Atomic      Atomic             Coordinates (Angstroms)
 Number     Number       Type             X           Y           Z
 ---------------------------------------------------------------------
      1          6           0       -1.501439    1.410611    1.456949
      2          1           0       -1.182454    2.431922    1.448389
      3          6           0       -0.305047    0.496427    1.133662
      4          9           0        0.660391    0.674113    2.060407
      5          9           0       -0.707506   -0.792142    1.144463
      6          9           0        0.180758    0.805915   -0.087285
      7          9           0       -1.987244    1.101123    2.677896
      8          1           0       -2.266638    1.269779    0.722418
 ---------------------------------------------------------------------
                    Distance matrix (angstroms):
                    1          2          3          4          5
     1  C    0.000000
     2  H    1.070000   0.000000
     3  C    1.540000   2.148263   0.000000
     4  F    2.362224   2.619262   1.350000   0.000000
     5  F    2.362224   3.273001   1.350000   2.204541   0.000000
     6  F    2.362224   2.619262   1.350000   2.204541   2.204541
     7  F    1.350000   1.982524   2.362224   2.752017   2.752017
     8  H    1.070000   1.747303   2.148263   3.273001   2.619262
                    6          7          8
     6  F    0.000000
     7  F    3.526131   0.000000
     8  H    2.619262   1.982524   0.000000
 Stoichiometry    C2H2F4
 Framework group  CS[SG(C2F2),X(H2F2)]
 Deg. of freedom    11
 Full point group                 CS      NOp   2
 Largest Abelian subgroup         CS      NOp   2
 Largest concise Abelian subgroup CS      NOp   2
                         Standard orientation:                         
 ---------------------------------------------------------------------
 Center     Atomic      Atomic             Coordinates (Angstroms)
 Number     Number       Type             X           Y           Z
 ---------------------------------------------------------------------
      1          6           0        0.803253   -0.868125   -0.000000
      2          1           0        1.420351   -0.896813   -0.873651
      3          6           0       -0.026516    0.429212    0.000000
      4          9           0       -0.805098    0.465407   -1.102270
      5          9           0       -0.805098    0.465407    1.102270
      6          9           0        0.803253    1.494099   -0.000000
      7          9           0       -0.026516   -1.933012   -0.000000
      8          1           0        1.420351   -0.896813    0.873651
 ---------------------------------------------------------------------
 Rotational constants (GHZ):           5.2497613           2.7740143           2.7610135
 Leave Link  202 at Thu Apr  2 15:16:57 2026, MaxMem=  1073741824 cpu:               0.0 elap:               0.0
 (Enter /Users/yarger/Applications/g16/l301.exe)
 Standard basis: 6-311++G(2d,3p) (5D, 7F)
 Ernie: Thresh=  0.10000D-02 Tol=  0.10000D-05 Strict=F.
 There are   126 symmetry adapted cartesian basis functions of A'  symmetry.
 There are    74 symmetry adapted cartesian basis functions of A"  symmetry.
 There are   116 symmetry adapted basis functions of A'  symmetry.
 There are    72 symmetry adapted basis functions of A"  symmetry.
   188 basis functions,   282 primitive gaussians,   200 cartesian basis functions
    25 alpha electrons       25 beta electrons
       nuclear repulsion energy       271.2438406540 Hartrees.
 IExCor= 4639 DFT=T Ex+Corr=wB97XD ExCW=0 ScaHFX=  1.000000
 ScaDFX=  1.000000  1.000000  1.000000  1.000000 ScalE2=  1.000000  1.000000
 IRadAn=      5 IRanWt=     -1 IRanGd=            0 ICorTp=0 IEmpDi=121
 HFx  wShort=  0.000000 wLong=  0.200000 cFull=  0.222036 cShort=  0.000000 cLong=  0.777964
 DFx  wShort=  0.000000 wLong=  0.200000 cFull=  0.000000 cShort=  0.000000 cLong=  1.000000
 NAtoms=    8 NActive=    8 NUniq=    6 SFac= 1.78D+00 NAtFMM=   60 NAOKFM=F Big=F
 Integral buffers will be    131072 words long.
 Raffenetti 2 integral format.
 Two-electron integral symmetry is turned on.
 R6Disp:  Grimme-D2 Dispersion energy=       -0.0021561211 Hartrees.
 Nuclear repulsion after empirical dispersion term =      271.2416845329 Hartrees.
 Leave Link  301 at Thu Apr  2 15:16:57 2026, MaxMem=  1073741824 cpu:               0.1 elap:               0.0
 (Enter /Users/yarger/Applications/g16/l302.exe)
 NPDir=0 NMtPBC=     1 NCelOv=     1 NCel=       1 NClECP=     1 NCelD=      1
         NCelK=      1 NCelE2=     1 NClLst=     1 CellRange=     0.0.
 One-electron integrals computed using PRISM.
 One-electron integral symmetry used in STVInt
 NBasis=   188 RedAO= T EigKep=  1.19D-04  NBF=   116    72
 NBsUse=   188 1.00D-06 EigRej= -1.00D+00 NBFU=   116    72
 Precomputing XC quadrature grid using
 IXCGrd= 4 IRadAn=           5 IRanWt=          -1 IRanGd=           0 AccXCQ= 0.00D+00.
 Generated NRdTot=       0 NPtTot=           0 NUsed=           0 NTot=          32
 NSgBfM=   200   200   200   200   200 MxSgAt=     8 MxSgA2=     8.
 Leave Link  302 at Thu Apr  2 15:16:57 2026, MaxMem=  1073741824 cpu:               0.5 elap:               0.1
 (Enter /Users/yarger/Applications/g16/l303.exe)
 DipDrv:  MaxL=1.
 Leave Link  303 at Thu Apr  2 15:16:57 2026, MaxMem=  1073741824 cpu:               0.1 elap:               0.0
 (Enter /Users/yarger/Applications/g16/l401.exe)
 ExpMin= 3.60D-02 ExpMax= 1.14D+04 ExpMxC= 1.72D+03 IAcc=3 IRadAn=         5 AccDes= 0.00D+00
 Harris functional with IExCor= 4639 and IRadAn=       5 diagonalized for initial guess.
 HarFok:  IExCor= 4639 AccDes= 0.00D+00 IRadAn=         5 IDoV= 1 UseB2=F ITyADJ=14
 ICtDFT=  3500011 ScaDFX=  1.000000  1.000000  1.000000  1.000000
 FoFCou: FMM=F IPFlag=           0 FMFlag=      100000 FMFlg1=           0
         NFxFlg=           0 DoJE=T BraDBF=F KetDBF=T FulRan=T
         wScrn=  0.000000 ICntrl=       500 IOpCl=  0 I1Cent=   200000004 NGrid=           0
         NMat0=    1 NMatS0=      1 NMatT0=    0 NMatD0=    1 NMtDS0=    0 NMtDT0=    0
 Petite list used in FoFCou.
 Harris En= -461.281614473581    
 JPrj=0 DoOrth=F DoCkMO=F.
 Initial guess orbital symmetries:
       Occupied  (A') (A') (A') (A") (A') (A') (A') (A') (A") (A')
                 (A') (A') (A") (A') (A') (A") (A') (A') (A") (A')
                 (A') (A") (A") (A") (A')
       Virtual   (A') (A") (A') (A') (A") (A') (A') (A") (A') (A')
                 (A') (A") (A') (A') (A") (A") (A') (A') (A') (A')
                 (A') (A") (A') (A") (A') (A") (A") (A') (A') (A')
                 (A") (A') (A") (A') (A') (A") (A') (A") (A') (A')
                 (A") (A') (A") (A') (A') (A") (A') (A") (A') (A')
                 (A') (A') (A") (A") (A') (A') (A') (A') (A") (A')
                 (A") (A') (A") (A') (A") (A') (A") (A') (A') (A")
                 (A') (A") (A") (A') (A') (A") (A') (A") (A') (A")
                 (A') (A") (A') (A') (A") (A") (A') (A') (A") (A')
                 (A") (A') (A') (A') (A") (A') (A") (A') (A') (A")
                 (A') (A') (A") (A') (A') (A") (A') (A") (A') (A")
                 (A") (A') (A') (A') (A") (A') (A') (A") (A') (A')
                 (A") (A") (A") (A') (A') (A") (A') (A') (A') (A')
                 (A") (A") (A') (A") (A') (A') (A") (A") (A') (A")
                 (A") (A') (A") (A') (A") (A') (A") (A') (A') (A')
                 (A") (A') (A") (A') (A') (A') (A") (A') (A') (A')
                 (A") (A') (A')
 The electronic state of the initial guess is 1-A'.
 Leave Link  401 at Thu Apr  2 15:16:58 2026, MaxMem=  1073741824 cpu:               1.4 elap:               0.4
 (Enter /Users/yarger/Applications/g16/l502.exe)
 Keep R1 ints in memory in symmetry-blocked form, NReq=474084691.
 FoFCou: FMM=F IPFlag=           0 FMFlag=           0 FMFlg1=           0
         NFxFlg=           0 DoJE=F BraDBF=F KetDBF=F FulRan=T
         wScrn=  0.000000 ICntrl=       600 IOpCl=  0 I1Cent=           0 NGrid=           0
         NMat0=    1 NMatS0=  17766 NMatT0=    0 NMatD0=    1 NMtDS0=    0 NMtDT0=    0
 Petite list used in FoFCou.
 Closed shell SCF:
 Using DIIS extrapolation, IDIIS=  1040.
 NGot=  1073741824 LenX=   994422283 LenY=   994381842
 Requested convergence on RMS density matrix=1.00D-08 within 128 cycles.
 Requested convergence on MAX density matrix=1.00D-06.
 Requested convergence on             energy=1.00D-06.
 No special actions if energy rises.

 Cycle   1  Pass 1  IDiag  1:
 E= -476.452772454543    
 DIIS: error= 1.34D-01 at cycle   1 NSaved=   1.
 NSaved= 1 IEnMin= 1 EnMin= -476.452772454543     IErMin= 1 ErrMin= 1.34D-01
 ErrMax= 1.34D-01  0.00D+00 EMaxC= 1.00D-01 BMatC= 1.35D+00 BMatP= 1.35D+00
 IDIUse=3 WtCom= 0.00D+00 WtEn= 1.00D+00
 Coeff-Com:  0.100D+01
 Coeff-En:   0.100D+01
 Coeff:      0.100D+01
 Gap=     0.658 Goal=   None    Shift=    0.000
 GapD=    0.658 DampG=2.000 DampE=0.250 DampFc=0.5000 IDamp=-1.
 Damping current iteration by 5.00D-01
 RMSDP=3.99D-03 MaxDP=1.18D-01              OVMax= 1.38D-01

 Cycle   2  Pass 1  IDiag  1:
 E= -476.638344210500     Delta-E=       -0.185571755957 Rises=F Damp=T
 DIIS: error= 5.84D-02 at cycle   2 NSaved=   2.
 NSaved= 2 IEnMin= 2 EnMin= -476.638344210500     IErMin= 2 ErrMin= 5.84D-02
 ErrMax= 5.84D-02  0.00D+00 EMaxC= 1.00D-01 BMatC= 1.74D-01 BMatP= 1.35D+00
 IDIUse=3 WtCom= 4.16D-01 WtEn= 5.84D-01
 Coeff-Com: -0.268D+00 0.127D+01
 Coeff-En:   0.000D+00 0.100D+01
 Coeff:     -0.112D+00 0.111D+01
 Gap=     0.639 Goal=   None    Shift=    0.000
 RMSDP=1.22D-03 MaxDP=4.39D-02 DE=-1.86D-01 OVMax= 8.17D-02

 Cycle   3  Pass 1  IDiag  1:
 E= -476.803631091594     Delta-E=       -0.165286881094 Rises=F Damp=F
 DIIS: error= 8.77D-03 at cycle   3 NSaved=   3.
 NSaved= 3 IEnMin= 3 EnMin= -476.803631091594     IErMin= 3 ErrMin= 8.77D-03
 ErrMax= 8.77D-03  0.00D+00 EMaxC= 1.00D-01 BMatC= 1.43D-02 BMatP= 1.74D-01
 IDIUse=3 WtCom= 9.12D-01 WtEn= 8.77D-02
 Coeff-Com: -0.101D+00 0.296D+00 0.805D+00
 Coeff-En:   0.000D+00 0.000D+00 0.100D+01
 Coeff:     -0.924D-01 0.270D+00 0.822D+00
 Gap=     0.502 Goal=   None    Shift=    0.000
 RMSDP=4.98D-04 MaxDP=2.78D-02 DE=-1.65D-01 OVMax= 2.43D-02

 Cycle   4  Pass 1  IDiag  1:
 E= -476.810485334541     Delta-E=       -0.006854242947 Rises=F Damp=F
 DIIS: error= 4.47D-03 at cycle   4 NSaved=   4.
 NSaved= 4 IEnMin= 4 EnMin= -476.810485334541     IErMin= 4 ErrMin= 4.47D-03
 ErrMax= 4.47D-03  0.00D+00 EMaxC= 1.00D-01 BMatC= 3.42D-03 BMatP= 1.43D-02
 IDIUse=3 WtCom= 9.55D-01 WtEn= 4.47D-02
 Coeff-Com: -0.188D-01 0.438D-01 0.364D+00 0.611D+00
 Coeff-En:   0.000D+00 0.000D+00 0.159D+00 0.841D+00
 Coeff:     -0.180D-01 0.419D-01 0.355D+00 0.622D+00
 Gap=     0.502 Goal=   None    Shift=    0.000
 RMSDP=1.75D-04 MaxDP=1.10D-02 DE=-6.85D-03 OVMax= 8.51D-03

 Cycle   5  Pass 1  IDiag  1:
 E= -476.812749186226     Delta-E=       -0.002263851685 Rises=F Damp=F
 DIIS: error= 2.56D-04 at cycle   5 NSaved=   5.
 NSaved= 5 IEnMin= 5 EnMin= -476.812749186226     IErMin= 5 ErrMin= 2.56D-04
 ErrMax= 2.56D-04  0.00D+00 EMaxC= 1.00D-01 BMatC= 1.59D-05 BMatP= 3.42D-03
 IDIUse=3 WtCom= 9.97D-01 WtEn= 2.56D-03
 Coeff-Com:  0.215D-02-0.580D-02 0.174D-01 0.639D-01 0.922D+00
 Coeff-En:   0.000D+00 0.000D+00 0.000D+00 0.000D+00 0.100D+01
 Coeff:      0.215D-02-0.578D-02 0.174D-01 0.638D-01 0.922D+00
 Gap=     0.500 Goal=   None    Shift=    0.000
 RMSDP=3.15D-05 MaxDP=7.94D-04 DE=-2.26D-03 OVMax= 1.17D-03

 Cycle   6  Pass 1  IDiag  1:
 E= -476.812761220812     Delta-E=       -0.000012034586 Rises=F Damp=F
 DIIS: error= 1.34D-04 at cycle   6 NSaved=   6.
 NSaved= 6 IEnMin= 6 EnMin= -476.812761220812     IErMin= 6 ErrMin= 1.34D-04
 ErrMax= 1.34D-04  0.00D+00 EMaxC= 1.00D-01 BMatC= 5.65D-06 BMatP= 1.59D-05
 IDIUse=3 WtCom= 9.99D-01 WtEn= 1.34D-03
 Coeff-Com:  0.324D-02-0.771D-02-0.310D-01-0.375D-01 0.416D+00 0.657D+00
 Coeff-En:   0.000D+00 0.000D+00 0.000D+00 0.000D+00 0.000D+00 0.100D+01
 Coeff:      0.323D-02-0.770D-02-0.309D-01-0.374D-01 0.416D+00 0.657D+00
 Gap=     0.500 Goal=   None    Shift=    0.000
 RMSDP=9.70D-06 MaxDP=2.35D-04 DE=-1.20D-05 OVMax= 4.17D-04

 Cycle   7  Pass 1  IDiag  1:
 E= -476.812764751634     Delta-E=       -0.000003530823 Rises=F Damp=F
 DIIS: error= 3.48D-05 at cycle   7 NSaved=   7.
 NSaved= 7 IEnMin= 7 EnMin= -476.812764751634     IErMin= 7 ErrMin= 3.48D-05
 ErrMax= 3.48D-05  0.00D+00 EMaxC= 1.00D-01 BMatC= 3.32D-07 BMatP= 5.65D-06
 IDIUse=1 WtCom= 1.00D+00 WtEn= 0.00D+00
 Coeff-Com:  0.107D-02-0.247D-02-0.130D-01-0.193D-01 0.775D-01 0.255D+00
 Coeff-Com:  0.702D+00
 Coeff:      0.107D-02-0.247D-02-0.130D-01-0.193D-01 0.775D-01 0.255D+00
 Coeff:      0.702D+00
 Gap=     0.500 Goal=   None    Shift=    0.000
 RMSDP=2.56D-06 MaxDP=8.00D-05 DE=-3.53D-06 OVMax= 1.19D-04

 Cycle   8  Pass 1  IDiag  1:
 E= -476.812764954536     Delta-E=       -0.000000202902 Rises=F Damp=F
 DIIS: error= 7.42D-06 at cycle   8 NSaved=   8.
 NSaved= 8 IEnMin= 8 EnMin= -476.812764954536     IErMin= 8 ErrMin= 7.42D-06
 ErrMax= 7.42D-06  0.00D+00 EMaxC= 1.00D-01 BMatC= 1.62D-08 BMatP= 3.32D-07
 IDIUse=1 WtCom= 1.00D+00 WtEn= 0.00D+00
 Coeff-Com:  0.992D-04-0.213D-03-0.183D-02-0.338D-02-0.532D-02 0.382D-01
 Coeff-Com:  0.225D+00 0.747D+00
 Coeff:      0.992D-04-0.213D-03-0.183D-02-0.338D-02-0.532D-02 0.382D-01
 Coeff:      0.225D+00 0.747D+00
 Gap=     0.500 Goal=   None    Shift=    0.000
 RMSDP=7.28D-07 MaxDP=2.85D-05 DE=-2.03D-07 OVMax= 3.42D-05

 Cycle   9  Pass 1  IDiag  1:
 E= -476.812764968752     Delta-E=       -0.000000014216 Rises=F Damp=F
 DIIS: error= 1.29D-06 at cycle   9 NSaved=   9.
 NSaved= 9 IEnMin= 9 EnMin= -476.812764968752     IErMin= 9 ErrMin= 1.29D-06
 ErrMax= 1.29D-06  0.00D+00 EMaxC= 1.00D-01 BMatC= 6.17D-10 BMatP= 1.62D-08
 IDIUse=1 WtCom= 1.00D+00 WtEn= 0.00D+00
 Coeff-Com: -0.658D-04 0.153D-03 0.642D-03 0.809D-03-0.531D-02-0.113D-01
 Coeff-Com: -0.195D-01 0.945D-01 0.940D+00
 Coeff:     -0.658D-04 0.153D-03 0.642D-03 0.809D-03-0.531D-02-0.113D-01
 Coeff:     -0.195D-01 0.945D-01 0.940D+00
 Gap=     0.500 Goal=   None    Shift=    0.000
 RMSDP=2.16D-07 MaxDP=4.87D-06 DE=-1.42D-08 OVMax= 1.12D-05

 Cycle  10  Pass 1  IDiag  1:
 E= -476.812764969479     Delta-E=       -0.000000000727 Rises=F Damp=F
 DIIS: error= 6.16D-07 at cycle  10 NSaved=  10.
 NSaved=10 IEnMin=10 EnMin= -476.812764969479     IErMin=10 ErrMin= 6.16D-07
 ErrMax= 6.16D-07  0.00D+00 EMaxC= 1.00D-01 BMatC= 1.53D-10 BMatP= 6.17D-10
 IDIUse=1 WtCom= 1.00D+00 WtEn= 0.00D+00
 Coeff-Com: -0.330D-04 0.751D-04 0.369D-03 0.533D-03-0.185D-02-0.721D-02
 Coeff-Com: -0.228D-01-0.132D-01 0.380D+00 0.664D+00
 Coeff:     -0.330D-04 0.751D-04 0.369D-03 0.533D-03-0.185D-02-0.721D-02
 Coeff:     -0.228D-01-0.132D-01 0.380D+00 0.664D+00
 Gap=     0.500 Goal=   None    Shift=    0.000
 RMSDP=5.81D-08 MaxDP=1.31D-06 DE=-7.27D-10 OVMax= 2.47D-06

 Cycle  11  Pass 1  IDiag  1:
 E= -476.812764969575     Delta-E=       -0.000000000096 Rises=F Damp=F
 DIIS: error= 1.99D-07 at cycle  11 NSaved=  11.
 NSaved=11 IEnMin=11 EnMin= -476.812764969575     IErMin=11 ErrMin= 1.99D-07
 ErrMax= 1.99D-07  0.00D+00 EMaxC= 1.00D-01 BMatC= 1.30D-11 BMatP= 1.53D-10
 IDIUse=1 WtCom= 1.00D+00 WtEn= 0.00D+00
 Coeff-Com: -0.202D-05 0.424D-05 0.323D-04 0.623D-04 0.527D-04-0.922D-03
 Coeff-Com: -0.457D-02-0.160D-01 0.729D-03 0.233D+00 0.787D+00
 Coeff:     -0.202D-05 0.424D-05 0.323D-04 0.623D-04 0.527D-04-0.922D-03
 Coeff:     -0.457D-02-0.160D-01 0.729D-03 0.233D+00 0.787D+00
 Gap=     0.500 Goal=   None    Shift=    0.000
 RMSDP=2.05D-08 MaxDP=5.32D-07 DE=-9.57D-11 OVMax= 9.24D-07

 Cycle  12  Pass 1  IDiag  1:
 E= -476.812764969581     Delta-E=       -0.000000000006 Rises=F Damp=F
 DIIS: error= 1.98D-08 at cycle  12 NSaved=  12.
 NSaved=12 IEnMin=12 EnMin= -476.812764969581     IErMin=12 ErrMin= 1.98D-08
 ErrMax= 1.98D-08  0.00D+00 EMaxC= 1.00D-01 BMatC= 1.35D-13 BMatP= 1.30D-11
 IDIUse=1 WtCom= 1.00D+00 WtEn= 0.00D+00
 Coeff-Com:  0.124D-05-0.282D-05-0.131D-04-0.173D-04 0.679D-04 0.213D-03
 Coeff-Com:  0.560D-03-0.109D-02-0.149D-01-0.101D-01 0.518D-01 0.973D+00
 Coeff:      0.124D-05-0.282D-05-0.131D-04-0.173D-04 0.679D-04 0.213D-03
 Coeff:      0.560D-03-0.109D-02-0.149D-01-0.101D-01 0.518D-01 0.973D+00
 Gap=     0.500 Goal=   None    Shift=    0.000
 RMSDP=5.96D-09 MaxDP=1.77D-07 DE=-6.48D-12 OVMax= 2.12D-07

 SCF Done:  E(RwB97XD) =  -476.812764970     A.U. after   12 cycles
            NFock= 12  Conv=0.60D-08     -V/T= 2.0028
 KE= 4.755028264874D+02 PE=-1.675585602317D+03 EE= 4.520283263270D+02
 Leave Link  502 at Thu Apr  2 15:17:06 2026, MaxMem=  1073741824 cpu:              31.9 elap:               8.2
 (Enter /Users/yarger/Applications/g16/l601.exe)
 Copying SCF densities to generalized density rwf, IOpCl= 0 IROHF=0.

 **********************************************************************

            Population analysis using the SCF density.

 **********************************************************************

 Orbital symmetries:
       Occupied  (A') (A") (A') (A') (A') (A') (A') (A') (A") (A')
                 (A') (A') (A') (A") (A') (A') (A") (A') (A") (A')
                 (A') (A") (A") (A") (A')
       Virtual   (A') (A") (A') (A') (A") (A') (A') (A") (A') (A')
                 (A') (A") (A') (A') (A") (A') (A') (A") (A') (A')
                 (A') (A') (A") (A") (A') (A") (A') (A") (A') (A')
                 (A") (A') (A") (A') (A') (A") (A') (A") (A') (A')
                 (A') (A") (A") (A') (A') (A") (A') (A") (A') (A')
                 (A') (A') (A") (A") (A') (A') (A') (A") (A') (A')
                 (A") (A') (A") (A") (A') (A') (A") (A') (A') (A")
                 (A') (A") (A') (A") (A') (A") (A') (A') (A") (A")
                 (A") (A') (A') (A") (A') (A") (A') (A') (A") (A')
                 (A") (A') (A') (A') (A") (A') (A') (A") (A') (A")
                 (A') (A") (A') (A') (A') (A") (A') (A") (A') (A")
                 (A') (A') (A") (A') (A") (A') (A") (A') (A') (A')
                 (A") (A") (A") (A') (A') (A") (A') (A') (A') (A')
                 (A") (A") (A') (A") (A') (A') (A") (A") (A') (A")
                 (A") (A") (A') (A') (A") (A') (A") (A') (A') (A')
                 (A") (A') (A") (A') (A') (A') (A") (A') (A') (A')
                 (A") (A') (A')
 The electronic state is 1-A'.
 Alpha  occ. eigenvalues --  -24.86476 -24.85838 -24.85837 -24.82952 -10.55953
 Alpha  occ. eigenvalues --  -10.39650  -1.43588  -1.35508  -1.34930  -1.34513
 Alpha  occ. eigenvalues --   -0.89706  -0.79157  -0.71077  -0.70970  -0.68605
 Alpha  occ. eigenvalues --   -0.62571  -0.62368  -0.57773  -0.57726  -0.55332
 Alpha  occ. eigenvalues --   -0.54057  -0.54009  -0.52284  -0.47007  -0.45787
 Alpha virt. eigenvalues --    0.04207   0.06729   0.08412   0.09554   0.12496
 Alpha virt. eigenvalues --    0.12850   0.13446   0.15869   0.16046   0.17332
 Alpha virt. eigenvalues --    0.19171   0.19923   0.23489   0.25523   0.25770
 Alpha virt. eigenvalues --    0.27062   0.28255   0.30821   0.33182   0.34536
 Alpha virt. eigenvalues --    0.35363   0.37588   0.37590   0.39070   0.40480
 Alpha virt. eigenvalues --    0.41760   0.41809   0.42449   0.43788   0.45148
 Alpha virt. eigenvalues --    0.46756   0.48235   0.49544   0.49836   0.52524
 Alpha virt. eigenvalues --    0.54027   0.59126   0.61299   0.62849   0.65727
 Alpha virt. eigenvalues --    0.74061   0.74827   0.78848   0.79018   0.84148
 Alpha virt. eigenvalues --    0.88163   0.89273   0.96583   0.99817   1.02179
 Alpha virt. eigenvalues --    1.02522   1.14519   1.15372   1.22325   1.24696
 Alpha virt. eigenvalues --    1.25496   1.35891   1.36520   1.37124   1.40085
 Alpha virt. eigenvalues --    1.41478   1.43527   1.45890   1.46007   1.46366
 Alpha virt. eigenvalues --    1.49498   1.50922   1.53046   1.60010   1.60090
 Alpha virt. eigenvalues --    1.63250   1.88093   1.92861   1.93723   1.97142
 Alpha virt. eigenvalues --    1.99538   2.02146   2.03563   2.04754   2.10528
 Alpha virt. eigenvalues --    2.13623   2.13802   2.18714   2.19106   2.19820
 Alpha virt. eigenvalues --    2.22692   2.26687   2.35799   2.36354   2.47707
 Alpha virt. eigenvalues --    2.49096   2.50918   2.61821   2.66460   2.67425
 Alpha virt. eigenvalues --    2.77971   2.81799   2.84653   2.89017   3.05771
 Alpha virt. eigenvalues --    3.06887   3.08178   3.10595   3.42465   3.46506
 Alpha virt. eigenvalues --    3.49649   3.54918   3.54977   3.56155   3.56629
 Alpha virt. eigenvalues --    3.57960   3.59669   3.60518   3.61213   4.27265
 Alpha virt. eigenvalues --    4.29692   4.31281   4.31741   4.46541   6.39588
 Alpha virt. eigenvalues --    6.40441   6.42876   6.46021   6.47256   6.48512
 Alpha virt. eigenvalues --    6.49577   6.49768   6.54253   6.75398   6.83213
 Alpha virt. eigenvalues --    6.83571   8.36964   8.41688   8.46240   8.47429
 Alpha virt. eigenvalues --    8.66154   8.74293   9.09026   9.12303   9.12799
 Alpha virt. eigenvalues --    9.18846   9.20138   9.21153   9.22369   9.25022
 Alpha virt. eigenvalues --    9.26147   9.32577   9.34536   9.45277   9.49869
 Alpha virt. eigenvalues --    9.52724   9.67403   9.71780   9.72979   9.80549
 Alpha virt. eigenvalues --    9.88109   9.88344  23.94631  24.13582  66.94772
 Alpha virt. eigenvalues --   66.95358  66.96828  67.02256
          Condensed to atoms (all electrons):
               1          2          3          4          5          6
     1  C    4.629568   0.385998   0.380928  -0.093225  -0.093225  -0.080189
     2  H    0.385998   0.674772  -0.050835  -0.005003   0.011062   0.000777
     3  C    0.380928  -0.050835   4.321856   0.239060   0.239060   0.238266
     4  F   -0.093225  -0.005003   0.239060   9.126384  -0.001505   0.000097
     5  F   -0.093225   0.011062   0.239060  -0.001505   9.126384   0.000097
     6  F   -0.080189   0.000777   0.238266   0.000097   0.000097   9.127865
     7  F    0.136122  -0.036642  -0.076464   0.016503   0.016503   0.000861
     8  H    0.385998  -0.039430  -0.050835   0.011062  -0.005003   0.000777
               7          8
     1  C    0.136122   0.385998
     2  H   -0.036642  -0.039430
     3  C   -0.076464  -0.050835
     4  F    0.016503   0.011062
     5  F    0.016503  -0.005003
     6  F    0.000861   0.000777
     7  F    9.330047  -0.036642
     8  H   -0.036642   0.674772
 Mulliken charges:
               1
     1  C    0.348025
     2  H    0.059300
     3  C    0.758964
     4  F   -0.293374
     5  F   -0.293374
     6  F   -0.288553
     7  F   -0.350289
     8  H    0.059300
 Sum of Mulliken charges =  -0.00000
 Mulliken charges with hydrogens summed into heavy atoms:
               1
     1  C    0.466625
     3  C    0.758964
     4  F   -0.293374
     5  F   -0.293374
     6  F   -0.288553
     7  F   -0.350289
 Electronic spatial extent (au):  <R**2>=            478.4538
 Charge=             -0.0000 electrons
 Dipole moment (field-independent basis, Debye):
    X=              2.0521    Y=             -0.3195    Z=              0.0000  Tot=              2.0768
 Quadrupole moment (field-independent basis, Debye-Ang):
   XX=            -30.4851   YY=            -35.2705   ZZ=            -31.9364
   XY=             -2.1553   XZ=             -0.0000   YZ=              0.0000
 Traceless Quadrupole moment (field-independent basis, Debye-Ang):
   XX=              2.0789   YY=             -2.7065   ZZ=              0.6276
   XY=             -2.1553   XZ=             -0.0000   YZ=              0.0000
 Octapole moment (field-independent basis, Debye-Ang**2):
  XXX=             -2.5780  YYY=              7.7788  ZZZ=             -0.0000  XYY=             -1.3562
  XXY=             -2.0613  XXZ=             -0.0000  XZZ=              1.0660  YZZ=             -0.7376
  YYZ=             -0.0000  XYZ=              0.0000
 Hexadecapole moment (field-independent basis, Debye-Ang**3):
 XXXX=           -114.3227 YYYY=           -264.1106 ZZZZ=           -100.5802 XXXY=              6.2557
 XXXZ=             -0.0000 YYYX=              6.1824 YYYZ=             -0.0000 ZZZX=             -0.0000
 ZZZY=              0.0000 XXYY=            -59.2460 XXZZ=            -34.1434 YYZZ=            -58.0456
 XXYZ=             -0.0000 YYXZ=              0.0000 ZZXY=              1.8236
 N-N= 2.712416845329D+02 E-N=-1.675585600905D+03  KE= 4.755028264874D+02
 Symmetry A'   KE= 3.587580713761D+02
 Symmetry A"   KE= 1.167447551113D+02
 No NMR shielding tensors so no spin-rotation constants.
 Leave Link  601 at Thu Apr  2 15:17:06 2026, MaxMem=  1073741824 cpu:               0.3 elap:               0.1
 (Enter /Users/yarger/Applications/g16/l701.exe)
 ... and contract with generalized density number  0.
 Compute integral first derivatives.
 R6Disp: Adding Grimme-D2 dispersion energy 1st derivatives to the gradient.
 Leave Link  701 at Thu Apr  2 15:17:06 2026, MaxMem=  1073741824 cpu:               0.3 elap:               0.1
 (Enter /Users/yarger/Applications/g16/l702.exe)
 L702 exits ... SP integral derivatives will be done elsewhere.
 Leave Link  702 at Thu Apr  2 15:17:06 2026, MaxMem=  1073741824 cpu:               0.1 elap:               0.0
 (Enter /Users/yarger/Applications/g16/l703.exe)
 Integral derivatives from FoFJK, PRISM(SPDF).
 Compute integral first derivatives, UseDBF=F ICtDFT=           0.
 Calling FoFJK, ICntrl=      2127 FMM=F ISym2X=1 I1Cent= 0 IOpClX= 0 NMat=1 NMatS=1 NMatT=0.
 FoFJK:  IHMeth= 1 ICntrl=    2127 DoSepK=T KAlg= 0 I1Cent=           0 FoldK=F
 IRaf=         1 NMat=       1 IRICut=       1 DoRegI=T DoRafI=F ISym2E= 1 IDoP0=0 IntGTp=1.
 FoFCou: FMM=F IPFlag=           0 FMFlag=      100000 FMFlg1=         800
         NFxFlg=           0 DoJE=F BraDBF=F KetDBF=F FulRan=T
         wScrn=  0.000000 ICntrl=      2527 IOpCl=  0 I1Cent=           0 NGrid=           0
         NMat0=    1 NMatS0=      1 NMatT0=    0 NMatD0=    1 NMtDS0=    0 NMtDT0=    0
 Petite list used in FoFCou.
 Leave Link  703 at Thu Apr  2 15:17:09 2026, MaxMem=  1073741824 cpu:              10.8 elap:               2.8
 (Enter /Users/yarger/Applications/g16/l716.exe)
 Dipole        = 8.07341154D-01-1.25695739D-01-1.55431223D-15
 ***** Axes restored to original set *****
 -------------------------------------------------------------------
 Center     Atomic                   Forces (Hartrees/Bohr)
 Number     Number              X              Y              Z
 -------------------------------------------------------------------
      1        6           0.015042116   -0.009738135   -0.006875382
      2        1           0.006723566    0.012556774   -0.000153492
      3        6          -0.014020004    0.008101619    0.007968686
      4        9          -0.006099695   -0.008321068   -0.014932860
      5        9           0.013164699    0.012328533   -0.002033411
      6        9          -0.001588238   -0.006979011    0.013544007
      7        9          -0.004483717   -0.003931375    0.012989503
      8        1          -0.008738726   -0.004017336   -0.010507052
 -------------------------------------------------------------------
 Cartesian Forces:  Max     0.015042116 RMS     0.009569261
 Leave Link  716 at Thu Apr  2 15:17:09 2026, MaxMem=  1073741824 cpu:               0.1 elap:               0.0
 (Enter /Users/yarger/Applications/g16/l103.exe)

 GradGradGradGradGradGradGradGradGradGradGradGradGradGradGradGradGradGrad
 Berny optimization.
 FormGI is forming the generalized inverse of G from B-inverse, IUseBI=4.
 Internal  Forces:  Max     0.015709344 RMS     0.008641293
 Search for a local minimum.
 Step number   1 out of a maximum of   38
 All quantities printed in internal units (Hartrees-Bohrs-Radians)
 RMS Force = .86413D-02 SwitMx=.10000D-02 MixMth= 1
 Mixed Optimization -- RFO/linear search
 Second derivative matrix not updated -- first step.
 ITU=  0
     Eigenvalues ---    0.00237   0.05720   0.05976   0.08850   0.08850
     Eigenvalues ---    0.16000   0.16000   0.22461   0.25000   0.25000
     Eigenvalues ---    0.25000   0.28519   0.37230   0.37230   0.55021
     Eigenvalues ---    0.55021   0.55021   0.55021
 RFO step:  Lambda=-5.80776287D-03 EMin= 2.36824250D-03
 Linear search not attempted -- first point.
 Iteration  1 RMS(Cart)=  0.03045818 RMS(Int)=  0.00111761
 Iteration  2 RMS(Cart)=  0.00120854 RMS(Int)=  0.00045823
 Iteration  3 RMS(Cart)=  0.00000122 RMS(Int)=  0.00045823
 Iteration  4 RMS(Cart)=  0.00000000 RMS(Int)=  0.00045823
 ITry= 1 IFail=0 DXMaxC= 7.53D-02 DCOld= 1.00D+10 DXMaxT= 3.00D-01 DXLimC= 3.00D+00 Rises=F
 ClnCor:  largest displacement from symmetrization is 3.04D-09 for atom     5.
 Variable       Old X    -DE/DX   Delta X   Delta X   Delta X     New X
                                 (Linear)    (Quad)   (Total)
    R1        2.02201   0.01399   0.00000   0.03700   0.03700   2.05901
    R2        2.91018  -0.01064   0.00000  -0.03655  -0.03655   2.87362
    R3        2.55113   0.01426   0.00000   0.02565   0.02565   2.57678
    R4        2.02201   0.01399   0.00000   0.03700   0.03700   2.05901
    R5        2.55113  -0.01571   0.00000  -0.02825  -0.02825   2.52288
    R6        2.55113  -0.01571   0.00000  -0.02825  -0.02825   2.52288
    R7        2.55113  -0.01442   0.00000  -0.02593  -0.02593   2.52520
    A1        1.91063  -0.00292   0.00000  -0.01777  -0.01788   1.89275
    A2        1.91063   0.00175   0.00000   0.01013   0.01009   1.92072
    A3        1.91063   0.00297   0.00000   0.01805   0.01788   1.92851
    A4        1.91063  -0.00063   0.00000  -0.00276  -0.00280   1.90783
    A5        1.91063  -0.00292   0.00000  -0.01777  -0.01788   1.89275
    A6        1.91063   0.00175   0.00000   0.01013   0.01009   1.92072
    A7        1.91063   0.01281   0.00000   0.05147   0.05042   1.96105
    A8        1.91063   0.01281   0.00000   0.05147   0.05042   1.96105
    A9        1.91063   0.00417   0.00000   0.01350   0.01320   1.92384
   A10        1.91063  -0.01177   0.00000  -0.04044  -0.04207   1.86856
   A11        1.91063  -0.00901   0.00000  -0.03800  -0.03828   1.87236
   A12        1.91063  -0.00901   0.00000  -0.03800  -0.03828   1.87236
    D1        1.04720  -0.00067   0.00000  -0.00692  -0.00730   1.03989
    D2        3.14159   0.00061   0.00000   0.00658   0.00689  -3.13470
    D3       -1.04720  -0.00003   0.00000  -0.00017  -0.00021  -1.04741
    D4       -1.04720  -0.00064   0.00000  -0.00675  -0.00710  -1.05429
    D5        1.04720   0.00064   0.00000   0.00675   0.00710   1.05429
    D6        3.14159  -0.00000   0.00000  -0.00000   0.00000   3.14159
    D7       -3.14159  -0.00061   0.00000  -0.00658  -0.00689   3.13470
    D8       -1.04720   0.00067   0.00000   0.00692   0.00730  -1.03989
    D9        1.04720   0.00003   0.00000   0.00017   0.00021   1.04741
         Item               Value     Threshold  Converged?
 Maximum Force            0.015709     0.000015     NO 
 RMS     Force            0.008641     0.000010     NO 
 Maximum Displacement     0.075295     0.000060     NO 
 RMS     Displacement     0.030373     0.000040     NO 
 Predicted change in Energy=-2.960404D-03
 Lowest energy point so far.  Saving SCF results.
 GradGradGradGradGradGradGradGradGradGradGradGradGradGradGradGradGradGrad

 Leave Link  103 at Thu Apr  2 15:17:09 2026, MaxMem=  1073741824 cpu:               0.0 elap:               0.0
 (Enter /Users/yarger/Applications/g16/l202.exe)
                          Input orientation:                          
 ---------------------------------------------------------------------
 Center     Atomic      Atomic             Coordinates (Angstroms)
 Number     Number       Type             X           Y           Z
 ---------------------------------------------------------------------
      1          6           0       -1.508594    1.415300    1.460130
      2          1           0       -1.163410    2.448647    1.445103
      3          6           0       -0.328085    0.509059    1.147846
      4          9           0        0.664666    0.646086    2.029903
      5          9           0       -0.667661   -0.782042    1.137776
      6          9           0        0.169794    0.797915   -0.058104
      7          9           0       -2.001519    1.104981    2.693039
      8          1           0       -2.274369    1.257804    0.701205
 ---------------------------------------------------------------------
                    Distance matrix (angstroms):
                    1          2          3          4          5
     1  C    0.000000
     2  H    1.089580   0.000000
     3  C    1.520656   2.132635   0.000000
     4  F    2.374740   2.633074   1.335049   0.000000
     5  F    2.374740   3.282921   1.335049   2.147217   0.000000
     6  F    2.345887   2.600381   1.336277   2.151215   2.151215
     7  F    1.363576   2.016236   2.354385   2.785476   2.785476
     8  H    1.089580   1.790453   2.132635   3.282921   2.633074
                    6          7          8
     6  F    0.000000
     7  F    3.518193   0.000000
     8  H    2.600381   2.016236   0.000000
 Stoichiometry    C2H2F4
 Framework group  CS[SG(C2F2),X(H2F2)]
 Deg. of freedom    11
 Full point group                 CS      NOp   2
 RotChk:  IX=2 Diff= 1.38D+00
 Largest Abelian subgroup         CS      NOp   2
 Largest concise Abelian subgroup CS      NOp   2
                         Standard orientation:                         
 ---------------------------------------------------------------------
 Center     Atomic      Atomic             Coordinates (Angstroms)
 Number     Number       Type             X           Y           Z
 ---------------------------------------------------------------------
      1          6           0        1.169286    0.233618   -0.000000
      2          1           0        1.501240    0.758555   -0.895226
      3          6           0       -0.350911    0.196204    0.000000
      4          9           0       -0.843641   -0.425839   -1.073608
      5          9           0       -0.843641   -0.425839    1.073608
      6          9           0       -0.843641    1.438321    0.000000
      7          9           0        1.651731   -1.041759   -0.000000
      8          1           0        1.501240    0.758555    0.895226
 ---------------------------------------------------------------------
 Rotational constants (GHZ):           5.4080047           2.7905669           2.7506745
 Leave Link  202 at Thu Apr  2 15:17:09 2026, MaxMem=  1073741824 cpu:               0.0 elap:               0.0
 (Enter /Users/yarger/Applications/g16/l301.exe)
 Standard basis: 6-311++G(2d,3p) (5D, 7F)
 Ernie: Thresh=  0.10000D-02 Tol=  0.10000D-05 Strict=F.
 There are   126 symmetry adapted cartesian basis functions of A'  symmetry.
 There are    74 symmetry adapted cartesian basis functions of A"  symmetry.
 There are   116 symmetry adapted basis functions of A'  symmetry.
 There are    72 symmetry adapted basis functions of A"  symmetry.
   188 basis functions,   282 primitive gaussians,   200 cartesian basis functions
    25 alpha electrons       25 beta electrons
       nuclear repulsion energy       272.8411145428 Hartrees.
 IExCor= 4639 DFT=T Ex+Corr=wB97XD ExCW=0 ScaHFX=  1.000000
 ScaDFX=  1.000000  1.000000  1.000000  1.000000 ScalE2=  1.000000  1.000000
 IRadAn=      5 IRanWt=     -1 IRanGd=            0 ICorTp=0 IEmpDi=121
 HFx  wShort=  0.000000 wLong=  0.200000 cFull=  0.222036 cShort=  0.000000 cLong=  0.777964
 DFx  wShort=  0.000000 wLong=  0.200000 cFull=  0.000000 cShort=  0.000000 cLong=  1.000000
 NAtoms=    8 NActive=    8 NUniq=    6 SFac= 1.78D+00 NAtFMM=   60 NAOKFM=F Big=F
 Integral buffers will be    131072 words long.
 Raffenetti 2 integral format.
 Two-electron integral symmetry is turned on.
 R6Disp:  Grimme-D2 Dispersion energy=       -0.0021547573 Hartrees.
 Nuclear repulsion after empirical dispersion term =      272.8389597854 Hartrees.
 Leave Link  301 at Thu Apr  2 15:17:09 2026, MaxMem=  1073741824 cpu:               0.1 elap:               0.0
 (Enter /Users/yarger/Applications/g16/l302.exe)
 NPDir=0 NMtPBC=     1 NCelOv=     1 NCel=       1 NClECP=     1 NCelD=      1
         NCelK=      1 NCelE2=     1 NClLst=     1 CellRange=     0.0.
 One-electron integrals computed using PRISM.
 One-electron integral symmetry used in STVInt
 NBasis=   188 RedAO= T EigKep=  1.14D-04  NBF=   116    72
 NBsUse=   188 1.00D-06 EigRej= -1.00D+00 NBFU=   116    72
 Precomputing XC quadrature grid using
 IXCGrd= 4 IRadAn=           5 IRanWt=          -1 IRanGd=           0 AccXCQ= 0.00D+00.
 Generated NRdTot=       0 NPtTot=           0 NUsed=           0 NTot=          32
 NSgBfM=   200   200   200   200   200 MxSgAt=     8 MxSgA2=     8.
 Leave Link  302 at Thu Apr  2 15:17:09 2026, MaxMem=  1073741824 cpu:               0.5 elap:               0.1
 (Enter /Users/yarger/Applications/g16/l303.exe)
 DipDrv:  MaxL=1.
 Leave Link  303 at Thu Apr  2 15:17:09 2026, MaxMem=  1073741824 cpu:               0.1 elap:               0.0
 (Enter /Users/yarger/Applications/g16/l401.exe)
 Initial guess from the checkpoint file:  "1112Tetrafluoroethane_Opt_Freq_DFT_WB97XD_6311pp2d3p_Gaussian16.chk"
 B after Tr=     0.000000    0.000000   -0.000000
         Rot=    0.873389   -0.000000   -0.000000   -0.487022 Ang= -58.29 deg.
 Guess basis will be translated and rotated to current coordinates.
 JPrj=2 DoOrth=T DoCkMO=T.
 Initial guess orbital symmetries:
       Occupied  (A') (A") (A') (A') (A') (A') (A') (A') (A") (A')
                 (A') (A') (A') (A") (A') (A') (A") (A') (A") (A')
                 (A') (A") (A") (A") (A')
       Virtual   (A') (A") (A') (A') (A") (A') (A') (A") (A') (A')
                 (A') (A") (A') (A') (A") (A') (A') (A") (A') (A')
                 (A') (A') (A") (A") (A') (A") (A') (A") (A') (A')
                 (A") (A') (A") (A') (A') (A") (A') (A") (A') (A')
                 (A') (A") (A") (A') (A') (A") (A') (A") (A') (A')
                 (A') (A') (A") (A") (A') (A') (A') (A") (A') (A')
                 (A") (A') (A") (A") (A') (A') (A") (A') (A') (A")
                 (A') (A") (A') (A") (A') (A") (A') (A') (A") (A")
                 (A") (A') (A') (A") (A') (A") (A') (A') (A") (A')
                 (A") (A') (A') (A') (A") (A') (A') (A") (A') (A")
                 (A') (A") (A') (A') (A') (A") (A') (A") (A') (A")
                 (A') (A') (A") (A') (A") (A') (A") (A') (A') (A')
                 (A") (A") (A") (A') (A') (A") (A') (A') (A') (A')
                 (A") (A") (A') (A") (A') (A') (A") (A") (A') (A")
                 (A") (A") (A') (A') (A") (A') (A") (A') (A') (A')
                 (A") (A') (A") (A') (A') (A') (A") (A') (A') (A')
                 (A") (A') (A')
 The electronic state of the initial guess is 1-A'.
 Generating alternative initial guess.
 ExpMin= 3.60D-02 ExpMax= 1.14D+04 ExpMxC= 1.72D+03 IAcc=3 IRadAn=         5 AccDes= 0.00D+00
 Harris functional with IExCor= 4639 and IRadAn=       5 diagonalized for initial guess.
 HarFok:  IExCor= 4639 AccDes= 0.00D+00 IRadAn=         5 IDoV= 1 UseB2=F ITyADJ=14
 ICtDFT=  3500011 ScaDFX=  1.000000  1.000000  1.000000  1.000000
 FoFCou: FMM=F IPFlag=           0 FMFlag=      100000 FMFlg1=           0
         NFxFlg=           0 DoJE=T BraDBF=F KetDBF=T FulRan=T
         wScrn=  0.000000 ICntrl=       500 IOpCl=  0 I1Cent=   200000004 NGrid=           0
         NMat0=    1 NMatS0=      1 NMatT0=    0 NMatD0=    1 NMtDS0=    0 NMtDT0=    0
 Petite list used in FoFCou.
 Harris En= -461.273112254941    
 Leave Link  401 at Thu Apr  2 15:17:10 2026, MaxMem=  1073741824 cpu:               1.6 elap:               0.4
 (Enter /Users/yarger/Applications/g16/l502.exe)
 Keep R1 ints in memory in symmetry-blocked form, NReq=474084691.
 FoFCou: FMM=F IPFlag=           0 FMFlag=           0 FMFlg1=           0
         NFxFlg=           0 DoJE=F BraDBF=F KetDBF=F FulRan=T
         wScrn=  0.000000 ICntrl=       600 IOpCl=  0 I1Cent=           0 NGrid=           0
         NMat0=    1 NMatS0=  17766 NMatT0=    0 NMatD0=    1 NMtDS0=    0 NMtDT0=    0
 Petite list used in FoFCou.
 Closed shell SCF:
 Using DIIS extrapolation, IDIIS=  1040.
 NGot=  1073741824 LenX=   994422283 LenY=   994381842
 Requested convergence on RMS density matrix=1.00D-08 within 128 cycles.
 Requested convergence on MAX density matrix=1.00D-06.
 Requested convergence on             energy=1.00D-06.
 No special actions if energy rises.

 Cycle   1  Pass 1  IDiag  1:
 E= -476.812429972505    
 DIIS: error= 2.63D-03 at cycle   1 NSaved=   1.
 NSaved= 1 IEnMin= 1 EnMin= -476.812429972505     IErMin= 1 ErrMin= 2.63D-03
 ErrMax= 2.63D-03  0.00D+00 EMaxC= 1.00D-01 BMatC= 2.42D-03 BMatP= 2.42D-03
 IDIUse=3 WtCom= 9.74D-01 WtEn= 2.63D-02
 Coeff-Com:  0.100D+01
 Coeff-En:   0.100D+01
 Coeff:      0.100D+01
 Gap=     0.510 Goal=   None    Shift=    0.000
 GapD=    0.510 DampG=2.000 DampE=1.000 DampFc=2.0000 IDamp=-1.
 RMSDP=4.94D-04 MaxDP=1.10D-02              OVMax= 1.22D-02

 Cycle   2  Pass 1  IDiag  1:
 E= -476.814926190011     Delta-E=       -0.002496217506 Rises=F Damp=F
 DIIS: error= 7.95D-04 at cycle   2 NSaved=   2.
 NSaved= 2 IEnMin= 2 EnMin= -476.814926190011     IErMin= 2 ErrMin= 7.95D-04
 ErrMax= 7.95D-04  0.00D+00 EMaxC= 1.00D-01 BMatC= 1.39D-04 BMatP= 2.42D-03
 IDIUse=3 WtCom= 9.92D-01 WtEn= 7.95D-03
 Coeff-Com: -0.132D-01 0.101D+01
 Coeff-En:   0.000D+00 0.100D+01
 Coeff:     -0.131D-01 0.101D+01
 Gap=     0.505 Goal=   None    Shift=    0.000
 RMSDP=9.09D-05 MaxDP=4.07D-03 DE=-2.50D-03 OVMax= 3.76D-03

 Cycle   3  Pass 1  IDiag  1:
 E= -476.815056442544     Delta-E=       -0.000130252533 Rises=F Damp=F
 DIIS: error= 6.47D-04 at cycle   3 NSaved=   3.
 NSaved= 3 IEnMin= 3 EnMin= -476.815056442544     IErMin= 3 ErrMin= 6.47D-04
 ErrMax= 6.47D-04  0.00D+00 EMaxC= 1.00D-01 BMatC= 7.83D-05 BMatP= 1.39D-04
 IDIUse=3 WtCom= 9.94D-01 WtEn= 6.47D-03
 Coeff-Com: -0.645D-01 0.439D+00 0.625D+00
 Coeff-En:   0.000D+00 0.000D+00 0.100D+01
 Coeff:     -0.641D-01 0.436D+00 0.628D+00
 Gap=     0.505 Goal=   None    Shift=    0.000
 RMSDP=3.08D-05 MaxDP=1.72D-03 DE=-1.30D-04 OVMax= 1.50D-03

 Cycle   4  Pass 1  IDiag  1:
 E= -476.815109737477     Delta-E=       -0.000053294933 Rises=F Damp=F
 DIIS: error= 1.87D-04 at cycle   4 NSaved=   4.
 NSaved= 4 IEnMin= 4 EnMin= -476.815109737477     IErMin= 4 ErrMin= 1.87D-04
 ErrMax= 1.87D-04  0.00D+00 EMaxC= 1.00D-01 BMatC= 4.56D-06 BMatP= 7.83D-05
 IDIUse=3 WtCom= 9.98D-01 WtEn= 1.87D-03
 Coeff-Com: -0.174D-01 0.403D-01 0.196D+00 0.781D+00
 Coeff-En:   0.000D+00 0.000D+00 0.000D+00 0.100D+01
 Coeff:     -0.173D-01 0.402D-01 0.196D+00 0.781D+00
 Gap=     0.505 Goal=   None    Shift=    0.000
 RMSDP=1.05D-05 MaxDP=2.32D-04 DE=-5.33D-05 OVMax= 4.29D-04

 Cycle   5  Pass 1  IDiag  1:
 E= -476.815112803477     Delta-E=       -0.000003066000 Rises=F Damp=F
 DIIS: error= 6.46D-05 at cycle   5 NSaved=   5.
 NSaved= 5 IEnMin= 5 EnMin= -476.815112803477     IErMin= 5 ErrMin= 6.46D-05
 ErrMax= 6.46D-05  0.00D+00 EMaxC= 1.00D-01 BMatC= 6.41D-07 BMatP= 4.56D-06
 IDIUse=1 WtCom= 1.00D+00 WtEn= 0.00D+00
 Coeff-Com:  0.304D-02-0.516D-01-0.141D-01 0.301D+00 0.762D+00
 Coeff:      0.304D-02-0.516D-01-0.141D-01 0.301D+00 0.762D+00
 Gap=     0.505 Goal=   None    Shift=    0.000
 RMSDP=4.50D-06 MaxDP=1.33D-04 DE=-3.07D-06 OVMax= 1.94D-04

 Cycle   6  Pass 1  IDiag  1:
 E= -476.815113299261     Delta-E=       -0.000000495784 Rises=F Damp=F
 DIIS: error= 7.05D-06 at cycle   6 NSaved=   6.
 NSaved= 6 IEnMin= 6 EnMin= -476.815113299261     IErMin= 6 ErrMin= 7.05D-06
 ErrMax= 7.05D-06  0.00D+00 EMaxC= 1.00D-01 BMatC= 8.17D-09 BMatP= 6.41D-07
 IDIUse=1 WtCom= 1.00D+00 WtEn= 0.00D+00
 Coeff-Com:  0.954D-03-0.111D-01-0.780D-02 0.391D-01 0.137D+00 0.842D+00
 Coeff:      0.954D-03-0.111D-01-0.780D-02 0.391D-01 0.137D+00 0.842D+00
 Gap=     0.505 Goal=   None    Shift=    0.000
 RMSDP=7.88D-07 MaxDP=2.10D-05 DE=-4.96D-07 OVMax= 2.87D-05

 Cycle   7  Pass 1  IDiag  1:
 E= -476.815113305888     Delta-E=       -0.000000006626 Rises=F Damp=F
 DIIS: error= 4.05D-06 at cycle   7 NSaved=   7.
 NSaved= 7 IEnMin= 7 EnMin= -476.815113305888     IErMin= 7 ErrMin= 4.05D-06
 ErrMax= 4.05D-06  0.00D+00 EMaxC= 1.00D-01 BMatC= 3.16D-09 BMatP= 8.17D-09
 IDIUse=1 WtCom= 1.00D+00 WtEn= 0.00D+00
 Coeff-Com:  0.120D-03 0.584D-03-0.223D-02-0.154D-01-0.232D-01 0.388D+00
 Coeff-Com:  0.652D+00
 Coeff:      0.120D-03 0.584D-03-0.223D-02-0.154D-01-0.232D-01 0.388D+00
 Coeff:      0.652D+00
 Gap=     0.505 Goal=   None    Shift=    0.000
 RMSDP=2.62D-07 MaxDP=8.04D-06 DE=-6.63D-09 OVMax= 1.01D-05

 Cycle   8  Pass 1  IDiag  1:
 E= -476.815113307801     Delta-E=       -0.000000001914 Rises=F Damp=F
 DIIS: error= 6.84D-07 at cycle   8 NSaved=   8.
 NSaved= 8 IEnMin= 8 EnMin= -476.815113307801     IErMin= 8 ErrMin= 6.84D-07
 ErrMax= 6.84D-07  0.00D+00 EMaxC= 1.00D-01 BMatC= 1.09D-10 BMatP= 3.16D-09
 IDIUse=1 WtCom= 1.00D+00 WtEn= 0.00D+00
 Coeff-Com: -0.360D-04 0.949D-03-0.114D-04-0.742D-02-0.166D-01 0.589D-01
 Coeff-Com:  0.203D+00 0.761D+00
 Coeff:     -0.360D-04 0.949D-03-0.114D-04-0.742D-02-0.166D-01 0.589D-01
 Coeff:      0.203D+00 0.761D+00
 Gap=     0.505 Goal=   None    Shift=    0.000
 RMSDP=7.11D-08 MaxDP=2.40D-06 DE=-1.91D-09 OVMax= 2.68D-06

 Cycle   9  Pass 1  IDiag  1:
 E= -476.815113307879     Delta-E=       -0.000000000078 Rises=F Damp=F
 DIIS: error= 2.14D-07 at cycle   9 NSaved=   9.
 NSaved= 9 IEnMin= 9 EnMin= -476.815113307879     IErMin= 9 ErrMin= 2.14D-07
 ErrMax= 2.14D-07  0.00D+00 EMaxC= 1.00D-01 BMatC= 8.24D-12 BMatP= 1.09D-10
 IDIUse=1 WtCom= 1.00D+00 WtEn= 0.00D+00
 Coeff-Com: -0.203D-04 0.264D-03 0.204D-03-0.135D-02-0.342D-02-0.126D-01
 Coeff-Com:  0.115D-01 0.231D+00 0.774D+00
 Coeff:     -0.203D-04 0.264D-03 0.204D-03-0.135D-02-0.342D-02-0.126D-01
 Coeff:      0.115D-01 0.231D+00 0.774D+00
 Gap=     0.505 Goal=   None    Shift=    0.000
 RMSDP=1.84D-08 MaxDP=5.27D-07 DE=-7.75D-11 OVMax= 6.91D-07

 Cycle  10  Pass 1  IDiag  1:
 E= -476.815113307882     Delta-E=       -0.000000000003 Rises=F Damp=F
 DIIS: error= 3.78D-08 at cycle  10 NSaved=  10.
 NSaved=10 IEnMin=10 EnMin= -476.815113307882     IErMin=10 ErrMin= 3.78D-08
 ErrMax= 3.78D-08  0.00D+00 EMaxC= 1.00D-01 BMatC= 4.60D-13 BMatP= 8.24D-12
 IDIUse=1 WtCom= 1.00D+00 WtEn= 0.00D+00
 Coeff-Com: -0.315D-05 0.165D-04 0.552D-04 0.483D-04-0.227D-04-0.663D-02
 Coeff-Com: -0.851D-02 0.226D-01 0.202D+00 0.791D+00
 Coeff:     -0.315D-05 0.165D-04 0.552D-04 0.483D-04-0.227D-04-0.663D-02
 Coeff:     -0.851D-02 0.226D-01 0.202D+00 0.791D+00
 Gap=     0.505 Goal=   None    Shift=    0.000
 RMSDP=4.43D-09 MaxDP=9.24D-08 DE=-2.96D-12 OVMax= 2.27D-07

 SCF Done:  E(RwB97XD) =  -476.815113308     A.U. after   10 cycles
            NFock= 10  Conv=0.44D-08     -V/T= 2.0026
 KE= 4.755723622833D+02 PE=-1.678846391265D+03 EE= 4.536199558881D+02
 Leave Link  502 at Thu Apr  2 15:17:17 2026, MaxMem=  1073741824 cpu:              29.0 elap:               7.5
 (Enter /Users/yarger/Applications/g16/l701.exe)
 ... and contract with generalized density number  0.
 Compute integral first derivatives.
 R6Disp: Adding Grimme-D2 dispersion energy 1st derivatives to the gradient.
 Leave Link  701 at Thu Apr  2 15:17:18 2026, MaxMem=  1073741824 cpu:               0.3 elap:               0.1
 (Enter /Users/yarger/Applications/g16/l702.exe)
 L702 exits ... SP integral derivatives will be done elsewhere.
 Leave Link  702 at Thu Apr  2 15:17:18 2026, MaxMem=  1073741824 cpu:               0.1 elap:               0.0
 (Enter /Users/yarger/Applications/g16/l703.exe)
 Integral derivatives from FoFJK, PRISM(SPDF).
 Compute integral first derivatives, UseDBF=F ICtDFT=           0.
 Calling FoFJK, ICntrl=      2127 FMM=F ISym2X=1 I1Cent= 0 IOpClX= 0 NMat=1 NMatS=1 NMatT=0.
 FoFJK:  IHMeth= 1 ICntrl=    2127 DoSepK=T KAlg= 0 I1Cent=           0 FoldK=F
 IRaf=         1 NMat=       1 IRICut=       1 DoRegI=T DoRafI=F ISym2E= 1 IDoP0=0 IntGTp=1.
 FoFCou: FMM=F IPFlag=           0 FMFlag=      100000 FMFlg1=         800
         NFxFlg=           0 DoJE=F BraDBF=F KetDBF=F FulRan=T
         wScrn=  0.000000 ICntrl=      2527 IOpCl=  0 I1Cent=           0 NGrid=           0
         NMat0=    1 NMatS0=      1 NMatT0=    0 NMatD0=    1 NMtDS0=    0 NMtDT0=    0
 Petite list used in FoFCou.
 Leave Link  703 at Thu Apr  2 15:17:20 2026, MaxMem=  1073741824 cpu:              10.9 elap:               2.8
 (Enter /Users/yarger/Applications/g16/l716.exe)
 Dipole        = 5.90486773D-01 6.31398902D-01-6.66133815D-16
 ***** Axes restored to original set *****
 -------------------------------------------------------------------
 Center     Atomic                   Forces (Hartrees/Bohr)
 Number     Number              X              Y              Z
 -------------------------------------------------------------------
      1        6           0.004633334   -0.001552802   -0.004433804
      2        1          -0.000378866    0.000110872    0.000665262
      3        6           0.005119441   -0.005709118    0.001493714
      4        9          -0.001391091    0.002665408    0.002537193
      5        9          -0.003828102    0.000053163    0.000905369
      6        9          -0.002052304    0.004290170   -0.003802791
      7        9          -0.001580755    0.000184491    0.002065408
      8        1          -0.000521656   -0.000042186    0.000569650
 -------------------------------------------------------------------
 Cartesian Forces:  Max     0.005709118 RMS     0.002743170
 Leave Link  716 at Thu Apr  2 15:17:21 2026, MaxMem=  1073741824 cpu:               0.1 elap:               0.0
 (Enter /Users/yarger/Applications/g16/l103.exe)

 GradGradGradGradGradGradGradGradGradGradGradGradGradGradGradGradGradGrad
 Berny optimization.
 Using GEDIIS/GDIIS optimizer.
 FormGI is forming the generalized inverse of G from B-inverse, IUseBI=4.
 Internal  Forces:  Max     0.006484081 RMS     0.002623262
 Search for a local minimum.
 Step number   2 out of a maximum of   38
 All quantities printed in internal units (Hartrees-Bohrs-Radians)
 RMS Force = .26233D-02 SwitMx=.10000D-02 MixMth= 1
 Mixed Optimization -- RFO/linear search
 Update second derivatives using D2CorX and points    1    2
 DE= -2.35D-03 DEPred=-2.96D-03 R= 7.93D-01
 TightC=F SS=  1.41D+00  RLast= 1.36D-01 DXNew= 5.0454D-01 4.0730D-01
 Trust test= 7.93D-01 RLast= 1.36D-01 DXMaxT set to 4.07D-01
 ITU=  1  0
 Use linear search instead of GDIIS.
     Eigenvalues ---    0.00237   0.05818   0.06137   0.08007   0.08400
     Eigenvalues ---    0.16000   0.16041   0.22515   0.24180   0.25000
     Eigenvalues ---    0.27416   0.32294   0.37230   0.37759   0.52994
     Eigenvalues ---    0.55021   0.55021   0.57545
 RFO step:  Lambda=-3.49477202D-04 EMin= 2.36824250D-03
 Quartic linear search produced a step of -0.16294.
 Iteration  1 RMS(Cart)=  0.01120158 RMS(Int)=  0.00013308
 Iteration  2 RMS(Cart)=  0.00011910 RMS(Int)=  0.00007058
 Iteration  3 RMS(Cart)=  0.00000002 RMS(Int)=  0.00007058
 ITry= 1 IFail=0 DXMaxC= 2.78D-02 DCOld= 1.00D+10 DXMaxT= 4.07D-01 DXLimC= 3.00D+00 Rises=F
 ClnCor:  largest displacement from symmetrization is 2.14D-09 for atom     5.
 Variable       Old X    -DE/DX   Delta X   Delta X   Delta X     New X
                                 (Linear)    (Quad)   (Total)
    R1        2.05901  -0.00002  -0.00603   0.00838   0.00235   2.06136
    R2        2.87362  -0.00268   0.00596  -0.01624  -0.01028   2.86334
    R3        2.57678   0.00240  -0.00418   0.00946   0.00528   2.58206
    R4        2.05901  -0.00002  -0.00603   0.00838   0.00235   2.06136
    R5        2.52288   0.00091   0.00460  -0.00501  -0.00040   2.52247
    R6        2.52288   0.00091   0.00460  -0.00501  -0.00040   2.52247
    R7        2.52520   0.00360   0.00423  -0.00040   0.00382   2.52902
    A1        1.89275   0.00045   0.00291  -0.00102   0.00190   1.89466
    A2        1.92072  -0.00109  -0.00164  -0.00365  -0.00529   1.91543
    A3        1.92851  -0.00022  -0.00291   0.00502   0.00212   1.93064
    A4        1.90783   0.00158   0.00046   0.00444   0.00490   1.91273
    A5        1.89275   0.00045   0.00291  -0.00102   0.00190   1.89466
    A6        1.92072  -0.00109  -0.00164  -0.00365  -0.00529   1.91543
    A7        1.96105  -0.00411  -0.00822  -0.00180  -0.00993   1.95112
    A8        1.96105  -0.00411  -0.00822  -0.00180  -0.00993   1.95112
    A9        1.92384  -0.00648  -0.00215  -0.01976  -0.02201   1.90183
   A10        1.86856   0.00482   0.00686   0.00785   0.01494   1.88350
   A11        1.87236   0.00550   0.00624   0.00859   0.01473   1.88709
   A12        1.87236   0.00550   0.00624   0.00859   0.01473   1.88709
    D1        1.03989  -0.00029   0.00119  -0.00623  -0.00495   1.03495
    D2       -3.13470   0.00003  -0.00112   0.00138   0.00018  -3.13453
    D3       -1.04741  -0.00013   0.00003  -0.00242  -0.00238  -1.04979
    D4       -1.05429  -0.00016   0.00116  -0.00380  -0.00256  -1.05686
    D5        1.05429   0.00016  -0.00116   0.00380   0.00256   1.05686
    D6        3.14159   0.00000   0.00000  -0.00000  -0.00000   3.14159
    D7        3.13470  -0.00003   0.00112  -0.00138  -0.00018   3.13453
    D8       -1.03989   0.00029  -0.00119   0.00623   0.00495  -1.03495
    D9        1.04741   0.00013  -0.00003   0.00242   0.00238   1.04979
         Item               Value     Threshold  Converged?
 Maximum Force            0.006484     0.000015     NO 
 RMS     Force            0.002623     0.000010     NO 
 Maximum Displacement     0.027799     0.000060     NO 
 RMS     Displacement     0.011267     0.000040     NO 
 Predicted change in Energy=-2.692615D-04
 Lowest energy point so far.  Saving SCF results.
 GradGradGradGradGradGradGradGradGradGradGradGradGradGradGradGradGradGrad

 Leave Link  103 at Thu Apr  2 15:17:21 2026, MaxMem=  1073741824 cpu:               0.0 elap:               0.0
 (Enter /Users/yarger/Applications/g16/l202.exe)
                          Input orientation:                          
 ---------------------------------------------------------------------
 Center     Atomic      Atomic             Coordinates (Angstroms)
 Number     Number       Type             X           Y           Z
 ---------------------------------------------------------------------
      1          6           0       -1.500151    1.409275    1.457165
      2          1           0       -1.154909    2.443939    1.443992
      3          6           0       -0.324275    0.504639    1.149232
      4          9           0        0.661202    0.653363    2.037209
      5          9           0       -0.678231   -0.782382    1.140324
      6          9           0        0.156161    0.812626   -0.061294
      7          9           0       -2.001021    1.105431    2.691575
      8          1           0       -2.267955    1.250859    0.698695
 ---------------------------------------------------------------------
                    Distance matrix (angstroms):
                    1          2          3          4          5
     1  C    0.000000
     2  H    1.090824   0.000000
     3  C    1.515214   2.130193   0.000000
     4  F    2.362054   2.618459   1.334836   0.000000
     5  F    2.362054   3.275452   1.334836   2.158668   0.000000
     6  F    2.324882   2.577978   1.338300   2.164289   2.164289
     7  F    1.366368   2.015930   2.356109   2.778487   2.778487
     8  H    1.090824   1.793817   2.130193   3.275452   2.618459
                    6          7          8
     6  F    0.000000
     7  F    3.509623   0.000000
     8  H    2.577978   2.015930   0.000000
 Stoichiometry    C2H2F4
 Framework group  CS[SG(C2F2),X(H2F2)]
 Deg. of freedom    11
 Full point group                 CS      NOp   2
 RotChk:  IX=2 Diff= 7.45D-03
 Largest Abelian subgroup         CS      NOp   2
 Largest concise Abelian subgroup CS      NOp   2
                         Standard orientation:                         
 ---------------------------------------------------------------------
 Center     Atomic      Atomic             Coordinates (Angstroms)
 Number     Number       Type             X           Y           Z
 ---------------------------------------------------------------------
      1          6           0        1.153225    0.240008   -0.000000
      2          1           0        1.483561    0.765679   -0.896908
      3          6           0       -0.361200    0.191104    0.000000
      4          9           0       -0.836796   -0.433903   -1.079334
      5          9           0       -0.836796   -0.433903    1.079334
      6          9           0       -0.836796    1.442046    0.000000
      7          9           0        1.652691   -1.031799   -0.000000
      8          1           0        1.483561    0.765679    0.896908
 ---------------------------------------------------------------------
 Rotational constants (GHZ):           5.3610534           2.8032260           2.7649463
 Leave Link  202 at Thu Apr  2 15:17:21 2026, MaxMem=  1073741824 cpu:               0.0 elap:               0.0
 (Enter /Users/yarger/Applications/g16/l301.exe)
 Standard basis: 6-311++G(2d,3p) (5D, 7F)
 Ernie: Thresh=  0.10000D-02 Tol=  0.10000D-05 Strict=F.
 There are   126 symmetry adapted cartesian basis functions of A'  symmetry.
 There are    74 symmetry adapted cartesian basis functions of A"  symmetry.
 There are   116 symmetry adapted basis functions of A'  symmetry.
 There are    72 symmetry adapted basis functions of A"  symmetry.
   188 basis functions,   282 primitive gaussians,   200 cartesian basis functions
    25 alpha electrons       25 beta electrons
       nuclear repulsion energy       272.8643219150 Hartrees.
 IExCor= 4639 DFT=T Ex+Corr=wB97XD ExCW=0 ScaHFX=  1.000000
 ScaDFX=  1.000000  1.000000  1.000000  1.000000 ScalE2=  1.000000  1.000000
 IRadAn=      5 IRanWt=     -1 IRanGd=            0 ICorTp=0 IEmpDi=121
 HFx  wShort=  0.000000 wLong=  0.200000 cFull=  0.222036 cShort=  0.000000 cLong=  0.777964
 DFx  wShort=  0.000000 wLong=  0.200000 cFull=  0.000000 cShort=  0.000000 cLong=  1.000000
 NAtoms=    8 NActive=    8 NUniq=    6 SFac= 1.78D+00 NAtFMM=   60 NAOKFM=F Big=F
 Integral buffers will be    131072 words long.
 Raffenetti 2 integral format.
 Two-electron integral symmetry is turned on.
 R6Disp:  Grimme-D2 Dispersion energy=       -0.0021506454 Hartrees.
 Nuclear repulsion after empirical dispersion term =      272.8621712696 Hartrees.
 Leave Link  301 at Thu Apr  2 15:17:21 2026, MaxMem=  1073741824 cpu:               0.1 elap:               0.0
 (Enter /Users/yarger/Applications/g16/l302.exe)
 NPDir=0 NMtPBC=     1 NCelOv=     1 NCel=       1 NClECP=     1 NCelD=      1
         NCelK=      1 NCelE2=     1 NClLst=     1 CellRange=     0.0.
 One-electron integrals computed using PRISM.
 One-electron integral symmetry used in STVInt
 NBasis=   188 RedAO= T EigKep=  1.12D-04  NBF=   116    72
 NBsUse=   188 1.00D-06 EigRej= -1.00D+00 NBFU=   116    72
 Precomputing XC quadrature grid using
 IXCGrd= 4 IRadAn=           5 IRanWt=          -1 IRanGd=           0 AccXCQ= 0.00D+00.
 Generated NRdTot=       0 NPtTot=           0 NUsed=           0 NTot=          32
 NSgBfM=   200   200   200   200   200 MxSgAt=     8 MxSgA2=     8.
 Leave Link  302 at Thu Apr  2 15:17:21 2026, MaxMem=  1073741824 cpu:               0.5 elap:               0.1
 (Enter /Users/yarger/Applications/g16/l303.exe)
 DipDrv:  MaxL=1.
 Leave Link  303 at Thu Apr  2 15:17:21 2026, MaxMem=  1073741824 cpu:               0.1 elap:               0.0
 (Enter /Users/yarger/Applications/g16/l401.exe)
 Initial guess from the checkpoint file:  "1112Tetrafluoroethane_Opt_Freq_DFT_WB97XD_6311pp2d3p_Gaussian16.chk"
 B after Tr=     0.000000   -0.000000    0.000000
         Rot=    0.999998    0.000000   -0.000000   -0.001957 Ang=  -0.22 deg.
 Guess basis will be translated and rotated to current coordinates.
 JPrj=2 DoOrth=T DoCkMO=T.
 Initial guess orbital symmetries:
       Occupied  (A') (A") (A') (A') (A') (A') (A') (A') (A") (A')
                 (A') (A') (A') (A") (A') (A') (A") (A') (A") (A')
                 (A') (A") (A") (A") (A')
       Virtual   (A') (A") (A') (A') (A") (A') (A') (A") (A') (A')
                 (A') (A") (A') (A") (A') (A') (A') (A") (A') (A')
                 (A') (A') (A") (A") (A') (A") (A') (A") (A') (A')
                 (A") (A') (A") (A') (A') (A") (A') (A") (A') (A')
                 (A') (A") (A") (A') (A') (A") (A') (A") (A') (A')
                 (A') (A') (A") (A") (A') (A') (A') (A") (A') (A')
                 (A") (A') (A") (A') (A") (A') (A") (A') (A") (A')
                 (A') (A") (A") (A') (A') (A") (A') (A") (A') (A")
                 (A') (A") (A') (A') (A") (A") (A') (A') (A") (A')
                 (A") (A') (A') (A') (A") (A') (A") (A') (A') (A')
                 (A") (A") (A') (A') (A') (A") (A") (A') (A') (A")
                 (A') (A') (A") (A') (A") (A') (A") (A') (A') (A')
                 (A") (A") (A") (A') (A') (A") (A') (A') (A') (A")
                 (A') (A") (A') (A") (A') (A') (A") (A") (A') (A")
                 (A") (A') (A") (A') (A') (A") (A") (A') (A') (A")
                 (A') (A') (A") (A') (A') (A') (A") (A') (A') (A')
                 (A") (A') (A')
 The electronic state of the initial guess is 1-A'.
 Generating alternative initial guess.
 ExpMin= 3.60D-02 ExpMax= 1.14D+04 ExpMxC= 1.72D+03 IAcc=3 IRadAn=         5 AccDes= 0.00D+00
 Harris functional with IExCor= 4639 and IRadAn=       5 diagonalized for initial guess.
 HarFok:  IExCor= 4639 AccDes= 0.00D+00 IRadAn=         5 IDoV= 1 UseB2=F ITyADJ=14
 ICtDFT=  3500011 ScaDFX=  1.000000  1.000000  1.000000  1.000000
 FoFCou: FMM=F IPFlag=           0 FMFlag=      100000 FMFlg1=           0
         NFxFlg=           0 DoJE=T BraDBF=F KetDBF=T FulRan=T
         wScrn=  0.000000 ICntrl=       500 IOpCl=  0 I1Cent=   200000004 NGrid=           0
         NMat0=    1 NMatS0=      1 NMatT0=    0 NMatD0=    1 NMtDS0=    0 NMtDT0=    0
 Petite list used in FoFCou.
 Harris En= -461.274512988955    
 Leave Link  401 at Thu Apr  2 15:17:21 2026, MaxMem=  1073741824 cpu:               1.6 elap:               0.4
 (Enter /Users/yarger/Applications/g16/l502.exe)
 Keep R1 ints in memory in symmetry-blocked form, NReq=474084691.
 FoFCou: FMM=F IPFlag=           0 FMFlag=           0 FMFlg1=           0
         NFxFlg=           0 DoJE=F BraDBF=F KetDBF=F FulRan=T
         wScrn=  0.000000 ICntrl=       600 IOpCl=  0 I1Cent=           0 NGrid=           0
         NMat0=    1 NMatS0=  17766 NMatT0=    0 NMatD0=    1 NMtDS0=    0 NMtDT0=    0
 Petite list used in FoFCou.
 Closed shell SCF:
 Using DIIS extrapolation, IDIIS=  1040.
 NGot=  1073741824 LenX=   994422283 LenY=   994381842
 Requested convergence on RMS density matrix=1.00D-08 within 128 cycles.
 Requested convergence on MAX density matrix=1.00D-06.
 Requested convergence on             energy=1.00D-06.
 No special actions if energy rises.

 Cycle   1  Pass 1  IDiag  1:
 E= -476.815061261159    
 DIIS: error= 1.16D-03 at cycle   1 NSaved=   1.
 NSaved= 1 IEnMin= 1 EnMin= -476.815061261159     IErMin= 1 ErrMin= 1.16D-03
 ErrMax= 1.16D-03  0.00D+00 EMaxC= 1.00D-01 BMatC= 2.58D-04 BMatP= 2.58D-04
 IDIUse=3 WtCom= 9.88D-01 WtEn= 1.16D-02
 Coeff-Com:  0.100D+01
 Coeff-En:   0.100D+01
 Coeff:      0.100D+01
 Gap=     0.504 Goal=   None    Shift=    0.000
 GapD=    0.504 DampG=2.000 DampE=1.000 DampFc=2.0000 IDamp=-1.
 RMSDP=1.67D-04 MaxDP=4.55D-03              OVMax= 4.33D-03

 Cycle   2  Pass 1  IDiag  1:
 E= -476.815352573028     Delta-E=       -0.000291311870 Rises=F Damp=F
 DIIS: error= 1.79D-04 at cycle   2 NSaved=   2.
 NSaved= 2 IEnMin= 2 EnMin= -476.815352573028     IErMin= 2 ErrMin= 1.79D-04
 ErrMax= 1.79D-04  0.00D+00 EMaxC= 1.00D-01 BMatC= 9.05D-06 BMatP= 2.58D-04
 IDIUse=3 WtCom= 9.98D-01 WtEn= 1.79D-03
 Coeff-Com: -0.116D+00 0.112D+01
 Coeff-En:   0.000D+00 0.100D+01
 Coeff:     -0.116D+00 0.112D+01
 Gap=     0.504 Goal=   None    Shift=    0.000
 RMSDP=2.81D-05 MaxDP=7.06D-04 DE=-2.91D-04 OVMax= 1.32D-03

 Cycle   3  Pass 1  IDiag  1:
 E= -476.815368138078     Delta-E=       -0.000015565049 Rises=F Damp=F
 DIIS: error= 9.15D-05 at cycle   3 NSaved=   3.
 NSaved= 3 IEnMin= 3 EnMin= -476.815368138078     IErMin= 3 ErrMin= 9.15D-05
 ErrMax= 9.15D-05  0.00D+00 EMaxC= 1.00D-01 BMatC= 2.01D-06 BMatP= 9.05D-06
 IDIUse=1 WtCom= 1.00D+00 WtEn= 0.00D+00
 Coeff-Com: -0.545D-01 0.336D+00 0.719D+00
 Coeff:     -0.545D-01 0.336D+00 0.719D+00
 Gap=     0.504 Goal=   None    Shift=    0.000
 RMSDP=6.09D-06 MaxDP=1.66D-04 DE=-1.56D-05 OVMax= 3.52D-04

 Cycle   4  Pass 1  IDiag  1:
 E= -476.815369356135     Delta-E=       -0.000001218057 Rises=F Damp=F
 DIIS: error= 4.32D-05 at cycle   4 NSaved=   4.
 NSaved= 4 IEnMin= 4 EnMin= -476.815369356135     IErMin= 4 ErrMin= 4.32D-05
 ErrMax= 4.32D-05  0.00D+00 EMaxC= 1.00D-01 BMatC= 5.24D-07 BMatP= 2.01D-06
 IDIUse=1 WtCom= 1.00D+00 WtEn= 0.00D+00
 Coeff-Com:  0.258D-03-0.777D-01 0.319D+00 0.758D+00
 Coeff:      0.258D-03-0.777D-01 0.319D+00 0.758D+00
 Gap=     0.504 Goal=   None    Shift=    0.000
 RMSDP=3.14D-06 MaxDP=8.50D-05 DE=-1.22D-06 OVMax= 1.26D-04

 Cycle   5  Pass 1  IDiag  1:
 E= -476.815369704369     Delta-E=       -0.000000348234 Rises=F Damp=F
 DIIS: error= 5.15D-06 at cycle   5 NSaved=   5.
 NSaved= 5 IEnMin= 5 EnMin= -476.815369704369     IErMin= 5 ErrMin= 5.15D-06
 ErrMax= 5.15D-06  0.00D+00 EMaxC= 1.00D-01 BMatC= 9.01D-09 BMatP= 5.24D-07
 IDIUse=1 WtCom= 1.00D+00 WtEn= 0.00D+00
 Coeff-Com:  0.254D-02-0.368D-01 0.393D-01 0.177D+00 0.818D+00
 Coeff:      0.254D-02-0.368D-01 0.393D-01 0.177D+00 0.818D+00
 Gap=     0.504 Goal=   None    Shift=    0.000
 RMSDP=6.90D-07 MaxDP=2.13D-05 DE=-3.48D-07 OVMax= 2.87D-05

 Cycle   6  Pass 1  IDiag  1:
 E= -476.815369711467     Delta-E=       -0.000000007097 Rises=F Damp=F
 DIIS: error= 2.49D-06 at cycle   6 NSaved=   6.
 NSaved= 6 IEnMin= 6 EnMin= -476.815369711467     IErMin= 6 ErrMin= 2.49D-06
 ErrMax= 2.49D-06  0.00D+00 EMaxC= 1.00D-01 BMatC= 1.40D-09 BMatP= 9.01D-09
 IDIUse=1 WtCom= 1.00D+00 WtEn= 0.00D+00
 Coeff-Com:  0.892D-03-0.925D-02-0.394D-02 0.246D-01 0.324D+00 0.664D+00
 Coeff:      0.892D-03-0.925D-02-0.394D-02 0.246D-01 0.324D+00 0.664D+00
 Gap=     0.504 Goal=   None    Shift=    0.000
 RMSDP=1.83D-07 MaxDP=5.35D-06 DE=-7.10D-09 OVMax= 6.89D-06

 Cycle   7  Pass 1  IDiag  1:
 E= -476.815369712319     Delta-E=       -0.000000000852 Rises=F Damp=F
 DIIS: error= 7.77D-07 at cycle   7 NSaved=   7.
 NSaved= 7 IEnMin= 7 EnMin= -476.815369712319     IErMin= 7 ErrMin= 7.77D-07
 ErrMax= 7.77D-07  0.00D+00 EMaxC= 1.00D-01 BMatC= 1.34D-10 BMatP= 1.40D-09
 IDIUse=1 WtCom= 1.00D+00 WtEn= 0.00D+00
 Coeff-Com:  0.333D-04 0.114D-02-0.604D-02-0.119D-01 0.173D-01 0.248D+00
 Coeff-Com:  0.752D+00
 Coeff:      0.333D-04 0.114D-02-0.604D-02-0.119D-01 0.173D-01 0.248D+00
 Coeff:      0.752D+00
 Gap=     0.504 Goal=   None    Shift=    0.000
 RMSDP=6.80D-08 MaxDP=2.31D-06 DE=-8.52D-10 OVMax= 2.39D-06

 Cycle   8  Pass 1  IDiag  1:
 E= -476.815369712401     Delta-E=       -0.000000000082 Rises=F Damp=F
 DIIS: error= 1.85D-07 at cycle   8 NSaved=   8.
 NSaved= 8 IEnMin= 8 EnMin= -476.815369712401     IErMin= 8 ErrMin= 1.85D-07
 ErrMax= 1.85D-07  0.00D+00 EMaxC= 1.00D-01 BMatC= 5.56D-12 BMatP= 1.34D-10
 IDIUse=1 WtCom= 1.00D+00 WtEn= 0.00D+00
 Coeff-Com: -0.437D-04 0.876D-03-0.143D-02-0.497D-02-0.153D-01 0.289D-01
 Coeff-Com:  0.211D+00 0.781D+00
 Coeff:     -0.437D-04 0.876D-03-0.143D-02-0.497D-02-0.153D-01 0.289D-01
 Coeff:      0.211D+00 0.781D+00
 Gap=     0.504 Goal=   None    Shift=    0.000
 RMSDP=1.77D-08 MaxDP=5.99D-07 DE=-8.22D-11 OVMax= 6.59D-07

 Cycle   9  Pass 1  IDiag  1:
 E= -476.815369712414     Delta-E=       -0.000000000013 Rises=F Damp=F
 DIIS: error= 3.71D-08 at cycle   9 NSaved=   9.
 NSaved= 9 IEnMin= 9 EnMin= -476.815369712414     IErMin= 9 ErrMin= 3.71D-08
 ErrMax= 3.71D-08  0.00D+00 EMaxC= 1.00D-01 BMatC= 3.28D-13 BMatP= 5.56D-12
 IDIUse=1 WtCom= 1.00D+00 WtEn= 0.00D+00
 Coeff-Com: -0.104D-04 0.879D-04 0.824D-04-0.316D-03-0.492D-02-0.120D-01
 Coeff-Com: -0.822D-02 0.179D+00 0.846D+00
 Coeff:     -0.104D-04 0.879D-04 0.824D-04-0.316D-03-0.492D-02-0.120D-01
 Coeff:     -0.822D-02 0.179D+00 0.846D+00
 Gap=     0.504 Goal=   None    Shift=    0.000
 RMSDP=4.84D-09 MaxDP=1.79D-07 DE=-1.26D-11 OVMax= 1.91D-07

 SCF Done:  E(RwB97XD) =  -476.815369712     A.U. after    9 cycles
            NFock=  9  Conv=0.48D-08     -V/T= 2.0026
 KE= 4.755639380753D+02 PE=-1.678872749040D+03 EE= 4.536312699829D+02
 Leave Link  502 at Thu Apr  2 15:17:29 2026, MaxMem=  1073741824 cpu:              27.8 elap:               7.2
 (Enter /Users/yarger/Applications/g16/l701.exe)
 ... and contract with generalized density number  0.
 Compute integral first derivatives.
 R6Disp: Adding Grimme-D2 dispersion energy 1st derivatives to the gradient.
 Leave Link  701 at Thu Apr  2 15:17:29 2026, MaxMem=  1073741824 cpu:               0.3 elap:               0.1
 (Enter /Users/yarger/Applications/g16/l702.exe)
 L702 exits ... SP integral derivatives will be done elsewhere.
 Leave Link  702 at Thu Apr  2 15:17:29 2026, MaxMem=  1073741824 cpu:               0.0 elap:               0.0
 (Enter /Users/yarger/Applications/g16/l703.exe)
 Integral derivatives from FoFJK, PRISM(SPDF).
 Compute integral first derivatives, UseDBF=F ICtDFT=           0.
 Calling FoFJK, ICntrl=      2127 FMM=F ISym2X=1 I1Cent= 0 IOpClX= 0 NMat=1 NMatS=1 NMatT=0.
 FoFJK:  IHMeth= 1 ICntrl=    2127 DoSepK=T KAlg= 0 I1Cent=           0 FoldK=F
 IRaf=         1 NMat=       1 IRICut=       1 DoRegI=T DoRafI=F ISym2E= 1 IDoP0=0 IntGTp=1.
 FoFCou: FMM=F IPFlag=           0 FMFlag=      100000 FMFlg1=         800
         NFxFlg=           0 DoJE=F BraDBF=F KetDBF=F FulRan=T
         wScrn=  0.000000 ICntrl=      2527 IOpCl=  0 I1Cent=           0 NGrid=           0
         NMat0=    1 NMatS0=      1 NMatT0=    0 NMatD0=    1 NMtDS0=    0 NMtDT0=    0
 Petite list used in FoFCou.
 Leave Link  703 at Thu Apr  2 15:17:32 2026, MaxMem=  1073741824 cpu:              10.9 elap:               2.8
 (Enter /Users/yarger/Applications/g16/l716.exe)
 Dipole        = 5.42894293D-01 6.30086168D-01 6.66133815D-16
 ***** Axes restored to original set *****
 -------------------------------------------------------------------
 Center     Atomic                   Forces (Hartrees/Bohr)
 Number     Number              X              Y              Z
 -------------------------------------------------------------------
      1        6           0.000281705    0.001051076   -0.002103282
      2        1          -0.000638591   -0.000735092    0.000269831
      3        6          -0.000253938   -0.000952076    0.001903333
      4        9          -0.000217442   -0.000455731   -0.000580090
      5        9           0.000625242    0.000447546   -0.000015828
      6        9           0.000694715    0.000242153   -0.001425148
      7        9          -0.000812433    0.000108900    0.001038982
      8        1           0.000320743    0.000293223    0.000912202
 -------------------------------------------------------------------
 Cartesian Forces:  Max     0.002103282 RMS     0.000859993
 Leave Link  716 at Thu Apr  2 15:17:32 2026, MaxMem=  1073741824 cpu:               0.1 elap:               0.0
 (Enter /Users/yarger/Applications/g16/l103.exe)

 GradGradGradGradGradGradGradGradGradGradGradGradGradGradGradGradGradGrad
 Berny optimization.
 Using GEDIIS/GDIIS optimizer.
 FormGI is forming the generalized inverse of G from B-inverse, IUseBI=4.
 Internal  Forces:  Max     0.001595773 RMS     0.000625842
 Search for a local minimum.
 Step number   3 out of a maximum of   38
 All quantities printed in internal units (Hartrees-Bohrs-Radians)
 RMS Force = .62584D-03 SwitMx=.10000D-02 MixMth= 2
 Mixed Optimization -- En-DIIS/RFO-DIIS
 Update second derivatives using D2CorX and points    1    2    3
 DE= -2.56D-04 DEPred=-2.69D-04 R= 9.52D-01
 TightC=F SS=  1.41D+00  RLast= 4.08D-02 DXNew= 6.8500D-01 1.2236D-01
 Trust test= 9.52D-01 RLast= 4.08D-02 DXMaxT set to 4.07D-01
 ITU=  1  1  0
 Use linear search instead of GDIIS.
     Eigenvalues ---    0.00237   0.05787   0.06052   0.08119   0.08690
     Eigenvalues ---    0.15990   0.16000   0.21346   0.24021   0.25000
     Eigenvalues ---    0.28383   0.37084   0.37230   0.37346   0.52392
     Eigenvalues ---    0.55021   0.55253   0.56852
 RFO step:  Lambda=-2.89602686D-05 EMin= 2.36824250D-03
 Quartic linear search produced a step of -0.04548.
 Iteration  1 RMS(Cart)=  0.00314359 RMS(Int)=  0.00000585
 Iteration  2 RMS(Cart)=  0.00000462 RMS(Int)=  0.00000356
 Iteration  3 RMS(Cart)=  0.00000000 RMS(Int)=  0.00000356
 ITry= 1 IFail=0 DXMaxC= 7.74D-03 DCOld= 1.00D+10 DXMaxT= 4.07D-01 DXLimC= 3.00D+00 Rises=F
 ClnCor:  largest displacement from symmetrization is 9.62D-09 for atom     5.
 Variable       Old X    -DE/DX   Delta X   Delta X   Delta X     New X
                                 (Linear)    (Quad)   (Total)
    R1        2.06136  -0.00090  -0.00011  -0.00197  -0.00208   2.05928
    R2        2.86334   0.00111   0.00047   0.00247   0.00294   2.86628
    R3        2.58206   0.00121  -0.00024   0.00272   0.00248   2.58454
    R4        2.06136  -0.00090  -0.00011  -0.00197  -0.00208   2.05928
    R5        2.52247  -0.00060   0.00002  -0.00112  -0.00110   2.52138
    R6        2.52247  -0.00060   0.00002  -0.00112  -0.00110   2.52138
    R7        2.52902   0.00160  -0.00017   0.00313   0.00296   2.53198
    A1        1.89466   0.00041  -0.00009   0.00299   0.00290   1.89755
    A2        1.91543  -0.00061   0.00024  -0.00416  -0.00392   1.91151
    A3        1.93064  -0.00033  -0.00010  -0.00091  -0.00101   1.92962
    A4        1.91273   0.00077  -0.00022   0.00347   0.00324   1.91597
    A5        1.89466   0.00041  -0.00009   0.00299   0.00290   1.89755
    A6        1.91543  -0.00061   0.00024  -0.00416  -0.00392   1.91151
    A7        1.95112   0.00065   0.00045   0.00143   0.00189   1.95301
    A8        1.95112   0.00065   0.00045   0.00143   0.00189   1.95301
    A9        1.90183   0.00005   0.00100  -0.00234  -0.00133   1.90049
   A10        1.88350  -0.00069  -0.00068  -0.00086  -0.00154   1.88196
   A11        1.88709  -0.00036  -0.00067   0.00015  -0.00052   1.88657
   A12        1.88709  -0.00036  -0.00067   0.00015  -0.00052   1.88657
    D1        1.03495  -0.00005   0.00022  -0.00166  -0.00144   1.03351
    D2       -3.13453  -0.00002  -0.00001  -0.00074  -0.00075  -3.13527
    D3       -1.04979  -0.00004   0.00011  -0.00120  -0.00109  -1.05088
    D4       -1.05686  -0.00002   0.00012  -0.00046  -0.00035  -1.05720
    D5        1.05686   0.00002  -0.00012   0.00046   0.00035   1.05720
    D6        3.14159   0.00000   0.00000   0.00000   0.00000   3.14159
    D7        3.13453   0.00002   0.00001   0.00074   0.00075   3.13527
    D8       -1.03495   0.00005  -0.00022   0.00166   0.00144  -1.03351
    D9        1.04979   0.00004  -0.00011   0.00120   0.00109   1.05088
         Item               Value     Threshold  Converged?
 Maximum Force            0.001596     0.000015     NO 
 RMS     Force            0.000626     0.000010     NO 
 Maximum Displacement     0.007737     0.000060     NO 
 RMS     Displacement     0.003145     0.000040     NO 
 Predicted change in Energy=-1.506008D-05
 Lowest energy point so far.  Saving SCF results.
 GradGradGradGradGradGradGradGradGradGradGradGradGradGradGradGradGradGrad

 Leave Link  103 at Thu Apr  2 15:17:32 2026, MaxMem=  1073741824 cpu:               0.1 elap:               0.0
 (Enter /Users/yarger/Applications/g16/l202.exe)
                          Input orientation:                          
 ---------------------------------------------------------------------
 Center     Atomic      Atomic             Coordinates (Angstroms)
 Number     Number       Type             X           Y           Z
 ---------------------------------------------------------------------
      1          6           0       -1.500020    1.409442    1.456702
      2          1           0       -1.157498    2.443869    1.445037
      3          6           0       -0.323059    0.503393    1.149411
      4          9           0        0.663143    0.650728    2.035940
      5          9           0       -0.674955   -0.783587    1.139949
      6          9           0        0.157357    0.812331   -0.062608
      7          9           0       -2.005115    1.109163    2.691715
      8          1           0       -2.269032    1.252411    0.700753
 ---------------------------------------------------------------------
                    Distance matrix (angstroms):
                    1          2          3          4          5
     1  C    0.000000
     2  H    1.089723   0.000000
     3  C    1.516769   2.132869   0.000000
     4  F    2.364411   2.622834   1.334255   0.000000
     5  F    2.364411   3.277559   1.334255   2.156517   0.000000
     6  F    2.326315   2.581425   1.339864   2.164681   2.164681
     7  F    1.367679   2.013479   2.361137   2.785642   2.785642
     8  H    1.089723   1.791378   2.132869   3.277559   2.622834
                    6          7          8
     6  F    0.000000
     7  F    3.514355   0.000000
     8  H    2.581425   2.013479   0.000000
 Stoichiometry    C2H2F4
 Framework group  CS[SG(C2F2),X(H2F2)]
 Deg. of freedom    11
 Full point group                 CS      NOp   2
 RotChk:  IX=2 Diff= 1.46D-03
 Largest Abelian subgroup         CS      NOp   2
 Largest concise Abelian subgroup CS      NOp   2
                         Standard orientation:                         
 ---------------------------------------------------------------------
 Center     Atomic      Atomic             Coordinates (Angstroms)
 Number     Number       Type             X           Y           Z
 ---------------------------------------------------------------------
      1          6           0        1.153470    0.241307   -0.000000
      2          1           0        1.485597    0.765644   -0.895689
      3          6           0       -0.362421    0.189712    0.000000
      4          9           0       -0.839084   -0.435099   -1.078258
      5          9           0       -0.839084   -0.435099    1.078258
      6          9           0       -0.839084    1.441921    0.000000
      7          9           0        1.659754   -1.029213   -0.000000
      8          1           0        1.485597    0.765644    0.895689
 ---------------------------------------------------------------------
 Rotational constants (GHZ):           5.3606113           2.7965298           2.7555294
 Leave Link  202 at Thu Apr  2 15:17:32 2026, MaxMem=  1073741824 cpu:               0.0 elap:               0.0
 (Enter /Users/yarger/Applications/g16/l301.exe)
 Standard basis: 6-311++G(2d,3p) (5D, 7F)
 Ernie: Thresh=  0.10000D-02 Tol=  0.10000D-05 Strict=F.
 There are   126 symmetry adapted cartesian basis functions of A'  symmetry.
 There are    74 symmetry adapted cartesian basis functions of A"  symmetry.
 There are   116 symmetry adapted basis functions of A'  symmetry.
 There are    72 symmetry adapted basis functions of A"  symmetry.
   188 basis functions,   282 primitive gaussians,   200 cartesian basis functions
    25 alpha electrons       25 beta electrons
       nuclear repulsion energy       272.6799850666 Hartrees.
 IExCor= 4639 DFT=T Ex+Corr=wB97XD ExCW=0 ScaHFX=  1.000000
 ScaDFX=  1.000000  1.000000  1.000000  1.000000 ScalE2=  1.000000  1.000000
 IRadAn=      5 IRanWt=     -1 IRanGd=            0 ICorTp=0 IEmpDi=121
 HFx  wShort=  0.000000 wLong=  0.200000 cFull=  0.222036 cShort=  0.000000 cLong=  0.777964
 DFx  wShort=  0.000000 wLong=  0.200000 cFull=  0.000000 cShort=  0.000000 cLong=  1.000000
 NAtoms=    8 NActive=    8 NUniq=    6 SFac= 1.78D+00 NAtFMM=   60 NAOKFM=F Big=F
 Integral buffers will be    131072 words long.
 Raffenetti 2 integral format.
 Two-electron integral symmetry is turned on.
 R6Disp:  Grimme-D2 Dispersion energy=       -0.0021534191 Hartrees.
 Nuclear repulsion after empirical dispersion term =      272.6778316474 Hartrees.
 Leave Link  301 at Thu Apr  2 15:17:32 2026, MaxMem=  1073741824 cpu:               0.1 elap:               0.0
 (Enter /Users/yarger/Applications/g16/l302.exe)
 NPDir=0 NMtPBC=     1 NCelOv=     1 NCel=       1 NClECP=     1 NCelD=      1
         NCelK=      1 NCelE2=     1 NClLst=     1 CellRange=     0.0.
 One-electron integrals computed using PRISM.
 One-electron integral symmetry used in STVInt
 NBasis=   188 RedAO= T EigKep=  1.13D-04  NBF=   116    72
 NBsUse=   188 1.00D-06 EigRej= -1.00D+00 NBFU=   116    72
 Precomputing XC quadrature grid using
 IXCGrd= 4 IRadAn=           5 IRanWt=          -1 IRanGd=           0 AccXCQ= 0.00D+00.
 Generated NRdTot=       0 NPtTot=           0 NUsed=           0 NTot=          32
 NSgBfM=   200   200   200   200   200 MxSgAt=     8 MxSgA2=     8.
 Leave Link  302 at Thu Apr  2 15:17:32 2026, MaxMem=  1073741824 cpu:               0.5 elap:               0.1
 (Enter /Users/yarger/Applications/g16/l303.exe)
 DipDrv:  MaxL=1.
 Leave Link  303 at Thu Apr  2 15:17:32 2026, MaxMem=  1073741824 cpu:               0.1 elap:               0.0
 (Enter /Users/yarger/Applications/g16/l401.exe)
 Initial guess from the checkpoint file:  "1112Tetrafluoroethane_Opt_Freq_DFT_WB97XD_6311pp2d3p_Gaussian16.chk"
 B after Tr=     0.000000    0.000000   -0.000000
         Rot=    1.000000    0.000000    0.000000   -0.000802 Ang=  -0.09 deg.
 Guess basis will be translated and rotated to current coordinates.
 JPrj=2 DoOrth=T DoCkMO=T.
 Initial guess orbital symmetries:
       Occupied  (A') (A") (A') (A') (A') (A') (A') (A') (A") (A')
                 (A') (A') (A') (A") (A') (A') (A") (A') (A") (A')
                 (A') (A") (A") (A") (A')
       Virtual   (A') (A") (A') (A') (A") (A') (A') (A") (A') (A')
                 (A') (A") (A') (A") (A') (A') (A') (A") (A') (A')
                 (A') (A") (A') (A") (A') (A") (A') (A") (A') (A')
                 (A") (A') (A") (A') (A') (A") (A') (A") (A') (A')
                 (A') (A") (A") (A') (A') (A") (A') (A") (A') (A')
                 (A') (A') (A") (A") (A') (A') (A') (A") (A') (A')
                 (A") (A') (A") (A') (A") (A') (A") (A') (A") (A')
                 (A') (A") (A") (A') (A') (A") (A') (A") (A') (A")
                 (A') (A") (A') (A') (A") (A") (A') (A') (A") (A')
                 (A") (A') (A') (A') (A") (A') (A') (A") (A') (A')
                 (A") (A") (A') (A') (A') (A") (A") (A') (A') (A")
                 (A') (A') (A") (A') (A") (A') (A') (A") (A') (A')
                 (A") (A") (A") (A') (A') (A") (A') (A') (A') (A')
                 (A") (A") (A') (A") (A') (A') (A") (A") (A') (A")
                 (A") (A') (A") (A') (A") (A') (A") (A') (A') (A")
                 (A') (A') (A") (A') (A') (A') (A") (A') (A') (A')
                 (A") (A') (A')
 The electronic state of the initial guess is 1-A'.
 Leave Link  401 at Thu Apr  2 15:17:32 2026, MaxMem=  1073741824 cpu:               0.3 elap:               0.1
 (Enter /Users/yarger/Applications/g16/l502.exe)
 Keep R1 ints in memory in symmetry-blocked form, NReq=474084691.
 FoFCou: FMM=F IPFlag=           0 FMFlag=           0 FMFlg1=           0
         NFxFlg=           0 DoJE=F BraDBF=F KetDBF=F FulRan=T
         wScrn=  0.000000 ICntrl=       600 IOpCl=  0 I1Cent=           0 NGrid=           0
         NMat0=    1 NMatS0=  17766 NMatT0=    0 NMatD0=    1 NMtDS0=    0 NMtDT0=    0
 Petite list used in FoFCou.
 Closed shell SCF:
 Using DIIS extrapolation, IDIIS=  1040.
 NGot=  1073741824 LenX=   994422283 LenY=   994381842
 Requested convergence on RMS density matrix=1.00D-08 within 128 cycles.
 Requested convergence on MAX density matrix=1.00D-06.
 Requested convergence on             energy=1.00D-06.
 No special actions if energy rises.

 Cycle   1  Pass 1  IDiag  1:
 E= -476.815374396991    
 DIIS: error= 2.23D-04 at cycle   1 NSaved=   1.
 NSaved= 1 IEnMin= 1 EnMin= -476.815374396991     IErMin= 1 ErrMin= 2.23D-04
 ErrMax= 2.23D-04  0.00D+00 EMaxC= 1.00D-01 BMatC= 1.15D-05 BMatP= 1.15D-05
 IDIUse=3 WtCom= 9.98D-01 WtEn= 2.23D-03
 Coeff-Com:  0.100D+01
 Coeff-En:   0.100D+01
 Coeff:      0.100D+01
 Gap=     0.504 Goal=   None    Shift=    0.000
 RMSDP=3.83D-05 MaxDP=8.93D-04              OVMax= 8.92D-04

 Cycle   2  Pass 1  IDiag  1:
 E= -476.815385892981     Delta-E=       -0.000011495990 Rises=F Damp=F
 DIIS: error= 4.94D-05 at cycle   2 NSaved=   2.
 NSaved= 2 IEnMin= 2 EnMin= -476.815385892981     IErMin= 2 ErrMin= 4.94D-05
 ErrMax= 4.94D-05  0.00D+00 EMaxC= 1.00D-01 BMatC= 4.75D-07 BMatP= 1.15D-05
 IDIUse=1 WtCom= 1.00D+00 WtEn= 0.00D+00
 Coeff-Com: -0.517D-01 0.105D+01
 Coeff:     -0.517D-01 0.105D+01
 Gap=     0.504 Goal=   None    Shift=    0.000
 RMSDP=6.14D-06 MaxDP=1.45D-04 DE=-1.15D-05 OVMax= 2.61D-04

 Cycle   3  Pass 1  IDiag  1:
 E= -476.815386369167     Delta-E=       -0.000000476187 Rises=F Damp=F
 DIIS: error= 4.14D-05 at cycle   3 NSaved=   3.
 NSaved= 3 IEnMin= 3 EnMin= -476.815386369167     IErMin= 3 ErrMin= 4.14D-05
 ErrMax= 4.14D-05  0.00D+00 EMaxC= 1.00D-01 BMatC= 2.94D-07 BMatP= 4.75D-07
 IDIUse=1 WtCom= 1.00D+00 WtEn= 0.00D+00
 Coeff-Com: -0.579D-01 0.473D+00 0.584D+00
 Coeff:     -0.579D-01 0.473D+00 0.584D+00
 Gap=     0.504 Goal=   None    Shift=    0.000
 RMSDP=1.64D-06 MaxDP=7.47D-05 DE=-4.76D-07 OVMax= 8.05D-05

 Cycle   4  Pass 1  IDiag  1:
 E= -476.815386531508     Delta-E=       -0.000000162341 Rises=F Damp=F
 DIIS: error= 7.21D-06 at cycle   4 NSaved=   4.
 NSaved= 4 IEnMin= 4 EnMin= -476.815386531508     IErMin= 4 ErrMin= 7.21D-06
 ErrMax= 7.21D-06  0.00D+00 EMaxC= 1.00D-01 BMatC= 1.70D-08 BMatP= 2.94D-07
 IDIUse=1 WtCom= 1.00D+00 WtEn= 0.00D+00
 Coeff-Com: -0.691D-02-0.251D-01 0.169D+00 0.863D+00
 Coeff:     -0.691D-02-0.251D-01 0.169D+00 0.863D+00
 Gap=     0.504 Goal=   None    Shift=    0.000
 RMSDP=7.72D-07 MaxDP=2.29D-05 DE=-1.62D-07 OVMax= 3.16D-05

 Cycle   5  Pass 1  IDiag  1:
 E= -476.815386544853     Delta-E=       -0.000000013345 Rises=F Damp=F
 DIIS: error= 1.54D-06 at cycle   5 NSaved=   5.
 NSaved= 5 IEnMin= 5 EnMin= -476.815386544853     IErMin= 5 ErrMin= 1.54D-06
 ErrMax= 1.54D-06  0.00D+00 EMaxC= 1.00D-01 BMatC= 5.91D-10 BMatP= 1.70D-08
 IDIUse=1 WtCom= 1.00D+00 WtEn= 0.00D+00
 Coeff-Com:  0.186D-02-0.349D-01 0.134D-03 0.179D+00 0.854D+00
 Coeff:      0.186D-02-0.349D-01 0.134D-03 0.179D+00 0.854D+00
 Gap=     0.504 Goal=   None    Shift=    0.000
 RMSDP=2.19D-07 MaxDP=8.44D-06 DE=-1.33D-08 OVMax= 9.22D-06

 Cycle   6  Pass 1  IDiag  1:
 E= -476.815386545458     Delta-E=       -0.000000000604 Rises=F Damp=F
 DIIS: error= 5.26D-07 at cycle   6 NSaved=   6.
 NSaved= 6 IEnMin= 6 EnMin= -476.815386545458     IErMin= 6 ErrMin= 5.26D-07
 ErrMax= 5.26D-07  0.00D+00 EMaxC= 1.00D-01 BMatC= 6.73D-11 BMatP= 5.91D-10
 IDIUse=1 WtCom= 1.00D+00 WtEn= 0.00D+00
 Coeff-Com:  0.106D-02-0.109D-01-0.958D-02 0.138D-01 0.286D+00 0.720D+00
 Coeff:      0.106D-02-0.109D-01-0.958D-02 0.138D-01 0.286D+00 0.720D+00
 Gap=     0.504 Goal=   None    Shift=    0.000
 RMSDP=5.55D-08 MaxDP=2.13D-06 DE=-6.04D-10 OVMax= 2.24D-06

 Cycle   7  Pass 1  IDiag  1:
 E= -476.815386545520     Delta-E=       -0.000000000063 Rises=F Damp=F
 DIIS: error= 1.80D-07 at cycle   7 NSaved=   7.
 NSaved= 7 IEnMin= 7 EnMin= -476.815386545520     IErMin= 7 ErrMin= 1.80D-07
 ErrMax= 1.80D-07  0.00D+00 EMaxC= 1.00D-01 BMatC= 6.50D-12 BMatP= 6.73D-11
 IDIUse=1 WtCom= 1.00D+00 WtEn= 0.00D+00
 Coeff-Com:  0.200D-03-0.773D-03-0.322D-02-0.967D-02 0.217D-01 0.233D+00
 Coeff-Com:  0.758D+00
 Coeff:      0.200D-03-0.773D-03-0.322D-02-0.967D-02 0.217D-01 0.233D+00
 Coeff:      0.758D+00
 Gap=     0.504 Goal=   None    Shift=    0.000
 RMSDP=1.76D-08 MaxDP=5.93D-07 DE=-6.25D-11 OVMax= 8.71D-07

 Cycle   8  Pass 1  IDiag  1:
 E= -476.815386545523     Delta-E=       -0.000000000003 Rises=F Damp=F
 DIIS: error= 8.71D-08 at cycle   8 NSaved=   8.
 NSaved= 8 IEnMin= 8 EnMin= -476.815386545523     IErMin= 8 ErrMin= 8.71D-08
 ErrMax= 8.71D-08  0.00D+00 EMaxC= 1.00D-01 BMatC= 1.31D-12 BMatP= 6.50D-12
 IDIUse=1 WtCom= 1.00D+00 WtEn= 0.00D+00
 Coeff-Com: -0.727D-04 0.131D-02-0.132D-05-0.629D-02-0.337D-01-0.503D-02
 Coeff-Com:  0.341D+00 0.703D+00
 Coeff:     -0.727D-04 0.131D-02-0.132D-05-0.629D-02-0.337D-01-0.503D-02
 Coeff:      0.341D+00 0.703D+00
 Gap=     0.504 Goal=   None    Shift=    0.000
 RMSDP=7.09D-09 MaxDP=2.49D-07 DE=-2.61D-12 OVMax= 3.76D-07

 SCF Done:  E(RwB97XD) =  -476.815386546     A.U. after    8 cycles
            NFock=  8  Conv=0.71D-08     -V/T= 2.0026
 KE= 4.755605651413D+02 PE=-1.678501763226D+03 EE= 4.534479798921D+02
 Leave Link  502 at Thu Apr  2 15:17:39 2026, MaxMem=  1073741824 cpu:              26.5 elap:               6.8
 (Enter /Users/yarger/Applications/g16/l701.exe)
 ... and contract with generalized density number  0.
 Compute integral first derivatives.
 R6Disp: Adding Grimme-D2 dispersion energy 1st derivatives to the gradient.
 Leave Link  701 at Thu Apr  2 15:17:39 2026, MaxMem=  1073741824 cpu:               0.3 elap:               0.1
 (Enter /Users/yarger/Applications/g16/l702.exe)
 L702 exits ... SP integral derivatives will be done elsewhere.
 Leave Link  702 at Thu Apr  2 15:17:39 2026, MaxMem=  1073741824 cpu:               0.1 elap:               0.0
 (Enter /Users/yarger/Applications/g16/l703.exe)
 Integral derivatives from FoFJK, PRISM(SPDF).
 Compute integral first derivatives, UseDBF=F ICtDFT=           0.
 Calling FoFJK, ICntrl=      2127 FMM=F ISym2X=1 I1Cent= 0 IOpClX= 0 NMat=1 NMatS=1 NMatT=0.
 FoFJK:  IHMeth= 1 ICntrl=    2127 DoSepK=T KAlg= 0 I1Cent=           0 FoldK=F
 IRaf=         1 NMat=       1 IRICut=       1 DoRegI=T DoRafI=F ISym2E= 1 IDoP0=0 IntGTp=1.
 FoFCou: FMM=F IPFlag=           0 FMFlag=      100000 FMFlg1=         800
         NFxFlg=           0 DoJE=F BraDBF=F KetDBF=F FulRan=T
         wScrn=  0.000000 ICntrl=      2527 IOpCl=  0 I1Cent=           0 NGrid=           0
         NMat0=    1 NMatS0=      1 NMatT0=    0 NMatD0=    1 NMtDS0=    0 NMtDT0=    0
 Petite list used in FoFCou.
 Leave Link  703 at Thu Apr  2 15:17:42 2026, MaxMem=  1073741824 cpu:              10.9 elap:               2.8
 (Enter /Users/yarger/Applications/g16/l716.exe)
 Dipole        = 5.41355393D-01 6.28141754D-01-5.10702591D-15
 ***** Axes restored to original set *****
 -------------------------------------------------------------------
 Center     Atomic                   Forces (Hartrees/Bohr)
 Number     Number              X              Y              Z
 -------------------------------------------------------------------
      1        6           0.000010378    0.000526582   -0.000858458
      2        1          -0.000000023   -0.000242537   -0.000004533
      3        6          -0.000294547   -0.000455339    0.001168798
      4        9          -0.000157501   -0.000018990   -0.000308957
      5        9           0.000138751    0.000298564   -0.000110587
      6        9           0.000212582    0.000136990   -0.000536772
      7        9          -0.000112158   -0.000219839    0.000519420
      8        1           0.000202519   -0.000025431    0.000131089
 -------------------------------------------------------------------
 Cartesian Forces:  Max     0.001168798 RMS     0.000393502
 Leave Link  716 at Thu Apr  2 15:17:42 2026, MaxMem=  1073741824 cpu:               0.1 elap:               0.0
 (Enter /Users/yarger/Applications/g16/l103.exe)

 GradGradGradGradGradGradGradGradGradGradGradGradGradGradGradGradGradGrad
 Berny optimization.
 Using GEDIIS/GDIIS optimizer.
 FormGI is forming the generalized inverse of G from B-inverse, IUseBI=4.
 Internal  Forces:  Max     0.000594869 RMS     0.000205859
 Search for a local minimum.
 Step number   4 out of a maximum of   38
 All quantities printed in internal units (Hartrees-Bohrs-Radians)
 RMS Force = .20586D-03 SwitMx=.10000D-02 MixMth= 2
 Mixed Optimization -- En-DIIS/RFO-DIIS
 Swapping is turned off.
 Update second derivatives using D2CorX and points    1    2    3    4
 DE= -1.68D-05 DEPred=-1.51D-05 R= 1.12D+00
 TightC=F SS=  1.41D+00  RLast= 1.06D-02 DXNew= 6.8500D-01 3.1939D-02
 Trust test= 1.12D+00 RLast= 1.06D-02 DXMaxT set to 4.07D-01
 ITU=  1  1  1  0
     Eigenvalues ---    0.00237   0.05758   0.05884   0.07817   0.08690
     Eigenvalues ---    0.16000   0.17033   0.21316   0.24527   0.25000
     Eigenvalues ---    0.30368   0.34641   0.37230   0.38139   0.43295
     Eigenvalues ---    0.54701   0.55021   0.56825
 En-DIIS/RFO-DIIS/Sim-DIIS IScMMF=       -3 using points:     4    3
 RFO step:  Lambda=-4.15451789D-06.
 NNeg= 0 NGDIIS= 2 SimSw=  2.50D-01 Rises=F DC= -1.68D-05 SmlDif=  1.00D-05
 NRisDI= 0 DoIntr=F SqrtH=F CThrHd= 10.0 CDAdj=  3.0
 RMS Error=  0.9179925142D-03 NUsed= 2 OKEnD=T EnDIS=F
 InvSVX:  RCond= 2.83D-05 Info=           0 Equed=N FErr=  1.62D-15 BErr=  1.17D-17
 DidBck=F Rises=F RFO-DIIS coefs:    1.19039   -0.19039
 Iteration  1 RMS(Cart)=  0.00062863 RMS(Int)=  0.00000097
 Iteration  2 RMS(Cart)=  0.00000063 RMS(Int)=  0.00000079
 ITry= 1 IFail=0 DXMaxC= 1.66D-03 DCOld= 1.00D+10 DXMaxT= 4.07D-01 DXLimC= 3.00D+00 Rises=F
 ClnCor:  largest displacement from symmetrization is 5.33D-09 for atom     5.
 Variable       Old X    -DE/DX   Delta X   Delta X   Delta X     New X
                                 (Linear)    (Quad)   (Total)
    R1        2.05928  -0.00023  -0.00040  -0.00047  -0.00086   2.05841
    R2        2.86628  -0.00010   0.00056  -0.00088  -0.00032   2.86596
    R3        2.58454   0.00056   0.00047   0.00122   0.00169   2.58623
    R4        2.05928  -0.00023  -0.00040  -0.00047  -0.00086   2.05841
    R5        2.52138  -0.00032  -0.00021  -0.00069  -0.00090   2.52048
    R6        2.52138  -0.00032  -0.00021  -0.00069  -0.00090   2.52048
    R7        2.53198   0.00059   0.00056   0.00112   0.00168   2.53366
    A1        1.89755  -0.00005   0.00055  -0.00054   0.00001   1.89756
    A2        1.91151   0.00013  -0.00075   0.00072  -0.00003   1.91148
    A3        1.92962   0.00008  -0.00019   0.00094   0.00075   1.93037
    A4        1.91597  -0.00024   0.00062  -0.00133  -0.00071   1.91526
    A5        1.89755  -0.00005   0.00055  -0.00054   0.00001   1.89756
    A6        1.91151   0.00013  -0.00075   0.00072  -0.00003   1.91148
    A7        1.95301   0.00014   0.00036   0.00061   0.00097   1.95398
    A8        1.95301   0.00014   0.00036   0.00061   0.00097   1.95398
    A9        1.90049  -0.00009  -0.00025  -0.00128  -0.00153   1.89896
   A10        1.88196  -0.00004  -0.00029   0.00092   0.00062   1.88258
   A11        1.88657  -0.00008  -0.00010  -0.00046  -0.00056   1.88602
   A12        1.88657  -0.00008  -0.00010  -0.00046  -0.00056   1.88602
    D1        1.03351  -0.00009  -0.00027  -0.00128  -0.00155   1.03196
    D2       -3.13527   0.00005  -0.00014   0.00078   0.00064  -3.13464
    D3       -1.05088  -0.00002  -0.00021  -0.00025  -0.00046  -1.05134
    D4       -1.05720  -0.00007  -0.00007  -0.00103  -0.00109  -1.05829
    D5        1.05720   0.00007   0.00007   0.00103   0.00109   1.05829
    D6        3.14159   0.00000   0.00000   0.00000   0.00000   3.14159
    D7        3.13527  -0.00005   0.00014  -0.00078  -0.00064   3.13464
    D8       -1.03351   0.00009   0.00027   0.00128   0.00155  -1.03196
    D9        1.05088   0.00002   0.00021   0.00025   0.00046   1.05134
         Item               Value     Threshold  Converged?
 Maximum Force            0.000595     0.000015     NO 
 RMS     Force            0.000206     0.000010     NO 
 Maximum Displacement     0.001657     0.000060     NO 
 RMS     Displacement     0.000629     0.000040     NO 
 Predicted change in Energy=-2.077931D-06
 Lowest energy point so far.  Saving SCF results.
 GradGradGradGradGradGradGradGradGradGradGradGradGradGradGradGradGradGrad

 Leave Link  103 at Thu Apr  2 15:17:42 2026, MaxMem=  1073741824 cpu:               0.0 elap:               0.0
 (Enter /Users/yarger/Applications/g16/l202.exe)
                          Input orientation:                          
 ---------------------------------------------------------------------
 Center     Atomic      Atomic             Coordinates (Angstroms)
 Number     Number       Type             X           Y           Z
 ---------------------------------------------------------------------
      1          6           0       -1.500015    1.409658    1.456348
      2          1           0       -1.157157    2.443493    1.444782
      3          6           0       -0.323337    0.503104    1.150288
      4          9           0        0.663288    0.650591    2.035608
      5          9           0       -0.674637   -0.783538    1.139732
      6          9           0        0.156797    0.812860   -0.062619
      7          9           0       -2.005605    1.109354    2.692141
      8          1           0       -2.268512    1.252227    0.700618
 ---------------------------------------------------------------------
                    Distance matrix (angstroms):
                    1          2          3          4          5
     1  C    0.000000
     2  H    1.089266   0.000000
     3  C    1.516602   2.132391   0.000000
     4  F    2.364657   2.622517   1.333781   0.000000
     5  F    2.364657   3.277134   1.333781   2.156238   0.000000
     6  F    2.325608   2.580251   1.340754   2.164583   2.164583
     7  F    1.368572   2.013876   2.361118   2.786483   2.786483
     8  H    1.089266   1.791090   2.132391   3.277134   2.622517
                    6          7          8
     6  F    0.000000
     7  F    3.514626   0.000000
     8  H    2.580251   2.013876   0.000000
 Stoichiometry    C2H2F4
 Framework group  CS[SG(C2F2),X(H2F2)]
 Deg. of freedom    11
 Full point group                 CS      NOp   2
 RotChk:  IX=2 Diff= 7.62D-04
 Largest Abelian subgroup         CS      NOp   2
 Largest concise Abelian subgroup CS      NOp   2
                         Standard orientation:                         
 ---------------------------------------------------------------------
 Center     Atomic      Atomic             Coordinates (Angstroms)
 Number     Number       Type             X           Y           Z
 ---------------------------------------------------------------------
      1          6           0        1.153222    0.242335    0.000000
      2          1           0        1.484484    0.766516   -0.895545
      3          6           0       -0.362427    0.188580   -0.000000
      4          9           0       -0.839276   -0.435316   -1.078119
      5          9           0       -0.839276   -0.435316    1.078119
      6          9           0       -0.839276    1.441671   -0.000000
      7          9           0        1.660745   -1.028652    0.000000
      8          1           0        1.484484    0.766516    0.895545
 ---------------------------------------------------------------------
 Rotational constants (GHZ):           5.3601761           2.7963586           2.7548891
 Leave Link  202 at Thu Apr  2 15:17:42 2026, MaxMem=  1073741824 cpu:               0.0 elap:               0.0
 (Enter /Users/yarger/Applications/g16/l301.exe)
 Standard basis: 6-311++G(2d,3p) (5D, 7F)
 Ernie: Thresh=  0.10000D-02 Tol=  0.10000D-05 Strict=F.
 There are   126 symmetry adapted cartesian basis functions of A'  symmetry.
 There are    74 symmetry adapted cartesian basis functions of A"  symmetry.
 There are   116 symmetry adapted basis functions of A'  symmetry.
 There are    72 symmetry adapted basis functions of A"  symmetry.
   188 basis functions,   282 primitive gaussians,   200 cartesian basis functions
    25 alpha electrons       25 beta electrons
       nuclear repulsion energy       272.6689578632 Hartrees.
 IExCor= 4639 DFT=T Ex+Corr=wB97XD ExCW=0 ScaHFX=  1.000000
 ScaDFX=  1.000000  1.000000  1.000000  1.000000 ScalE2=  1.000000  1.000000
 IRadAn=      5 IRanWt=     -1 IRanGd=            0 ICorTp=0 IEmpDi=121
 HFx  wShort=  0.000000 wLong=  0.200000 cFull=  0.222036 cShort=  0.000000 cLong=  0.777964
 DFx  wShort=  0.000000 wLong=  0.200000 cFull=  0.000000 cShort=  0.000000 cLong=  1.000000
 NAtoms=    8 NActive=    8 NUniq=    6 SFac= 1.78D+00 NAtFMM=   60 NAOKFM=F Big=F
 Integral buffers will be    131072 words long.
 Raffenetti 2 integral format.
 Two-electron integral symmetry is turned on.
 R6Disp:  Grimme-D2 Dispersion energy=       -0.0021534076 Hartrees.
 Nuclear repulsion after empirical dispersion term =      272.6668044556 Hartrees.
 Leave Link  301 at Thu Apr  2 15:17:42 2026, MaxMem=  1073741824 cpu:               0.1 elap:               0.0
 (Enter /Users/yarger/Applications/g16/l302.exe)
 NPDir=0 NMtPBC=     1 NCelOv=     1 NCel=       1 NClECP=     1 NCelD=      1
         NCelK=      1 NCelE2=     1 NClLst=     1 CellRange=     0.0.
 One-electron integrals computed using PRISM.
 One-electron integral symmetry used in STVInt
 NBasis=   188 RedAO= T EigKep=  1.12D-04  NBF=   116    72
 NBsUse=   188 1.00D-06 EigRej= -1.00D+00 NBFU=   116    72
 Precomputing XC quadrature grid using
 IXCGrd= 4 IRadAn=           5 IRanWt=          -1 IRanGd=           0 AccXCQ= 0.00D+00.
 Generated NRdTot=       0 NPtTot=           0 NUsed=           0 NTot=          32
 NSgBfM=   200   200   200   200   200 MxSgAt=     8 MxSgA2=     8.
 Leave Link  302 at Thu Apr  2 15:17:42 2026, MaxMem=  1073741824 cpu:               0.5 elap:               0.1
 (Enter /Users/yarger/Applications/g16/l303.exe)
 DipDrv:  MaxL=1.
 Leave Link  303 at Thu Apr  2 15:17:42 2026, MaxMem=  1073741824 cpu:               0.1 elap:               0.0
 (Enter /Users/yarger/Applications/g16/l401.exe)
 Initial guess from the checkpoint file:  "1112Tetrafluoroethane_Opt_Freq_DFT_WB97XD_6311pp2d3p_Gaussian16.chk"
 B after Tr=    -0.000000   -0.000000    0.000000
         Rot=    1.000000   -0.000000    0.000000   -0.000210 Ang=  -0.02 deg.
 Guess basis will be translated and rotated to current coordinates.
 JPrj=2 DoOrth=T DoCkMO=T.
 Initial guess orbital symmetries:
       Occupied  (A') (A") (A') (A') (A') (A') (A') (A') (A") (A')
                 (A') (A') (A") (A') (A') (A') (A") (A') (A") (A')
                 (A') (A") (A") (A") (A')
       Virtual   (A') (A") (A') (A') (A") (A') (A') (A") (A') (A')
                 (A') (A") (A') (A") (A') (A') (A') (A") (A') (A')
                 (A') (A") (A') (A") (A') (A") (A') (A") (A') (A')
                 (A") (A') (A") (A') (A') (A") (A') (A") (A') (A')
                 (A') (A") (A") (A') (A') (A") (A') (A") (A') (A')
                 (A') (A') (A") (A") (A') (A') (A') (A") (A') (A')
                 (A") (A') (A") (A') (A") (A') (A") (A') (A") (A')
                 (A') (A") (A") (A') (A') (A") (A') (A") (A') (A")
                 (A') (A") (A') (A') (A") (A") (A') (A') (A") (A')
                 (A") (A') (A') (A') (A") (A') (A') (A") (A') (A')
                 (A") (A") (A') (A') (A') (A") (A") (A') (A') (A")
                 (A') (A') (A") (A') (A") (A') (A') (A") (A') (A")
                 (A') (A") (A") (A') (A') (A") (A') (A') (A') (A')
                 (A") (A") (A') (A") (A') (A') (A") (A") (A') (A")
                 (A") (A') (A") (A') (A") (A') (A") (A') (A') (A")
                 (A') (A') (A") (A') (A') (A') (A") (A') (A') (A')
                 (A") (A') (A')
 The electronic state of the initial guess is 1-A'.
 Leave Link  401 at Thu Apr  2 15:17:42 2026, MaxMem=  1073741824 cpu:               0.3 elap:               0.1
 (Enter /Users/yarger/Applications/g16/l502.exe)
 Keep R1 ints in memory in symmetry-blocked form, NReq=474084691.
 FoFCou: FMM=F IPFlag=           0 FMFlag=           0 FMFlg1=           0
         NFxFlg=           0 DoJE=F BraDBF=F KetDBF=F FulRan=T
         wScrn=  0.000000 ICntrl=       600 IOpCl=  0 I1Cent=           0 NGrid=           0
         NMat0=    1 NMatS0=  17766 NMatT0=    0 NMatD0=    1 NMtDS0=    0 NMtDT0=    0
 Petite list used in FoFCou.
 Closed shell SCF:
 Using DIIS extrapolation, IDIIS=  1040.
 NGot=  1073741824 LenX=   994422283 LenY=   994381842
 Requested convergence on RMS density matrix=1.00D-08 within 128 cycles.
 Requested convergence on MAX density matrix=1.00D-06.
 Requested convergence on             energy=1.00D-06.
 No special actions if energy rises.

 Cycle   1  Pass 1  IDiag  1:
 E= -476.815386824364    
 DIIS: error= 6.42D-05 at cycle   1 NSaved=   1.
 NSaved= 1 IEnMin= 1 EnMin= -476.815386824364     IErMin= 1 ErrMin= 6.42D-05
 ErrMax= 6.42D-05  0.00D+00 EMaxC= 1.00D-01 BMatC= 2.06D-06 BMatP= 2.06D-06
 IDIUse=1 WtCom= 1.00D+00 WtEn= 0.00D+00
 Coeff-Com:  0.100D+01
 Coeff:      0.100D+01
 Gap=     0.504 Goal=   None    Shift=    0.000
 RMSDP=1.31D-05 MaxDP=3.61D-04              OVMax= 2.73D-04

 Cycle   2  Pass 1  IDiag  1:
 E= -476.815388828174     Delta-E=       -0.000002003811 Rises=F Damp=F
 DIIS: error= 3.42D-05 at cycle   2 NSaved=   2.
 NSaved= 2 IEnMin= 2 EnMin= -476.815388828174     IErMin= 2 ErrMin= 3.42D-05
 ErrMax= 3.42D-05  0.00D+00 EMaxC= 1.00D-01 BMatC= 1.97D-07 BMatP= 2.06D-06
 IDIUse=1 WtCom= 1.00D+00 WtEn= 0.00D+00
 Coeff-Com:  0.654D-01 0.935D+00
 Coeff:      0.654D-01 0.935D+00
 Gap=     0.504 Goal=   None    Shift=    0.000
 RMSDP=2.57D-06 MaxDP=8.73D-05 DE=-2.00D-06 OVMax= 1.08D-04

 Cycle   3  Pass 1  IDiag  1:
 E= -476.815388906153     Delta-E=       -0.000000077979 Rises=F Damp=F
 DIIS: error= 2.74D-05 at cycle   3 NSaved=   3.
 NSaved= 3 IEnMin= 3 EnMin= -476.815388906153     IErMin= 3 ErrMin= 2.74D-05
 ErrMax= 2.74D-05  0.00D+00 EMaxC= 1.00D-01 BMatC= 1.52D-07 BMatP= 1.97D-07
 IDIUse=1 WtCom= 1.00D+00 WtEn= 0.00D+00
 Coeff-Com: -0.619D-01 0.479D+00 0.583D+00
 Coeff:     -0.619D-01 0.479D+00 0.583D+00
 Gap=     0.504 Goal=   None    Shift=    0.000
 RMSDP=1.05D-06 MaxDP=3.96D-05 DE=-7.80D-08 OVMax= 5.10D-05

 Cycle   4  Pass 1  IDiag  1:
 E= -476.815388990268     Delta-E=       -0.000000084115 Rises=F Damp=F
 DIIS: error= 3.60D-06 at cycle   4 NSaved=   4.
 NSaved= 4 IEnMin= 4 EnMin= -476.815388990268     IErMin= 4 ErrMin= 3.60D-06
 ErrMax= 3.60D-06  0.00D+00 EMaxC= 1.00D-01 BMatC= 2.09D-09 BMatP= 1.52D-07
 IDIUse=1 WtCom= 1.00D+00 WtEn= 0.00D+00
 Coeff-Com: -0.104D-01-0.213D-02 0.951D-01 0.917D+00
 Coeff:     -0.104D-01-0.213D-02 0.951D-01 0.917D+00
 Gap=     0.504 Goal=   None    Shift=    0.000
 RMSDP=2.44D-07 MaxDP=5.75D-06 DE=-8.41D-08 OVMax= 1.11D-05

 Cycle   5  Pass 1  IDiag  1:
 E= -476.815388992117     Delta-E=       -0.000000001849 Rises=F Damp=F
 DIIS: error= 5.15D-07 at cycle   5 NSaved=   5.
 NSaved= 5 IEnMin= 5 EnMin= -476.815388992117     IErMin= 5 ErrMin= 5.15D-07
 ErrMax= 5.15D-07  0.00D+00 EMaxC= 1.00D-01 BMatC= 5.90D-11 BMatP= 2.09D-09
 IDIUse=1 WtCom= 1.00D+00 WtEn= 0.00D+00
 Coeff-Com:  0.196D-02-0.252D-01-0.182D-01 0.755D-01 0.966D+00
 Coeff:      0.196D-02-0.252D-01-0.182D-01 0.755D-01 0.966D+00
 Gap=     0.504 Goal=   None    Shift=    0.000
 RMSDP=7.17D-08 MaxDP=1.23D-06 DE=-1.85D-09 OVMax= 3.53D-06

 Cycle   6  Pass 1  IDiag  1:
 E= -476.815388992190     Delta-E=       -0.000000000073 Rises=F Damp=F
 DIIS: error= 3.57D-07 at cycle   6 NSaved=   6.
 NSaved= 6 IEnMin= 6 EnMin= -476.815388992190     IErMin= 6 ErrMin= 3.57D-07
 ErrMax= 3.57D-07  0.00D+00 EMaxC= 1.00D-01 BMatC= 2.41D-11 BMatP= 5.90D-11
 IDIUse=1 WtCom= 1.00D+00 WtEn= 0.00D+00
 Coeff-Com:  0.147D-02-0.126D-01-0.136D-01-0.183D-02 0.479D+00 0.548D+00
 Coeff:      0.147D-02-0.126D-01-0.136D-01-0.183D-02 0.479D+00 0.548D+00
 Gap=     0.504 Goal=   None    Shift=    0.000
 RMSDP=1.55D-08 MaxDP=5.49D-07 DE=-7.34D-11 OVMax= 7.71D-07

 Cycle   7  Pass 1  IDiag  1:
 E= -476.815388992208     Delta-E=       -0.000000000017 Rises=F Damp=F
 DIIS: error= 4.70D-08 at cycle   7 NSaved=   7.
 NSaved= 7 IEnMin= 7 EnMin= -476.815388992208     IErMin= 7 ErrMin= 4.70D-08
 ErrMax= 4.70D-08  0.00D+00 EMaxC= 1.00D-01 BMatC= 4.60D-13 BMatP= 2.41D-11
 IDIUse=1 WtCom= 1.00D+00 WtEn= 0.00D+00
 Coeff-Com: -0.136D-03 0.214D-02 0.947D-03-0.900D-02-0.811D-01 0.401D-01
 Coeff-Com:  0.105D+01
 Coeff:     -0.136D-03 0.214D-02 0.947D-03-0.900D-02-0.811D-01 0.401D-01
 Coeff:      0.105D+01
 Gap=     0.504 Goal=   None    Shift=    0.000
 RMSDP=7.75D-09 MaxDP=1.32D-07 DE=-1.73D-11 OVMax= 4.14D-07

 SCF Done:  E(RwB97XD) =  -476.815388992     A.U. after    7 cycles
            NFock=  7  Conv=0.78D-08     -V/T= 2.0026
 KE= 4.755607665059D+02 PE=-1.678480509929D+03 EE= 4.534375499754D+02
 Leave Link  502 at Thu Apr  2 15:17:49 2026, MaxMem=  1073741824 cpu:              25.2 elap:               6.5
 (Enter /Users/yarger/Applications/g16/l701.exe)
 ... and contract with generalized density number  0.
 Compute integral first derivatives.
 R6Disp: Adding Grimme-D2 dispersion energy 1st derivatives to the gradient.
 Leave Link  701 at Thu Apr  2 15:17:49 2026, MaxMem=  1073741824 cpu:               0.3 elap:               0.1
 (Enter /Users/yarger/Applications/g16/l702.exe)
 L702 exits ... SP integral derivatives will be done elsewhere.
 Leave Link  702 at Thu Apr  2 15:17:49 2026, MaxMem=  1073741824 cpu:               0.1 elap:               0.0
 (Enter /Users/yarger/Applications/g16/l703.exe)
 Integral derivatives from FoFJK, PRISM(SPDF).
 Compute integral first derivatives, UseDBF=F ICtDFT=           0.
 Calling FoFJK, ICntrl=      2127 FMM=F ISym2X=1 I1Cent= 0 IOpClX= 0 NMat=1 NMatS=1 NMatT=0.
 FoFJK:  IHMeth= 1 ICntrl=    2127 DoSepK=T KAlg= 0 I1Cent=           0 FoldK=F
 IRaf=         1 NMat=       1 IRICut=       1 DoRegI=T DoRafI=F ISym2E= 1 IDoP0=0 IntGTp=1.
 FoFCou: FMM=F IPFlag=           0 FMFlag=      100000 FMFlg1=         800
         NFxFlg=           0 DoJE=F BraDBF=F KetDBF=F FulRan=T
         wScrn=  0.000000 ICntrl=      2527 IOpCl=  0 I1Cent=           0 NGrid=           0
         NMat0=    1 NMatS0=      1 NMatT0=    0 NMatD0=    1 NMtDS0=    0 NMtDT0=    0
 Petite list used in FoFCou.
 Leave Link  703 at Thu Apr  2 15:17:52 2026, MaxMem=  1073741824 cpu:              10.9 elap:               2.8
 (Enter /Users/yarger/Applications/g16/l716.exe)
 Dipole        = 5.40530698D-01 6.26606792D-01-8.88178420D-16
 ***** Axes restored to original set *****
 -------------------------------------------------------------------
 Center     Atomic                   Forces (Hartrees/Bohr)
 Number     Number              X              Y              Z
 -------------------------------------------------------------------
      1        6          -0.000032993    0.000058757   -0.000044787
      2        1           0.000044310    0.000016206    0.000007795
      3        6          -0.000090073   -0.000113239    0.000315791
      4        9          -0.000069243   -0.000010520   -0.000057950
      5        9           0.000022637    0.000087967    0.000003573
      6        9           0.000109830    0.000043472   -0.000233614
      7        9           0.000022736   -0.000043632    0.000035891
      8        1          -0.000007205   -0.000039013   -0.000026699
 -------------------------------------------------------------------
 Cartesian Forces:  Max     0.000315791 RMS     0.000095861
 Leave Link  716 at Thu Apr  2 15:17:52 2026, MaxMem=  1073741824 cpu:               0.1 elap:               0.0
 (Enter /Users/yarger/Applications/g16/l103.exe)

 GradGradGradGradGradGradGradGradGradGradGradGradGradGradGradGradGradGrad
 Berny optimization.
 Using GEDIIS/GDIIS optimizer.
 FormGI is forming the generalized inverse of G from B-inverse, IUseBI=4.
 Internal  Forces:  Max     0.000262197 RMS     0.000062256
 Search for a local minimum.
 Step number   5 out of a maximum of   38
 All quantities printed in internal units (Hartrees-Bohrs-Radians)
 RMS Force = .62256D-04 SwitMx=.10000D-02 MixMth= 2
 Mixed Optimization -- En-DIIS/RFO-DIIS
 Swapping is turned off.
 Update second derivatives using D2CorX and points    1    2    3    4    5
 DE= -2.45D-06 DEPred=-2.08D-06 R= 1.18D+00
 TightC=F SS=  1.41D+00  RLast= 4.86D-03 DXNew= 6.8500D-01 1.4570D-02
 Trust test= 1.18D+00 RLast= 4.86D-03 DXMaxT set to 4.07D-01
 ITU=  1  1  1  1  0
     Eigenvalues ---    0.00237   0.05675   0.05764   0.08226   0.08703
     Eigenvalues ---    0.16000   0.17085   0.22027   0.23871   0.25000
     Eigenvalues ---    0.29798   0.32610   0.37230   0.38231   0.39387
     Eigenvalues ---    0.55021   0.55605   0.57203
 En-DIIS/RFO-DIIS/Sim-DIIS IScMMF=       -3 using points:     5    4    3
 RFO step:  Lambda=-3.54689344D-07.
 NNeg= 0 NGDIIS= 3 SimSw=  2.50D-01 Rises=F DC= -2.45D-06 SmlDif=  1.00D-05
 NRisDI= 0 DoIntr=F SqrtH=F CThrHd= 10.0 CDAdj=  3.0
 RMS Error=  0.2490345249D-03 NUsed= 3 OKEnD=F EnDIS=F
 InvSVX:  RCond= 2.05D-06 Info=           0 Equed=N FErr=  1.94D-15 BErr=  1.02D-16
 DidBck=F Rises=F RFO-DIIS coefs:    1.16411   -0.15794   -0.00617
 Iteration  1 RMS(Cart)=  0.00022826 RMS(Int)=  0.00000010
 Iteration  2 RMS(Cart)=  0.00000005 RMS(Int)=  0.00000010
 ITry= 1 IFail=0 DXMaxC= 4.64D-04 DCOld= 1.00D+10 DXMaxT= 4.07D-01 DXLimC= 3.00D+00 Rises=F
 ClnCor:  largest displacement from symmetrization is 5.32D-09 for atom     5.
 Variable       Old X    -DE/DX   Delta X   Delta X   Delta X     New X
                                 (Linear)    (Quad)   (Total)
    R1        2.05841   0.00003  -0.00015   0.00015  -0.00001   2.05841
    R2        2.86596  -0.00003  -0.00003  -0.00006  -0.00009   2.86587
    R3        2.58623   0.00004   0.00029  -0.00002   0.00028   2.58650
    R4        2.05841   0.00003  -0.00015   0.00015  -0.00001   2.05841
    R5        2.52048  -0.00009  -0.00015  -0.00014  -0.00029   2.52019
    R6        2.52048  -0.00009  -0.00015  -0.00014  -0.00029   2.52019
    R7        2.53366   0.00026   0.00029   0.00046   0.00075   2.53441
    A1        1.89756  -0.00002   0.00002  -0.00008  -0.00006   1.89750
    A2        1.91148   0.00005  -0.00003   0.00006   0.00003   1.91151
    A3        1.93037   0.00004   0.00012   0.00039   0.00050   1.93087
    A4        1.91526  -0.00009  -0.00010  -0.00035  -0.00045   1.91481
    A5        1.89756  -0.00002   0.00002  -0.00008  -0.00006   1.89750
    A6        1.91148   0.00005  -0.00003   0.00006   0.00003   1.91151
    A7        1.95398  -0.00001   0.00017  -0.00012   0.00005   1.95403
    A8        1.95398  -0.00001   0.00017  -0.00012   0.00005   1.95403
    A9        1.89896   0.00004  -0.00026   0.00026   0.00000   1.89896
   A10        1.88258   0.00000   0.00009  -0.00012  -0.00002   1.88255
   A11        1.88602  -0.00001  -0.00009   0.00005  -0.00005   1.88597
   A12        1.88602  -0.00001  -0.00009   0.00005  -0.00005   1.88597
    D1        1.03196  -0.00001  -0.00026  -0.00003  -0.00029   1.03167
    D2       -3.13464  -0.00002   0.00010  -0.00034  -0.00024  -3.13488
    D3       -1.05134  -0.00001  -0.00008  -0.00018  -0.00027  -1.05161
    D4       -1.05829   0.00000  -0.00018   0.00016  -0.00002  -1.05832
    D5        1.05829  -0.00000   0.00018  -0.00016   0.00002   1.05832
    D6        3.14159   0.00000   0.00000   0.00000  -0.00000   3.14159
    D7        3.13464   0.00002  -0.00010   0.00034   0.00024   3.13488
    D8       -1.03196   0.00001   0.00026   0.00003   0.00029  -1.03167
    D9        1.05134   0.00001   0.00008   0.00018   0.00027   1.05161
         Item               Value     Threshold  Converged?
 Maximum Force            0.000262     0.000015     NO 
 RMS     Force            0.000062     0.000010     NO 
 Maximum Displacement     0.000464     0.000060     NO 
 RMS     Displacement     0.000228     0.000040     NO 
 Predicted change in Energy=-1.773321D-07
 Lowest energy point so far.  Saving SCF results.
 GradGradGradGradGradGradGradGradGradGradGradGradGradGradGradGradGradGrad

 Leave Link  103 at Thu Apr  2 15:17:52 2026, MaxMem=  1073741824 cpu:               0.0 elap:               0.0
 (Enter /Users/yarger/Applications/g16/l202.exe)
                          Input orientation:                          
 ---------------------------------------------------------------------
 Center     Atomic      Atomic             Coordinates (Angstroms)
 Number     Number       Type             X           Y           Z
 ---------------------------------------------------------------------
      1          6           0       -1.500055    1.409766    1.456235
      2          1           0       -1.157013    2.443538    1.444860
      3          6           0       -0.323441    0.503141    1.150385
      4          9           0        0.663042    0.650602    2.035635
      5          9           0       -0.674718   -0.783349    1.139871
      6          9           0        0.156974    0.812847   -0.062863
      7          9           0       -2.005413    1.109135    2.692205
      8          1           0       -2.268556    1.252069    0.700570
 ---------------------------------------------------------------------
                    Distance matrix (angstroms):
                    1          2          3          4          5
     1  C    0.000000
     2  H    1.089262   0.000000
     3  C    1.516553   2.132299   0.000000
     4  F    2.364534   2.622257   1.333627   0.000000
     5  F    2.364534   3.276954   1.333627   2.155971   0.000000
     6  F    2.325880   2.580493   1.341151   2.164745   2.164745
     7  F    1.368718   2.014022   2.360820   2.786034   2.786034
     8  H    1.089262   1.791395   2.132299   3.276954   2.622257
                    6          7          8
     6  F    0.000000
     7  F    3.514841   0.000000
     8  H    2.580493   2.014022   0.000000
 Stoichiometry    C2H2F4
 Framework group  CS[SG(C2F2),X(H2F2)]
 Deg. of freedom    11
 Full point group                 CS      NOp   2
 RotChk:  IX=2 Diff= 3.07D-04
 Largest Abelian subgroup         CS      NOp   2
 Largest concise Abelian subgroup CS      NOp   2
                         Standard orientation:                         
 ---------------------------------------------------------------------
 Center     Atomic      Atomic             Coordinates (Angstroms)
 Number     Number       Type             X           Y           Z
 ---------------------------------------------------------------------
      1          6           0        1.153333    0.242225   -0.000000
      2          1           0        1.484572    0.766151   -0.895697
      3          6           0       -0.362271    0.188575   -0.000000
      4          9           0       -0.839176   -0.435181   -1.077985
      5          9           0       -0.839176   -0.435181    1.077985
      6          9           0       -0.839176    1.442069   -0.000000
      7          9           0        1.660248   -1.029162    0.000000
      8          1           0        1.484572    0.766151    0.895697
 ---------------------------------------------------------------------
 Rotational constants (GHZ):           5.3606090           2.7966102           2.7549359
 Leave Link  202 at Thu Apr  2 15:17:52 2026, MaxMem=  1073741824 cpu:               0.0 elap:               0.0
 (Enter /Users/yarger/Applications/g16/l301.exe)
 Standard basis: 6-311++G(2d,3p) (5D, 7F)
 Ernie: Thresh=  0.10000D-02 Tol=  0.10000D-05 Strict=F.
 There are   126 symmetry adapted cartesian basis functions of A'  symmetry.
 There are    74 symmetry adapted cartesian basis functions of A"  symmetry.
 There are   116 symmetry adapted basis functions of A'  symmetry.
 There are    72 symmetry adapted basis functions of A"  symmetry.
   188 basis functions,   282 primitive gaussians,   200 cartesian basis functions
    25 alpha electrons       25 beta electrons
       nuclear repulsion energy       272.6707422543 Hartrees.
 IExCor= 4639 DFT=T Ex+Corr=wB97XD ExCW=0 ScaHFX=  1.000000
 ScaDFX=  1.000000  1.000000  1.000000  1.000000 ScalE2=  1.000000  1.000000
 IRadAn=      5 IRanWt=     -1 IRanGd=            0 ICorTp=0 IEmpDi=121
 HFx  wShort=  0.000000 wLong=  0.200000 cFull=  0.222036 cShort=  0.000000 cLong=  0.777964
 DFx  wShort=  0.000000 wLong=  0.200000 cFull=  0.000000 cShort=  0.000000 cLong=  1.000000
 NAtoms=    8 NActive=    8 NUniq=    6 SFac= 1.78D+00 NAtFMM=   60 NAOKFM=F Big=F
 Integral buffers will be    131072 words long.
 Raffenetti 2 integral format.
 Two-electron integral symmetry is turned on.
 R6Disp:  Grimme-D2 Dispersion energy=       -0.0021533488 Hartrees.
 Nuclear repulsion after empirical dispersion term =      272.6685889055 Hartrees.
 Leave Link  301 at Thu Apr  2 15:17:52 2026, MaxMem=  1073741824 cpu:               0.1 elap:               0.0
 (Enter /Users/yarger/Applications/g16/l302.exe)
 NPDir=0 NMtPBC=     1 NCelOv=     1 NCel=       1 NClECP=     1 NCelD=      1
         NCelK=      1 NCelE2=     1 NClLst=     1 CellRange=     0.0.
 One-electron integrals computed using PRISM.
 One-electron integral symmetry used in STVInt
 NBasis=   188 RedAO= T EigKep=  1.12D-04  NBF=   116    72
 NBsUse=   188 1.00D-06 EigRej= -1.00D+00 NBFU=   116    72
 Precomputing XC quadrature grid using
 IXCGrd= 4 IRadAn=           5 IRanWt=          -1 IRanGd=           0 AccXCQ= 0.00D+00.
 Generated NRdTot=       0 NPtTot=           0 NUsed=           0 NTot=          32
 NSgBfM=   200   200   200   200   200 MxSgAt=     8 MxSgA2=     8.
 Leave Link  302 at Thu Apr  2 15:17:52 2026, MaxMem=  1073741824 cpu:               0.5 elap:               0.1
 (Enter /Users/yarger/Applications/g16/l303.exe)
 DipDrv:  MaxL=1.
 Leave Link  303 at Thu Apr  2 15:17:52 2026, MaxMem=  1073741824 cpu:               0.1 elap:               0.0
 (Enter /Users/yarger/Applications/g16/l401.exe)
 Initial guess from the checkpoint file:  "1112Tetrafluoroethane_Opt_Freq_DFT_WB97XD_6311pp2d3p_Gaussian16.chk"
 B after Tr=     0.000000    0.000000   -0.000000
         Rot=    1.000000    0.000000   -0.000000    0.000111 Ang=   0.01 deg.
 Guess basis will be translated and rotated to current coordinates.
 JPrj=2 DoOrth=T DoCkMO=T.
 Initial guess orbital symmetries:
       Occupied  (A') (A") (A') (A') (A') (A') (A') (A') (A") (A')
                 (A') (A') (A") (A') (A') (A') (A") (A') (A") (A')
                 (A') (A") (A") (A") (A')
       Virtual   (A') (A") (A') (A') (A") (A') (A') (A') (A") (A')
                 (A') (A") (A') (A") (A') (A') (A') (A") (A') (A')
                 (A') (A") (A') (A") (A') (A") (A') (A") (A') (A')
                 (A") (A') (A") (A') (A') (A") (A') (A") (A') (A')
                 (A') (A") (A") (A') (A') (A") (A') (A") (A') (A')
                 (A') (A') (A") (A") (A') (A') (A') (A") (A') (A')
                 (A") (A') (A") (A') (A") (A') (A") (A') (A") (A')
                 (A') (A") (A") (A') (A') (A") (A') (A") (A') (A")
                 (A') (A") (A') (A') (A") (A") (A') (A') (A") (A')
                 (A") (A') (A') (A') (A") (A') (A') (A") (A') (A')
                 (A") (A") (A') (A') (A') (A") (A") (A') (A') (A")
                 (A') (A') (A") (A') (A") (A') (A') (A") (A') (A")
                 (A') (A") (A") (A') (A') (A") (A') (A') (A') (A')
                 (A") (A") (A') (A") (A') (A') (A") (A") (A') (A")
                 (A") (A') (A") (A') (A") (A') (A") (A') (A') (A")
                 (A') (A') (A") (A') (A') (A') (A") (A') (A') (A')
                 (A") (A') (A')
 The electronic state of the initial guess is 1-A'.
 Leave Link  401 at Thu Apr  2 15:17:52 2026, MaxMem=  1073741824 cpu:               0.3 elap:               0.1
 (Enter /Users/yarger/Applications/g16/l502.exe)
 Keep R1 ints in memory in symmetry-blocked form, NReq=474084691.
 FoFCou: FMM=F IPFlag=           0 FMFlag=           0 FMFlg1=           0
         NFxFlg=           0 DoJE=F BraDBF=F KetDBF=F FulRan=T
         wScrn=  0.000000 ICntrl=       600 IOpCl=  0 I1Cent=           0 NGrid=           0
         NMat0=    1 NMatS0=  17766 NMatT0=    0 NMatD0=    1 NMtDS0=    0 NMtDT0=    0
 Petite list used in FoFCou.
 Closed shell SCF:
 Using DIIS extrapolation, IDIIS=  1040.
 NGot=  1073741824 LenX=   994422283 LenY=   994381842
 Requested convergence on RMS density matrix=1.00D-08 within 128 cycles.
 Requested convergence on MAX density matrix=1.00D-06.
 Requested convergence on             energy=1.00D-06.
 No special actions if energy rises.

 Cycle   1  Pass 1  IDiag  1:
 E= -476.815388971747    
 DIIS: error= 2.64D-05 at cycle   1 NSaved=   1.
 NSaved= 1 IEnMin= 1 EnMin= -476.815388971747     IErMin= 1 ErrMin= 2.64D-05
 ErrMax= 2.64D-05  0.00D+00 EMaxC= 1.00D-01 BMatC= 1.93D-07 BMatP= 1.93D-07
 IDIUse=1 WtCom= 1.00D+00 WtEn= 0.00D+00
 Coeff-Com:  0.100D+01
 Coeff:      0.100D+01
 Gap=     0.504 Goal=   None    Shift=    0.000
 RMSDP=3.43D-06 MaxDP=9.98D-05              OVMax= 9.55D-05

 Cycle   2  Pass 1  IDiag  1:
 E= -476.815389151163     Delta-E=       -0.000000179416 Rises=F Damp=F
 DIIS: error= 9.06D-06 at cycle   2 NSaved=   2.
 NSaved= 2 IEnMin= 2 EnMin= -476.815389151163     IErMin= 2 ErrMin= 9.06D-06
 ErrMax= 9.06D-06  0.00D+00 EMaxC= 1.00D-01 BMatC= 1.50D-08 BMatP= 1.93D-07
 IDIUse=1 WtCom= 1.00D+00 WtEn= 0.00D+00
 Coeff-Com:  0.511D-01 0.949D+00
 Coeff:      0.511D-01 0.949D+00
 Gap=     0.504 Goal=   None    Shift=    0.000
 RMSDP=7.41D-07 MaxDP=2.83D-05 DE=-1.79D-07 OVMax= 3.77D-05

 Cycle   3  Pass 1  IDiag  1:
 E= -476.815389158107     Delta-E=       -0.000000006944 Rises=F Damp=F
 DIIS: error= 7.70D-06 at cycle   3 NSaved=   3.
 NSaved= 3 IEnMin= 3 EnMin= -476.815389158107     IErMin= 3 ErrMin= 7.70D-06
 ErrMax= 7.70D-06  0.00D+00 EMaxC= 1.00D-01 BMatC= 1.15D-08 BMatP= 1.50D-08
 IDIUse=1 WtCom= 1.00D+00 WtEn= 0.00D+00
 Coeff-Com: -0.545D-01 0.475D+00 0.579D+00
 Coeff:     -0.545D-01 0.475D+00 0.579D+00
 Gap=     0.504 Goal=   None    Shift=    0.000
 RMSDP=2.94D-07 MaxDP=1.15D-05 DE=-6.94D-09 OVMax= 1.42D-05

 Cycle   4  Pass 1  IDiag  1:
 E= -476.815389164394     Delta-E=       -0.000000006287 Rises=F Damp=F
 DIIS: error= 1.47D-06 at cycle   4 NSaved=   4.
 NSaved= 4 IEnMin= 4 EnMin= -476.815389164394     IErMin= 4 ErrMin= 1.47D-06
 ErrMax= 1.47D-06  0.00D+00 EMaxC= 1.00D-01 BMatC= 2.34D-10 BMatP= 1.15D-08
 IDIUse=1 WtCom= 1.00D+00 WtEn= 0.00D+00
 Coeff-Com: -0.127D-01 0.106D-01 0.124D+00 0.878D+00
 Coeff:     -0.127D-01 0.106D-01 0.124D+00 0.878D+00
 Gap=     0.504 Goal=   None    Shift=    0.000
 RMSDP=8.00D-08 MaxDP=1.97D-06 DE=-6.29D-09 OVMax= 4.12D-06

 Cycle   5  Pass 1  IDiag  1:
 E= -476.815389164589     Delta-E=       -0.000000000196 Rises=F Damp=F
 DIIS: error= 1.88D-07 at cycle   5 NSaved=   5.
 NSaved= 5 IEnMin= 5 EnMin= -476.815389164589     IErMin= 5 ErrMin= 1.88D-07
 ErrMax= 1.88D-07  0.00D+00 EMaxC= 1.00D-01 BMatC= 6.73D-12 BMatP= 2.34D-10
 IDIUse=1 WtCom= 1.00D+00 WtEn= 0.00D+00
 Coeff-Com:  0.142D-02-0.242D-01-0.171D-01 0.819D-01 0.958D+00
 Coeff:      0.142D-02-0.242D-01-0.171D-01 0.819D-01 0.958D+00
 Gap=     0.504 Goal=   None    Shift=    0.000
 RMSDP=2.66D-08 MaxDP=7.97D-07 DE=-1.96D-10 OVMax= 1.03D-06

 Cycle   6  Pass 1  IDiag  1:
 E= -476.815389164608     Delta-E=       -0.000000000019 Rises=F Damp=F
 DIIS: error= 1.21D-07 at cycle   6 NSaved=   6.
 NSaved= 6 IEnMin= 6 EnMin= -476.815389164608     IErMin= 6 ErrMin= 1.21D-07
 ErrMax= 1.21D-07  0.00D+00 EMaxC= 1.00D-01 BMatC= 2.56D-12 BMatP= 6.73D-12
 IDIUse=1 WtCom= 1.00D+00 WtEn= 0.00D+00
 Coeff-Com:  0.138D-02-0.122D-01-0.151D-01-0.738D-02 0.453D+00 0.581D+00
 Coeff:      0.138D-02-0.122D-01-0.151D-01-0.738D-02 0.453D+00 0.581D+00
 Gap=     0.504 Goal=   None    Shift=    0.000
 RMSDP=5.28D-09 MaxDP=2.19D-07 DE=-1.90D-11 OVMax= 3.04D-07

 SCF Done:  E(RwB97XD) =  -476.815389165     A.U. after    6 cycles
            NFock=  6  Conv=0.53D-08     -V/T= 2.0026
 KE= 4.755604595714D+02 PE=-1.678484216893D+03 EE= 4.534397792515D+02
 Leave Link  502 at Thu Apr  2 15:17:59 2026, MaxMem=  1073741824 cpu:              24.1 elap:               6.2
 (Enter /Users/yarger/Applications/g16/l701.exe)
 ... and contract with generalized density number  0.
 Compute integral first derivatives.
 R6Disp: Adding Grimme-D2 dispersion energy 1st derivatives to the gradient.
 Leave Link  701 at Thu Apr  2 15:17:59 2026, MaxMem=  1073741824 cpu:               0.3 elap:               0.1
 (Enter /Users/yarger/Applications/g16/l702.exe)
 L702 exits ... SP integral derivatives will be done elsewhere.
 Leave Link  702 at Thu Apr  2 15:17:59 2026, MaxMem=  1073741824 cpu:               0.1 elap:               0.0
 (Enter /Users/yarger/Applications/g16/l703.exe)
 Integral derivatives from FoFJK, PRISM(SPDF).
 Compute integral first derivatives, UseDBF=F ICtDFT=           0.
 Calling FoFJK, ICntrl=      2127 FMM=F ISym2X=1 I1Cent= 0 IOpClX= 0 NMat=1 NMatS=1 NMatT=0.
 FoFJK:  IHMeth= 1 ICntrl=    2127 DoSepK=T KAlg= 0 I1Cent=           0 FoldK=F
 IRaf=         1 NMat=       1 IRICut=       1 DoRegI=T DoRafI=F ISym2E= 1 IDoP0=0 IntGTp=1.
 FoFCou: FMM=F IPFlag=           0 FMFlag=      100000 FMFlg1=         800
         NFxFlg=           0 DoJE=F BraDBF=F KetDBF=F FulRan=T
         wScrn=  0.000000 ICntrl=      2527 IOpCl=  0 I1Cent=           0 NGrid=           0
         NMat0=    1 NMatS0=      1 NMatT0=    0 NMatD0=    1 NMtDS0=    0 NMtDT0=    0
 Petite list used in FoFCou.
 Leave Link  703 at Thu Apr  2 15:18:02 2026, MaxMem=  1073741824 cpu:              10.8 elap:               2.8
 (Enter /Users/yarger/Applications/g16/l716.exe)
 Dipole        = 5.40871417D-01 6.25822808D-01 4.44089210D-16
 ***** Axes restored to original set *****
 -------------------------------------------------------------------
 Center     Atomic                   Forces (Hartrees/Bohr)
 Number     Number              X              Y              Z
 -------------------------------------------------------------------
      1        6          -0.000018740   -0.000008887    0.000042213
      2        1           0.000008183    0.000019749   -0.000003048
      3        6          -0.000005370   -0.000032934    0.000060742
      4        9           0.000004117    0.000022095   -0.000007687
      5        9          -0.000013327    0.000003397   -0.000019367
      6        9           0.000013559   -0.000003672   -0.000014370
      7        9           0.000024425    0.000003046   -0.000041352
      8        1          -0.000012846   -0.000002793   -0.000017130
 -------------------------------------------------------------------
 Cartesian Forces:  Max     0.000060742 RMS     0.000022170
 Leave Link  716 at Thu Apr  2 15:18:02 2026, MaxMem=  1073741824 cpu:               0.1 elap:               0.0
 (Enter /Users/yarger/Applications/g16/l103.exe)

 GradGradGradGradGradGradGradGradGradGradGradGradGradGradGradGradGradGrad
 Berny optimization.
 Using GEDIIS/GDIIS optimizer.
 FormGI is forming the generalized inverse of G from B-inverse, IUseBI=4.
 Internal  Forces:  Max     0.000045381 RMS     0.000014431
 Search for a local minimum.
 Step number   6 out of a maximum of   38
 All quantities printed in internal units (Hartrees-Bohrs-Radians)
 RMS Force = .14431D-04 SwitMx=.10000D-02 MixMth= 2
 Mixed Optimization -- En-DIIS/RFO-DIIS
 Swapping is turned off.
 Update second derivatives using D2CorX and points    1    2    3    4    5
                                                      6
 DE= -1.72D-07 DEPred=-1.77D-07 R= 9.72D-01
 Trust test= 9.72D-01 RLast= 1.31D-03 DXMaxT set to 4.07D-01
 ITU=  0  1  1  1  1  0
     Eigenvalues ---    0.00237   0.05382   0.05768   0.08105   0.08702
     Eigenvalues ---    0.16000   0.17010   0.21533   0.23826   0.25000
     Eigenvalues ---    0.29726   0.35307   0.37230   0.37626   0.39250
     Eigenvalues ---    0.54062   0.55021   0.57009
 En-DIIS/RFO-DIIS/Sim-DIIS IScMMF=       -3 using points:     6    5    4    3
 RFO step:  Lambda=-1.93827501D-08.
 NNeg= 0 NGDIIS= 4 SimSw=  2.50D-01 Rises=F DC= -1.72D-07 SmlDif=  1.00D-05
 NRisDI= 0 DoIntr=F SqrtH=F CThrHd= 10.0 CDAdj=  3.0
 RMS Error=  0.8442367925D-04 NUsed= 4 OKEnD=F EnDIS=F
 InvSVX:  RCond= 9.99D-08 Info=           0 Equed=N FErr=  3.74D-15 BErr=  7.10D-17
 DIIS inversion failure, remove point   4.
 InvSVX:  RCond= 1.36D-07 Info=           0 Equed=N FErr=  2.55D-15 BErr=  2.30D-17
 RFO-DIIS uses    3 points instead of    4
 DidBck=F Rises=F RFO-DIIS coefs:    0.98445    0.07293   -0.05737    0.00000
 Iteration  1 RMS(Cart)=  0.00006812 RMS(Int)=  0.00000003
 Iteration  2 RMS(Cart)=  0.00000000 RMS(Int)=  0.00000003
 ITry= 1 IFail=0 DXMaxC= 1.55D-04 DCOld= 1.00D+10 DXMaxT= 4.07D-01 DXLimC= 3.00D+00 Rises=F
 ClnCor:  largest displacement from symmetrization is 5.30D-12 for atom     5.
 Variable       Old X    -DE/DX   Delta X   Delta X   Delta X     New X
                                 (Linear)    (Quad)   (Total)
    R1        2.05841   0.00002  -0.00005   0.00009   0.00004   2.05845
    R2        2.86587   0.00000  -0.00002   0.00003   0.00002   2.86589
    R3        2.58650  -0.00005   0.00009  -0.00016  -0.00006   2.58644
    R4        2.05841   0.00002  -0.00005   0.00009   0.00004   2.05845
    R5        2.52019  -0.00000  -0.00005   0.00003  -0.00001   2.52018
    R6        2.52019  -0.00000  -0.00005   0.00003  -0.00001   2.52018
    R7        2.53441   0.00002   0.00008  -0.00001   0.00007   2.53448
    A1        1.89750   0.00000   0.00000   0.00002   0.00002   1.89752
    A2        1.91151   0.00001  -0.00000   0.00003   0.00002   1.91154
    A3        1.93087   0.00000   0.00004   0.00001   0.00004   1.93092
    A4        1.91481  -0.00003  -0.00003  -0.00010  -0.00013   1.91468
    A5        1.89750   0.00000   0.00000   0.00002   0.00002   1.89752
    A6        1.91151   0.00001  -0.00000   0.00003   0.00002   1.91154
    A7        1.95403  -0.00001   0.00005  -0.00006  -0.00000   1.95403
    A8        1.95403  -0.00001   0.00005  -0.00006  -0.00000   1.95403
    A9        1.89896   0.00001  -0.00009   0.00009   0.00000   1.89896
   A10        1.88255   0.00003   0.00004   0.00013   0.00017   1.88272
   A11        1.88597  -0.00001  -0.00003  -0.00005  -0.00008   1.88589
   A12        1.88597  -0.00001  -0.00003  -0.00005  -0.00008   1.88589
    D1        1.03167  -0.00001  -0.00008  -0.00006  -0.00014   1.03153
    D2       -3.13488   0.00001   0.00004   0.00003   0.00007  -3.13481
    D3       -1.05161  -0.00000  -0.00002  -0.00002  -0.00004  -1.05164
    D4       -1.05832  -0.00001  -0.00006  -0.00004  -0.00011  -1.05842
    D5        1.05832   0.00001   0.00006   0.00004   0.00011   1.05842
    D6        3.14159   0.00000   0.00000   0.00000   0.00000  -3.14159
    D7        3.13488  -0.00001  -0.00004  -0.00003  -0.00007   3.13481
    D8       -1.03167   0.00001   0.00008   0.00006   0.00014  -1.03153
    D9        1.05161   0.00000   0.00002   0.00002   0.00004   1.05164
         Item               Value     Threshold  Converged?
 Maximum Force            0.000045     0.000015     NO 
 RMS     Force            0.000014     0.000010     NO 
 Maximum Displacement     0.000155     0.000060     NO 
 RMS     Displacement     0.000068     0.000040     NO 
 Predicted change in Energy=-1.263747D-08
 Lowest energy point so far.  Saving SCF results.
 GradGradGradGradGradGradGradGradGradGradGradGradGradGradGradGradGradGrad

 Leave Link  103 at Thu Apr  2 15:18:02 2026, MaxMem=  1073741824 cpu:               0.0 elap:               0.0
 (Enter /Users/yarger/Applications/g16/l202.exe)
                          Input orientation:                          
 ---------------------------------------------------------------------
 Center     Atomic      Atomic             Coordinates (Angstroms)
 Number     Number       Type             X           Y           Z
 ---------------------------------------------------------------------
      1          6           0       -1.500068    1.409783    1.456228
      2          1           0       -1.157010    2.443574    1.444876
      3          6           0       -0.323456    0.503122    1.150437
      4          9           0        0.663049    0.650684    2.035636
      5          9           0       -0.674784   -0.783346    1.139822
      6          9           0        0.157018    0.812792   -0.062840
      7          9           0       -2.005334    1.109077    2.692180
      8          1           0       -2.268594    1.252063    0.700559
 ---------------------------------------------------------------------
                    Distance matrix (angstroms):
                    1          2          3          4          5
     1  C    0.000000
     2  H    1.089285   0.000000
     3  C    1.516562   2.132338   0.000000
     4  F    2.364534   2.622226   1.333620   0.000000
     5  F    2.364534   3.276982   1.333620   2.156089   0.000000
     6  F    2.325919   2.580568   1.341190   2.164704   2.164704
     7  F    1.368684   2.014027   2.360692   2.785936   2.785936
     8  H    1.089285   1.791459   2.132338   3.276982   2.622226
                    6          7          8
     6  F    0.000000
     7  F    3.514781   0.000000
     8  H    2.580568   2.014027   0.000000
 Stoichiometry    C2H2F4
 Framework group  CS[SG(C2F2),X(H2F2)]
 Deg. of freedom    11
 Full point group                 CS      NOp   2
 RotChk:  IX=2 Diff= 7.81D-05
 Largest Abelian subgroup         CS      NOp   2
 Largest concise Abelian subgroup CS      NOp   2
                         Standard orientation:                         
 ---------------------------------------------------------------------
 Center     Atomic      Atomic             Coordinates (Angstroms)
 Number     Number       Type             X           Y           Z
 ---------------------------------------------------------------------
      1          6           0        1.153374    0.242173   -0.000000
      2          1           0        1.484647    0.766071   -0.895730
      3          6           0       -0.362239    0.188537    0.000000
      4          9           0       -0.839148   -0.435098   -1.078044
      5          9           0       -0.839148   -0.435098    1.078044
      6          9           0       -0.839148    1.442072    0.000000
      7          9           0        1.660099   -1.029253   -0.000000
      8          1           0        1.484647    0.766071    0.895730
 ---------------------------------------------------------------------
 Rotational constants (GHZ):           5.3605994           2.7966225           2.7550939
 Leave Link  202 at Thu Apr  2 15:18:02 2026, MaxMem=  1073741824 cpu:               0.0 elap:               0.0
 (Enter /Users/yarger/Applications/g16/l301.exe)
 Standard basis: 6-311++G(2d,3p) (5D, 7F)
 Ernie: Thresh=  0.10000D-02 Tol=  0.10000D-05 Strict=F.
 There are   126 symmetry adapted cartesian basis functions of A'  symmetry.
 There are    74 symmetry adapted cartesian basis functions of A"  symmetry.
 There are   116 symmetry adapted basis functions of A'  symmetry.
 There are    72 symmetry adapted basis functions of A"  symmetry.
   188 basis functions,   282 primitive gaussians,   200 cartesian basis functions
    25 alpha electrons       25 beta electrons
       nuclear repulsion energy       272.6719101817 Hartrees.
 IExCor= 4639 DFT=T Ex+Corr=wB97XD ExCW=0 ScaHFX=  1.000000
 ScaDFX=  1.000000  1.000000  1.000000  1.000000 ScalE2=  1.000000  1.000000
 IRadAn=      5 IRanWt=     -1 IRanGd=            0 ICorTp=0 IEmpDi=121
 HFx  wShort=  0.000000 wLong=  0.200000 cFull=  0.222036 cShort=  0.000000 cLong=  0.777964
 DFx  wShort=  0.000000 wLong=  0.200000 cFull=  0.000000 cShort=  0.000000 cLong=  1.000000
 NAtoms=    8 NActive=    8 NUniq=    6 SFac= 1.78D+00 NAtFMM=   60 NAOKFM=F Big=F
 Integral buffers will be    131072 words long.
 Raffenetti 2 integral format.
 Two-electron integral symmetry is turned on.
 R6Disp:  Grimme-D2 Dispersion energy=       -0.0021533463 Hartrees.
 Nuclear repulsion after empirical dispersion term =      272.6697568354 Hartrees.
 Leave Link  301 at Thu Apr  2 15:18:02 2026, MaxMem=  1073741824 cpu:               0.1 elap:               0.0
 (Enter /Users/yarger/Applications/g16/l302.exe)
 NPDir=0 NMtPBC=     1 NCelOv=     1 NCel=       1 NClECP=     1 NCelD=      1
         NCelK=      1 NCelE2=     1 NClLst=     1 CellRange=     0.0.
 One-electron integrals computed using PRISM.
 One-electron integral symmetry used in STVInt
 NBasis=   188 RedAO= T EigKep=  1.12D-04  NBF=   116    72
 NBsUse=   188 1.00D-06 EigRej= -1.00D+00 NBFU=   116    72
 Precomputing XC quadrature grid using
 IXCGrd= 4 IRadAn=           5 IRanWt=          -1 IRanGd=           0 AccXCQ= 0.00D+00.
 Generated NRdTot=       0 NPtTot=           0 NUsed=           0 NTot=          32
 NSgBfM=   200   200   200   200   200 MxSgAt=     8 MxSgA2=     8.
 Leave Link  302 at Thu Apr  2 15:18:02 2026, MaxMem=  1073741824 cpu:               0.5 elap:               0.1
 (Enter /Users/yarger/Applications/g16/l303.exe)
 DipDrv:  MaxL=1.
 Leave Link  303 at Thu Apr  2 15:18:02 2026, MaxMem=  1073741824 cpu:               0.1 elap:               0.0
 (Enter /Users/yarger/Applications/g16/l401.exe)
 Initial guess from the checkpoint file:  "1112Tetrafluoroethane_Opt_Freq_DFT_WB97XD_6311pp2d3p_Gaussian16.chk"
 B after Tr=    -0.000000   -0.000000   -0.000000
         Rot=    1.000000   -0.000000    0.000000    0.000027 Ang=   0.00 deg.
 Guess basis will be translated and rotated to current coordinates.
 JPrj=2 DoOrth=T DoCkMO=T.
 Initial guess orbital symmetries:
       Occupied  (A') (A") (A') (A') (A') (A') (A') (A') (A") (A')
                 (A') (A') (A") (A') (A') (A') (A") (A') (A") (A')
                 (A') (A") (A") (A") (A')
       Virtual   (A') (A") (A') (A') (A") (A') (A') (A') (A") (A')
                 (A') (A") (A') (A") (A') (A') (A') (A") (A') (A')
                 (A') (A") (A') (A") (A') (A") (A') (A") (A') (A')
                 (A") (A') (A") (A') (A') (A") (A') (A") (A') (A')
                 (A') (A") (A") (A') (A') (A") (A') (A") (A') (A')
                 (A') (A') (A") (A") (A') (A') (A') (A") (A') (A')
                 (A") (A') (A") (A') (A") (A') (A") (A') (A") (A')
                 (A') (A") (A") (A') (A') (A") (A') (A") (A') (A")
                 (A') (A") (A') (A') (A") (A") (A') (A') (A") (A')
                 (A") (A') (A') (A') (A") (A') (A') (A") (A') (A')
                 (A") (A") (A') (A') (A') (A") (A") (A') (A') (A")
                 (A') (A') (A") (A') (A") (A') (A') (A") (A') (A")
                 (A') (A") (A") (A') (A') (A") (A') (A') (A') (A')
                 (A") (A") (A') (A") (A') (A') (A") (A") (A') (A")
                 (A") (A') (A") (A') (A") (A') (A") (A') (A') (A")
                 (A') (A') (A") (A') (A') (A') (A") (A') (A') (A')
                 (A") (A') (A')
 The electronic state of the initial guess is 1-A'.
 Leave Link  401 at Thu Apr  2 15:18:02 2026, MaxMem=  1073741824 cpu:               0.3 elap:               0.1
 (Enter /Users/yarger/Applications/g16/l502.exe)
 Keep R1 ints in memory in symmetry-blocked form, NReq=474084691.
 FoFCou: FMM=F IPFlag=           0 FMFlag=           0 FMFlg1=           0
         NFxFlg=           0 DoJE=F BraDBF=F KetDBF=F FulRan=T
         wScrn=  0.000000 ICntrl=       600 IOpCl=  0 I1Cent=           0 NGrid=           0
         NMat0=    1 NMatS0=  17766 NMatT0=    0 NMatD0=    1 NMtDS0=    0 NMtDT0=    0
 Petite list used in FoFCou.
 Closed shell SCF:
 Using DIIS extrapolation, IDIIS=  1040.
 NGot=  1073741824 LenX=   994422283 LenY=   994381842
 Requested convergence on RMS density matrix=1.00D-08 within 128 cycles.
 Requested convergence on MAX density matrix=1.00D-06.
 Requested convergence on             energy=1.00D-06.
 No special actions if energy rises.

 Cycle   1  Pass 1  IDiag  1:
 E= -476.815389160003    
 DIIS: error= 4.73D-06 at cycle   1 NSaved=   1.
 NSaved= 1 IEnMin= 1 EnMin= -476.815389160003     IErMin= 1 ErrMin= 4.73D-06
 ErrMax= 4.73D-06  0.00D+00 EMaxC= 1.00D-01 BMatC= 1.05D-08 BMatP= 1.05D-08
 IDIUse=1 WtCom= 1.00D+00 WtEn= 0.00D+00
 Coeff-Com:  0.100D+01
 Coeff:      0.100D+01
 Gap=     0.504 Goal=   None    Shift=    0.000
 RMSDP=1.12D-06 MaxDP=3.19D-05              OVMax= 3.19D-05

 Cycle   2  Pass 1  IDiag  1:
 E= -476.815389171822     Delta-E=       -0.000000011819 Rises=F Damp=F
 DIIS: error= 1.53D-06 at cycle   2 NSaved=   2.
 NSaved= 2 IEnMin= 2 EnMin= -476.815389171822     IErMin= 2 ErrMin= 1.53D-06
 ErrMax= 1.53D-06  0.00D+00 EMaxC= 1.00D-01 BMatC= 6.16D-10 BMatP= 1.05D-08
 IDIUse=1 WtCom= 1.00D+00 WtEn= 0.00D+00
 Coeff-Com: -0.437D-01 0.104D+01
 Coeff:     -0.437D-01 0.104D+01
 Gap=     0.504 Goal=   None    Shift=    0.000
 RMSDP=2.05D-07 MaxDP=5.63D-06 DE=-1.18D-08 OVMax= 9.90D-06

 Cycle   3  Pass 1  IDiag  1:
 E= -476.815389172363     Delta-E=       -0.000000000540 Rises=F Damp=F
 DIIS: error= 1.60D-06 at cycle   3 NSaved=   3.
 NSaved= 3 IEnMin= 3 EnMin= -476.815389172363     IErMin= 2 ErrMin= 1.53D-06
 ErrMax= 1.60D-06  0.00D+00 EMaxC= 1.00D-01 BMatC= 4.64D-10 BMatP= 6.16D-10
 IDIUse=1 WtCom= 1.00D+00 WtEn= 0.00D+00
 Coeff-Com: -0.747D-01 0.507D+00 0.567D+00
 Coeff:     -0.747D-01 0.507D+00 0.567D+00
 Gap=     0.504 Goal=   None    Shift=    0.000
 RMSDP=6.74D-08 MaxDP=2.54D-06 DE=-5.40D-10 OVMax= 3.47D-06

 Cycle   4  Pass 1  IDiag  1:
 E= -476.815389172620     Delta-E=       -0.000000000257 Rises=F Damp=F
 DIIS: error= 2.21D-07 at cycle   4 NSaved=   4.
 NSaved= 4 IEnMin= 4 EnMin= -476.815389172620     IErMin= 4 ErrMin= 2.21D-07
 ErrMax= 2.21D-07  0.00D+00 EMaxC= 1.00D-01 BMatC= 1.56D-11 BMatP= 4.64D-10
 IDIUse=1 WtCom= 1.00D+00 WtEn= 0.00D+00
 Coeff-Com: -0.398D-02-0.520D-01 0.114D+00 0.942D+00
 Coeff:     -0.398D-02-0.520D-01 0.114D+00 0.942D+00
 Gap=     0.504 Goal=   None    Shift=    0.000
 RMSDP=2.41D-08 MaxDP=5.51D-07 DE=-2.57D-10 OVMax= 1.21D-06

 Cycle   5  Pass 1  IDiag  1:
 E= -476.815389172634     Delta-E=       -0.000000000014 Rises=F Damp=F
 DIIS: error= 4.70D-08 at cycle   5 NSaved=   5.
 NSaved= 5 IEnMin= 5 EnMin= -476.815389172634     IErMin= 5 ErrMin= 4.70D-08
 ErrMax= 4.70D-08  0.00D+00 EMaxC= 1.00D-01 BMatC= 5.41D-13 BMatP= 1.56D-11
 IDIUse=1 WtCom= 1.00D+00 WtEn= 0.00D+00
 Coeff-Com:  0.236D-02-0.370D-01-0.351D-02 0.212D+00 0.826D+00
 Coeff:      0.236D-02-0.370D-01-0.351D-02 0.212D+00 0.826D+00
 Gap=     0.504 Goal=   None    Shift=    0.000
 RMSDP=5.91D-09 MaxDP=1.56D-07 DE=-1.43D-11 OVMax= 1.91D-07

 SCF Done:  E(RwB97XD) =  -476.815389173     A.U. after    5 cycles
            NFock=  5  Conv=0.59D-08     -V/T= 2.0026
 KE= 4.755604172304D+02 PE=-1.678486561782D+03 EE= 4.534409985439D+02
 Leave Link  502 at Thu Apr  2 15:18:08 2026, MaxMem=  1073741824 cpu:              23.0 elap:               5.9
 (Enter /Users/yarger/Applications/g16/l701.exe)
 ... and contract with generalized density number  0.
 Compute integral first derivatives.
 R6Disp: Adding Grimme-D2 dispersion energy 1st derivatives to the gradient.
 Leave Link  701 at Thu Apr  2 15:18:08 2026, MaxMem=  1073741824 cpu:               0.3 elap:               0.1
 (Enter /Users/yarger/Applications/g16/l702.exe)
 L702 exits ... SP integral derivatives will be done elsewhere.
 Leave Link  702 at Thu Apr  2 15:18:08 2026, MaxMem=  1073741824 cpu:               0.0 elap:               0.0
 (Enter /Users/yarger/Applications/g16/l703.exe)
 Integral derivatives from FoFJK, PRISM(SPDF).
 Compute integral first derivatives, UseDBF=F ICtDFT=           0.
 Calling FoFJK, ICntrl=      2127 FMM=F ISym2X=1 I1Cent= 0 IOpClX= 0 NMat=1 NMatS=1 NMatT=0.
 FoFJK:  IHMeth= 1 ICntrl=    2127 DoSepK=T KAlg= 0 I1Cent=           0 FoldK=F
 IRaf=         1 NMat=       1 IRICut=       1 DoRegI=T DoRafI=F ISym2E= 1 IDoP0=0 IntGTp=1.
 FoFCou: FMM=F IPFlag=           0 FMFlag=      100000 FMFlg1=         800
         NFxFlg=           0 DoJE=F BraDBF=F KetDBF=F FulRan=T
         wScrn=  0.000000 ICntrl=      2527 IOpCl=  0 I1Cent=           0 NGrid=           0
         NMat0=    1 NMatS0=      1 NMatT0=    0 NMatD0=    1 NMtDS0=    0 NMtDT0=    0
 Petite list used in FoFCou.
 Leave Link  703 at Thu Apr  2 15:18:11 2026, MaxMem=  1073741824 cpu:              10.8 elap:               2.8
 (Enter /Users/yarger/Applications/g16/l716.exe)
 Dipole        = 5.41007868D-01 6.25573882D-01 5.77315973D-15
 ***** Axes restored to original set *****
 -------------------------------------------------------------------
 Center     Atomic                   Forces (Hartrees/Bohr)
 Number     Number              X              Y              Z
 -------------------------------------------------------------------
      1        6          -0.000003961   -0.000011302    0.000024007
      2        1           0.000002462    0.000005440   -0.000005364
      3        6           0.000004314   -0.000003807   -0.000000349
      4        9          -0.000007956   -0.000002001    0.000001901
      5        9          -0.000001159    0.000005285    0.000006453
      6        9           0.000004262   -0.000001282   -0.000004313
      7        9           0.000003196    0.000006106   -0.000014548
      8        1          -0.000001158    0.000001560   -0.000007788
 -------------------------------------------------------------------
 Cartesian Forces:  Max     0.000024007 RMS     0.000007420
 Leave Link  716 at Thu Apr  2 15:18:11 2026, MaxMem=  1073741824 cpu:               0.1 elap:               0.0
 (Enter /Users/yarger/Applications/g16/l103.exe)

 GradGradGradGradGradGradGradGradGradGradGradGradGradGradGradGradGradGrad
 Berny optimization.
 Using GEDIIS/GDIIS optimizer.
 FormGI is forming the generalized inverse of G from B-inverse, IUseBI=4.
 Internal  Forces:  Max     0.000014010 RMS     0.000004005
 Search for a local minimum.
 Step number   7 out of a maximum of   38
 All quantities printed in internal units (Hartrees-Bohrs-Radians)
 RMS Force = .40051D-05 SwitMx=.10000D-02 MixMth= 2
 Mixed Optimization -- En-DIIS/RFO-DIIS
 Swapping is turned off.
 Update second derivatives using D2CorX and points    1    2    3    4    5
                                                      6    7
 DE= -8.03D-09 DEPred=-1.26D-08 R= 6.35D-01
 Trust test= 6.35D-01 RLast= 3.90D-04 DXMaxT set to 4.07D-01
 ITU=  0  0  1  1  1  1  0
     Eigenvalues ---    0.00237   0.05769   0.05967   0.08703   0.09793
     Eigenvalues ---    0.16000   0.17179   0.21022   0.23594   0.25000
     Eigenvalues ---    0.29692   0.34887   0.36351   0.37230   0.39226
     Eigenvalues ---    0.50175   0.55021   0.57232
 En-DIIS/RFO-DIIS/Sim-DIIS IScMMF=       -3 using points:     7    6    5    4    3
 RFO step:  Lambda=-1.24559606D-09.
 NNeg= 0 NGDIIS= 5 SimSw=  2.50D-01 Rises=F DC= -8.03D-09 SmlDif=  1.00D-05
 NRisDI= 0 DoIntr=F SqrtH=F CThrHd= 10.0 CDAdj=  3.0
 RMS Error=  0.2001236867D-04 NUsed= 5 OKEnD=F EnDIS=F
 InvSVX:  RCond= 2.31D-08 Info=           0 Equed=N FErr=  3.28D-15 BErr=  4.41D-17
 DIIS inversion failure, remove point   5.
 InvSVX:  RCond= 7.03D-08 Info=           0 Equed=N FErr=  2.27D-15 BErr=  8.23D-17
 DIIS inversion failure, remove point   4.
 InvSVX:  RCond= 3.22D-08 Info=           0 Equed=N FErr=  1.47D-15 BErr=  8.49D-17
 DIIS inversion failure, remove point   3.
 InvSVX:  RCond= 1.71D-07 Info=           0 Equed=N FErr=  1.10D-15 BErr=  2.61D-17
 RFO-DIIS uses    2 points instead of    5
 DidBck=F Rises=F RFO-DIIS coefs:    0.88442    0.11558    0.00000    0.00000    0.00000
 Iteration  1 RMS(Cart)=  0.00001613 RMS(Int)=  0.00000000
 Iteration  2 RMS(Cart)=  0.00000000 RMS(Int)=  0.00000000
 ITry= 1 IFail=0 DXMaxC= 3.42D-05 DCOld= 1.00D+10 DXMaxT= 4.07D-01 DXLimC= 3.00D+00 Rises=F
 ClnCor:  largest displacement from symmetrization is 1.32D-11 for atom     8.
 Variable       Old X    -DE/DX   Delta X   Delta X   Delta X     New X
                                 (Linear)    (Quad)   (Total)
    R1        2.05845   0.00001  -0.00000   0.00002   0.00002   2.05847
    R2        2.86589  -0.00000  -0.00000   0.00000   0.00000   2.86589
    R3        2.58644  -0.00001   0.00001  -0.00004  -0.00004   2.58640
    R4        2.05845   0.00001  -0.00000   0.00002   0.00002   2.05847
    R5        2.52018  -0.00001   0.00000  -0.00001  -0.00001   2.52017
    R6        2.52018  -0.00001   0.00000  -0.00001  -0.00001   2.52017
    R7        2.53448   0.00001  -0.00001   0.00002   0.00001   2.53449
    A1        1.89752  -0.00000  -0.00000  -0.00001  -0.00001   1.89751
    A2        1.91154   0.00000  -0.00000   0.00002   0.00002   1.91156
    A3        1.93092  -0.00000  -0.00001  -0.00002  -0.00003   1.93089
    A4        1.91468   0.00000   0.00002  -0.00001   0.00000   1.91468
    A5        1.89752  -0.00000  -0.00000  -0.00001  -0.00001   1.89751
    A6        1.91154   0.00000  -0.00000   0.00002   0.00002   1.91156
    A7        1.95403  -0.00000   0.00000  -0.00002  -0.00002   1.95401
    A8        1.95403  -0.00000   0.00000  -0.00002  -0.00002   1.95401
    A9        1.89896   0.00000  -0.00000   0.00003   0.00003   1.89899
   A10        1.88272   0.00000  -0.00002   0.00001  -0.00001   1.88271
   A11        1.88589   0.00000   0.00001   0.00000   0.00001   1.88590
   A12        1.88589   0.00000   0.00001   0.00000   0.00001   1.88590
    D1        1.03153   0.00000   0.00002   0.00003   0.00004   1.03157
    D2       -3.13481  -0.00000  -0.00001   0.00001   0.00000  -3.13481
    D3       -1.05164   0.00000   0.00000   0.00002   0.00002  -1.05162
    D4       -1.05842   0.00000   0.00001   0.00001   0.00002  -1.05840
    D5        1.05842  -0.00000  -0.00001  -0.00001  -0.00002   1.05840
    D6        3.14159  -0.00000   0.00000   0.00000   0.00000   3.14159
    D7        3.13481   0.00000   0.00001  -0.00001  -0.00000   3.13481
    D8       -1.03153  -0.00000  -0.00002  -0.00003  -0.00004  -1.03157
    D9        1.05164  -0.00000  -0.00000  -0.00002  -0.00002   1.05162
         Item               Value     Threshold  Converged?
 Maximum Force            0.000014     0.000015     YES
 RMS     Force            0.000004     0.000010     YES
 Maximum Displacement     0.000034     0.000060     YES
 RMS     Displacement     0.000016     0.000040     YES
 Predicted change in Energy=-7.995128D-10
 Optimization completed.
    -- Stationary point found.
                           ----------------------------
                           !   Optimized Parameters   !
                           ! (Angstroms and Degrees)  !
 --------------------------                            --------------------------
 ! Name  Definition              Value          Derivative Info.                !
 --------------------------------------------------------------------------------
 ! R1    R(1,2)                  1.0893         -DE/DX =    0.0                 !
 ! R2    R(1,3)                  1.5166         -DE/DX =    0.0                 !
 ! R3    R(1,7)                  1.3687         -DE/DX =    0.0                 !
 ! R4    R(1,8)                  1.0893         -DE/DX =    0.0                 !
 ! R5    R(3,4)                  1.3336         -DE/DX =    0.0                 !
 ! R6    R(3,5)                  1.3336         -DE/DX =    0.0                 !
 ! R7    R(3,6)                  1.3412         -DE/DX =    0.0                 !
 ! A1    A(2,1,3)              108.7197         -DE/DX =    0.0                 !
 ! A2    A(2,1,7)              109.523          -DE/DX =    0.0                 !
 ! A3    A(2,1,8)              110.6334         -DE/DX =    0.0                 !
 ! A4    A(3,1,7)              109.7029         -DE/DX =    0.0                 !
 ! A5    A(3,1,8)              108.7197         -DE/DX =    0.0                 !
 ! A6    A(7,1,8)              109.523          -DE/DX =    0.0                 !
 ! A7    A(1,3,4)              111.9576         -DE/DX =    0.0                 !
 ! A8    A(1,3,5)              111.9576         -DE/DX =    0.0                 !
 ! A9    A(1,3,6)              108.8026         -DE/DX =    0.0                 !
 ! A10   A(4,3,5)              107.8719         -DE/DX =    0.0                 !
 ! A11   A(4,3,6)              108.0534         -DE/DX =    0.0                 !
 ! A12   A(5,3,6)              108.0534         -DE/DX =    0.0                 !
 ! D1    D(2,1,3,4)             59.1021         -DE/DX =    0.0                 !
 ! D2    D(2,1,3,5)           -179.6116         -DE/DX =    0.0                 !
 ! D3    D(2,1,3,6)            -60.2547         -DE/DX =    0.0                 !
 ! D4    D(7,1,3,4)            -60.6431         -DE/DX =    0.0                 !
 ! D5    D(7,1,3,5)             60.6431         -DE/DX =    0.0                 !
 ! D6    D(7,1,3,6)            180.0            -DE/DX =    0.0                 !
 ! D7    D(8,1,3,4)            179.6116         -DE/DX =    0.0                 !
 ! D8    D(8,1,3,5)            -59.1021         -DE/DX =    0.0                 !
 ! D9    D(8,1,3,6)             60.2547         -DE/DX =    0.0                 !
 --------------------------------------------------------------------------------
 Lowest energy point so far.  Saving SCF results.
 Largest change from initial coordinates is atom    7       1.664 Angstoms.
 GradGradGradGradGradGradGradGradGradGradGradGradGradGradGradGradGradGrad

 Leave Link  103 at Thu Apr  2 15:18:11 2026, MaxMem=  1073741824 cpu:               0.0 elap:               0.0
 (Enter /Users/yarger/Applications/g16/l202.exe)
                          Input orientation:                          
 ---------------------------------------------------------------------
 Center     Atomic      Atomic             Coordinates (Angstroms)
 Number     Number       Type             X           Y           Z
 ---------------------------------------------------------------------
      1          6           0       -1.500068    1.409783    1.456228
      2          1           0       -1.157010    2.443574    1.444876
      3          6           0       -0.323456    0.503122    1.150437
      4          9           0        0.663049    0.650684    2.035636
      5          9           0       -0.674784   -0.783346    1.139822
      6          9           0        0.157018    0.812792   -0.062840
      7          9           0       -2.005334    1.109077    2.692180
      8          1           0       -2.268594    1.252063    0.700559
 ---------------------------------------------------------------------
                    Distance matrix (angstroms):
                    1          2          3          4          5
     1  C    0.000000
     2  H    1.089285   0.000000
     3  C    1.516562   2.132338   0.000000
     4  F    2.364534   2.622226   1.333620   0.000000
     5  F    2.364534   3.276982   1.333620   2.156089   0.000000
     6  F    2.325919   2.580568   1.341190   2.164704   2.164704
     7  F    1.368684   2.014027   2.360692   2.785936   2.785936
     8  H    1.089285   1.791459   2.132338   3.276982   2.622226
                    6          7          8
     6  F    0.000000
     7  F    3.514781   0.000000
     8  H    2.580568   2.014027   0.000000
 Stoichiometry    C2H2F4
 Framework group  CS[SG(C2F2),X(H2F2)]
 Deg. of freedom    11
 Full point group                 CS      NOp   2
 RotChk:  IX=2 Diff= 8.90D-15
 Largest Abelian subgroup         CS      NOp   2
 Largest concise Abelian subgroup CS      NOp   2
                         Standard orientation:                         
 ---------------------------------------------------------------------
 Center     Atomic      Atomic             Coordinates (Angstroms)
 Number     Number       Type             X           Y           Z
 ---------------------------------------------------------------------
      1          6           0        1.153374    0.242173    0.000000
      2          1           0        1.484647    0.766071   -0.895730
      3          6           0       -0.362239    0.188537   -0.000000
      4          9           0       -0.839148   -0.435098   -1.078044
      5          9           0       -0.839148   -0.435098    1.078044
      6          9           0       -0.839148    1.442072   -0.000000
      7          9           0        1.660099   -1.029253    0.000000
      8          1           0        1.484647    0.766071    0.895730
 ---------------------------------------------------------------------
 Rotational constants (GHZ):           5.3605994           2.7966225           2.7550939
 Leave Link  202 at Thu Apr  2 15:18:11 2026, MaxMem=  1073741824 cpu:               0.0 elap:               0.0
 (Enter /Users/yarger/Applications/g16/l601.exe)
 Copying SCF densities to generalized density rwf, IOpCl= 0 IROHF=0.

 **********************************************************************

            Population analysis using the SCF density.

 **********************************************************************

 Orbital symmetries:
       Occupied  (A') (A") (A') (A') (A') (A') (A') (A') (A") (A')
                 (A') (A') (A") (A') (A') (A') (A") (A') (A") (A')
                 (A') (A") (A") (A") (A')
       Virtual   (A') (A") (A') (A') (A") (A') (A') (A') (A") (A')
                 (A') (A") (A') (A") (A') (A') (A') (A") (A') (A')
                 (A') (A") (A') (A") (A') (A") (A') (A") (A') (A')
                 (A") (A') (A") (A') (A') (A") (A') (A") (A') (A')
                 (A') (A") (A") (A') (A') (A") (A') (A") (A') (A')
                 (A') (A') (A") (A") (A') (A') (A') (A") (A') (A')
                 (A") (A') (A") (A') (A") (A') (A") (A') (A") (A')
                 (A') (A") (A") (A') (A') (A") (A') (A") (A') (A")
                 (A') (A") (A') (A') (A") (A") (A') (A') (A") (A')
                 (A") (A') (A') (A') (A") (A') (A') (A") (A') (A')
                 (A") (A") (A') (A') (A') (A") (A") (A') (A') (A")
                 (A') (A') (A") (A') (A") (A') (A') (A") (A') (A")
                 (A') (A") (A") (A') (A') (A") (A') (A') (A') (A')
                 (A") (A") (A') (A") (A') (A') (A") (A") (A') (A")
                 (A") (A') (A") (A') (A") (A') (A") (A') (A') (A")
                 (A') (A') (A") (A') (A') (A') (A") (A') (A') (A')
                 (A") (A') (A')
 The electronic state is 1-A'.
 Alpha  occ. eigenvalues --  -24.86018 -24.85700 -24.85699 -24.82947 -10.55524
 Alpha  occ. eigenvalues --  -10.40212  -1.44509  -1.35442  -1.35213  -1.33981
 Alpha  occ. eigenvalues --   -0.90258  -0.79154  -0.71319  -0.71279  -0.68751
 Alpha  occ. eigenvalues --   -0.62204  -0.61983  -0.57937  -0.57857  -0.55158
 Alpha  occ. eigenvalues --   -0.53877  -0.53793  -0.51974  -0.47221  -0.46273
 Alpha virt. eigenvalues --    0.04169   0.06656   0.08237   0.09655   0.12491
 Alpha virt. eigenvalues --    0.12784   0.13459   0.15782   0.15791   0.17172
 Alpha virt. eigenvalues --    0.19181   0.19638   0.22935   0.26135   0.27177
 Alpha virt. eigenvalues --    0.28420   0.29253   0.30902   0.33234   0.34844
 Alpha virt. eigenvalues --    0.34989   0.37647   0.37648   0.39057   0.40515
 Alpha virt. eigenvalues --    0.41648   0.41967   0.42399   0.44069   0.45129
 Alpha virt. eigenvalues --    0.46724   0.47950   0.49853   0.49891   0.52630
 Alpha virt. eigenvalues --    0.53840   0.58753   0.60588   0.62881   0.66131
 Alpha virt. eigenvalues --    0.74102   0.74844   0.79143   0.79349   0.83366
 Alpha virt. eigenvalues --    0.87763   0.88560   0.96962   0.99673   1.01550
 Alpha virt. eigenvalues --    1.02609   1.13966   1.14165   1.24044   1.24920
 Alpha virt. eigenvalues --    1.25561   1.35875   1.36621   1.37351   1.38983
 Alpha virt. eigenvalues --    1.40578   1.43751   1.45718   1.46114   1.46375
 Alpha virt. eigenvalues --    1.49120   1.50964   1.53648   1.60324   1.60836
 Alpha virt. eigenvalues --    1.63439   1.87270   1.92792   1.93496   1.96973
 Alpha virt. eigenvalues --    2.00686   2.02384   2.05084   2.05348   2.11405
 Alpha virt. eigenvalues --    2.14178   2.15304   2.18205   2.21147   2.22466
 Alpha virt. eigenvalues --    2.23420   2.25294   2.33774   2.36166   2.45685
 Alpha virt. eigenvalues --    2.46193   2.47755   2.65332   2.68057   2.70256
 Alpha virt. eigenvalues --    2.76729   2.81104   2.81889   2.89822   3.06079
 Alpha virt. eigenvalues --    3.07125   3.07649   3.12857   3.44232   3.48953
 Alpha virt. eigenvalues --    3.50425   3.52968   3.53517   3.55901   3.56956
 Alpha virt. eigenvalues --    3.58155   3.60174   3.64463   3.65193   4.23379
 Alpha virt. eigenvalues --    4.27842   4.31748   4.31950   4.51163   6.40174
 Alpha virt. eigenvalues --    6.40220   6.43062   6.46247   6.46677   6.49494
 Alpha virt. eigenvalues --    6.50235   6.51541   6.55123   6.72779   6.86460
 Alpha virt. eigenvalues --    6.87258   8.35671   8.41438   8.45541   8.48284
 Alpha virt. eigenvalues --    8.67314   8.71586   9.09348   9.12666   9.13088
 Alpha virt. eigenvalues --    9.19442   9.21039   9.23104   9.23911   9.25569
 Alpha virt. eigenvalues --    9.25931   9.34041   9.34931   9.45144   9.51848
 Alpha virt. eigenvalues --    9.52726   9.68678   9.72314   9.74000   9.80028
 Alpha virt. eigenvalues --    9.89283   9.89357  23.98803  24.10055  66.95468
 Alpha virt. eigenvalues --   66.96019  66.97263  67.01677
          Condensed to atoms (all electrons):
               1          2          3          4          5          6
     1  C    4.621338   0.388574   0.352528  -0.088157  -0.088157  -0.084390
     2  H    0.388574   0.669351  -0.048456  -0.005150   0.010517   0.001395
     3  C    0.352528  -0.048456   4.341432   0.242464   0.242464   0.236825
     4  F   -0.088157  -0.005150   0.242464   9.129856  -0.006956  -0.001028
     5  F   -0.088157   0.010517   0.242464  -0.006956   9.129856  -0.001028
     6  F   -0.084390   0.001395   0.236825  -0.001028  -0.001028   9.139031
     7  F    0.150002  -0.034741  -0.074740   0.014083   0.014083   0.000918
     8  H    0.388574  -0.037816  -0.048456   0.010517  -0.005150   0.001395
               7          8
     1  C    0.150002   0.388574
     2  H   -0.034741  -0.037816
     3  C   -0.074740  -0.048456
     4  F    0.014083   0.010517
     5  F    0.014083  -0.005150
     6  F    0.000918   0.001395
     7  F    9.309034  -0.034741
     8  H   -0.034741   0.669351
 Mulliken charges:
               1
     1  C    0.359688
     2  H    0.056325
     3  C    0.755938
     4  F   -0.295630
     5  F   -0.295630
     6  F   -0.293118
     7  F   -0.343898
     8  H    0.056325
 Sum of Mulliken charges =  -0.00000
 Mulliken charges with hydrogens summed into heavy atoms:
               1
     1  C    0.472338
     3  C    0.755938
     4  F   -0.295630
     5  F   -0.295630
     6  F   -0.293118
     7  F   -0.343898
 Electronic spatial extent (au):  <R**2>=            475.9100
 Charge=              0.0000 electrons
 Dipole moment (field-independent basis, Debye):
    X=              1.3751    Y=              1.5901    Z=              0.0000  Tot=              2.1022
 Quadrupole moment (field-independent basis, Debye-Ang):
   XX=            -32.3154   YY=            -33.6910   ZZ=            -31.7598
   XY=              3.2497   XZ=              0.0000   YZ=             -0.0000
 Traceless Quadrupole moment (field-independent basis, Debye-Ang):
   XX=              0.2734   YY=             -1.1023   ZZ=              0.8289
   XY=              3.2497   XZ=              0.0000   YZ=             -0.0000
 Octapole moment (field-independent basis, Debye-Ang**2):
  XXX=             -6.0765  YYY=             -3.8400  ZZZ=              0.0000  XYY=             -1.7146
  XXY=              3.5895  XXZ=             -0.0000  XZZ=              1.1560  YZZ=              0.6551
  YYZ=             -0.0000  XYZ=             -0.0000
 Hexadecapole moment (field-independent basis, Debye-Ang**3):
 XXXX=           -233.8201 YYYY=           -137.5546 ZZZZ=            -97.6142 XXXY=             32.4360
 XXXZ=              0.0000 YYYX=             27.5566 YYYZ=             -0.0000 ZZZX=             -0.0000
 ZZZY=             -0.0000 XXYY=            -63.8672 XXZZ=            -52.9144 YYZZ=            -38.1455
 XXYZ=             -0.0000 YYXZ=              0.0000 ZZXY=              9.8052
 N-N= 2.726697568354D+02 E-N=-1.678486570115D+03  KE= 4.755604172304D+02
 Symmetry A'   KE= 3.587458923260D+02
 Symmetry A"   KE= 1.168145249044D+02
 No NMR shielding tensors so no spin-rotation constants.
 Leave Link  601 at Thu Apr  2 15:18:11 2026, MaxMem=  1073741824 cpu:               0.3 elap:               0.1
 (Enter /Users/yarger/Applications/g16/l9999.exe)
 1\1\GINC-MACBOOKPRO\FOpt\RwB97XD\6-311++G(2d,3p)\C2H2F4\ROOT\02-Apr-20
 26\0\\#p opt=tight freq=raman wb97xd/6-311++g(2d,3p) guess=save geom=c
 onnectivity polar\\r134a - 1,1,1,2-Tetrafluoroethane\\0,1\C,-1.5000684
 263,1.4097834604,1.4562275129\H,-1.1570103323,2.4435744918,1.444876107
 2\C,-0.3234556968,0.503121675,1.1504371998\F,0.6630486019,0.6506839744
 ,2.035635966\F,-0.6747840058,-0.7833455674,1.1398224633\F,0.1570184776
 ,0.812791588,-0.062839691\F,-2.0053337863,1.1090768252,2.6921797164\H,
 -2.2685937356,1.252062617,0.7005592052\\Version=EM64M-G16RevA.03\State
 =1-A'\HF=-476.8153892\RMSD=5.913e-09\RMSF=7.420e-06\Dipole=-0.3673783,
 0.6076431,-0.4240698\Quadrupole=0.0277742,1.4778945,-1.5056687,-0.6310
 716,1.8891026,-0.4368404\PG=CS [SG(C2F2),X(H2F2)]\\@


 TO DRY ONE'S EYES AND LAUGH AT A FALL
 AND BAFFLED, GET UP AND BEGIN AGAIN.
           R. BROWNING
 Leave Link 9999 at Thu Apr  2 15:18:12 2026, MaxMem=  1073741824 cpu:               0.1 elap:               0.0
 Job cpu time:       0 days  0 hours  4 minutes 41.1 seconds.
 Elapsed time:       0 days  0 hours  1 minutes 12.2 seconds.
 File lengths (MBytes):  RWF=     19 Int=      0 D2E=      0 Chk=      4 Scr=      1
 Normal termination of Gaussian 16 at Thu Apr  2 15:18:12 2026.
 (Enter /Users/yarger/Applications/g16/l1.exe)
 Link1:  Proceeding to internal job step number  2.
 ----------------------------------------------------------------------
 #P Geom=AllCheck Guess=TCheck SCRF=Check GenChk RwB97XD/6-311++G(2d,3p
 ) Freq
 ----------------------------------------------------------------------
 1/7=10,10=4,29=7,30=1,38=1,40=1/1,3;
 2/12=2,40=1/2;
 3/5=4,6=6,7=1512,11=2,14=-4,25=1,30=1,70=2,71=2,74=-58,116=1,140=1/1,2,3;
 4/5=101/1;
 5/5=2,38=6,98=1/2;
 8/6=4,10=90,11=11/1;
 10/13=10,15=4/2;
 11/6=3,8=1,9=11,15=111,16=1/1,2,10;
 10/6=1/2;
 6/7=2,8=2,9=2,10=2,28=1/1;
 7/8=1,10=1,25=1/1,2,3,16;
 1/7=10,10=4,30=1/3;
 99//99;
 Leave Link    1 at Thu Apr  2 15:18:12 2026, MaxMem=  1073741824 cpu:               0.0 elap:               0.0
 (Enter /Users/yarger/Applications/g16/l101.exe)
 Structure from the checkpoint file:  "1112Tetrafluoroethane_Opt_Freq_DFT_WB97XD_6311pp2d3p_Gaussian16.chk"
 ---------------------------------
 r134a - 1,1,1,2-Tetrafluoroethane
 ---------------------------------
 Charge =  0 Multiplicity = 1
 Redundant internal coordinates found in file.  (old form).
 C,0,-1.5000684263,1.4097834604,1.4562275129
 H,0,-1.1570103323,2.4435744918,1.4448761072
 C,0,-0.3234556968,0.503121675,1.1504371998
 F,0,0.6630486019,0.6506839744,2.035635966
 F,0,-0.6747840058,-0.7833455674,1.1398224633
 F,0,0.1570184776,0.812791588,-0.062839691
 F,0,-2.0053337863,1.1090768252,2.6921797164
 H,0,-2.2685937356,1.252062617,0.7005592052
 Recover connectivity data from disk.
 ITRead=  0  0  0  0  0  0  0  0
 MicOpt= -1 -1 -1 -1 -1 -1 -1 -1
 NAtoms=      8 NQM=        8 NQMF=       0 NMMI=      0 NMMIF=      0
                NMic=       0 NMicF=      0.
                    Isotopes and Nuclear Properties:
 (Nuclear quadrupole moments (NQMom) in fm**2, nuclear magnetic moments (NMagM)
  in nuclear magnetons)

  Atom         1           2           3           4           5           6           7           8
 IAtWgt=          12           1          12          19          19          19          19           1
 AtmWgt=  12.0000000   1.0078250  12.0000000  18.9984033  18.9984033  18.9984033  18.9984033   1.0078250
 NucSpn=           0           1           0           1           1           1           1           1
 AtZEff=   3.6000000   1.0000000   3.6000000   6.7500000   6.7500000   6.7500000   6.7500000   1.0000000
 NQMom=    0.0000000   0.0000000   0.0000000   0.0000000   0.0000000   0.0000000   0.0000000   0.0000000
 NMagM=    0.0000000   2.7928460   0.0000000   2.6288670   2.6288670   2.6288670   2.6288670   2.7928460
 AtZNuc=   6.0000000   1.0000000   6.0000000   9.0000000   9.0000000   9.0000000   9.0000000   1.0000000
 Leave Link  101 at Thu Apr  2 15:18:12 2026, MaxMem=  1073741824 cpu:               0.6 elap:               0.2
 (Enter /Users/yarger/Applications/g16/l103.exe)

 GradGradGradGradGradGradGradGradGradGradGradGradGradGradGradGradGradGrad
 Berny optimization.
 Initialization pass.
                           ----------------------------
                           !    Initial Parameters    !
                           ! (Angstroms and Degrees)  !
 --------------------------                            --------------------------
 ! Name  Definition              Value          Derivative Info.                !
 --------------------------------------------------------------------------------
 ! R1    R(1,2)                  1.0893         calculate D2E/DX2 analytically  !
 ! R2    R(1,3)                  1.5166         calculate D2E/DX2 analytically  !
 ! R3    R(1,7)                  1.3687         calculate D2E/DX2 analytically  !
 ! R4    R(1,8)                  1.0893         calculate D2E/DX2 analytically  !
 ! R5    R(3,4)                  1.3336         calculate D2E/DX2 analytically  !
 ! R6    R(3,5)                  1.3336         calculate D2E/DX2 analytically  !
 ! R7    R(3,6)                  1.3412         calculate D2E/DX2 analytically  !
 ! A1    A(2,1,3)              108.7197         calculate D2E/DX2 analytically  !
 ! A2    A(2,1,7)              109.523          calculate D2E/DX2 analytically  !
 ! A3    A(2,1,8)              110.6334         calculate D2E/DX2 analytically  !
 ! A4    A(3,1,7)              109.7029         calculate D2E/DX2 analytically  !
 ! A5    A(3,1,8)              108.7197         calculate D2E/DX2 analytically  !
 ! A6    A(7,1,8)              109.523          calculate D2E/DX2 analytically  !
 ! A7    A(1,3,4)              111.9576         calculate D2E/DX2 analytically  !
 ! A8    A(1,3,5)              111.9576         calculate D2E/DX2 analytically  !
 ! A9    A(1,3,6)              108.8026         calculate D2E/DX2 analytically  !
 ! A10   A(4,3,5)              107.8719         calculate D2E/DX2 analytically  !
 ! A11   A(4,3,6)              108.0534         calculate D2E/DX2 analytically  !
 ! A12   A(5,3,6)              108.0534         calculate D2E/DX2 analytically  !
 ! D1    D(2,1,3,4)             59.1021         calculate D2E/DX2 analytically  !
 ! D2    D(2,1,3,5)           -179.6116         calculate D2E/DX2 analytically  !
 ! D3    D(2,1,3,6)            -60.2547         calculate D2E/DX2 analytically  !
 ! D4    D(7,1,3,4)            -60.6431         calculate D2E/DX2 analytically  !
 ! D5    D(7,1,3,5)             60.6431         calculate D2E/DX2 analytically  !
 ! D6    D(7,1,3,6)            180.0            calculate D2E/DX2 analytically  !
 ! D7    D(8,1,3,4)            179.6116         calculate D2E/DX2 analytically  !
 ! D8    D(8,1,3,5)            -59.1021         calculate D2E/DX2 analytically  !
 ! D9    D(8,1,3,6)             60.2547         calculate D2E/DX2 analytically  !
 --------------------------------------------------------------------------------
 Trust Radius=3.00D-01 FncErr=1.00D-07 GrdErr=1.00D-07 EigMax=2.50D+02 EigMin=1.00D-04
 Number of steps in this run=      2 maximum allowed number of steps=      2.
 GradGradGradGradGradGradGradGradGradGradGradGradGradGradGradGradGradGrad

 Leave Link  103 at Thu Apr  2 15:18:12 2026, MaxMem=  1073741824 cpu:               0.0 elap:               0.0
 (Enter /Users/yarger/Applications/g16/l202.exe)
                          Input orientation:                          
 ---------------------------------------------------------------------
 Center     Atomic      Atomic             Coordinates (Angstroms)
 Number     Number       Type             X           Y           Z
 ---------------------------------------------------------------------
      1          6           0       -1.500068    1.409783    1.456228
      2          1           0       -1.157010    2.443574    1.444876
      3          6           0       -0.323456    0.503122    1.150437
      4          9           0        0.663049    0.650684    2.035636
      5          9           0       -0.674784   -0.783346    1.139822
      6          9           0        0.157018    0.812792   -0.062840
      7          9           0       -2.005334    1.109077    2.692180
      8          1           0       -2.268594    1.252063    0.700559
 ---------------------------------------------------------------------
                    Distance matrix (angstroms):
                    1          2          3          4          5
     1  C    0.000000
     2  H    1.089285   0.000000
     3  C    1.516562   2.132338   0.000000
     4  F    2.364534   2.622226   1.333620   0.000000
     5  F    2.364534   3.276982   1.333620   2.156089   0.000000
     6  F    2.325919   2.580568   1.341190   2.164704   2.164704
     7  F    1.368684   2.014027   2.360692   2.785936   2.785936
     8  H    1.089285   1.791459   2.132338   3.276982   2.622226
                    6          7          8
     6  F    0.000000
     7  F    3.514781   0.000000
     8  H    2.580568   2.014027   0.000000
 Stoichiometry    C2H2F4
 Framework group  CS[SG(C2F2),X(H2F2)]
 Deg. of freedom    11
 Full point group                 CS      NOp   2
 RotChk:  IX=2 Diff= 6.16D-15
 Largest Abelian subgroup         CS      NOp   2
 Largest concise Abelian subgroup CS      NOp   2
                         Standard orientation:                         
 ---------------------------------------------------------------------
 Center     Atomic      Atomic             Coordinates (Angstroms)
 Number     Number       Type             X           Y           Z
 ---------------------------------------------------------------------
      1          6           0        1.153374    0.242173    0.000000
      2          1           0        1.484647    0.766071   -0.895730
      3          6           0       -0.362239    0.188537   -0.000000
      4          9           0       -0.839148   -0.435098   -1.078044
      5          9           0       -0.839148   -0.435098    1.078044
      6          9           0       -0.839148    1.442072   -0.000000
      7          9           0        1.660099   -1.029253    0.000000
      8          1           0        1.484647    0.766071    0.895730
 ---------------------------------------------------------------------
 Rotational constants (GHZ):           5.3605994           2.7966225           2.7550939
 Leave Link  202 at Thu Apr  2 15:18:12 2026, MaxMem=  1073741824 cpu:               0.0 elap:               0.0
 (Enter /Users/yarger/Applications/g16/l301.exe)
 Standard basis: 6-311++G(2d,3p) (5D, 7F)
 Ernie: Thresh=  0.10000D-02 Tol=  0.10000D-05 Strict=F.
 There are   126 symmetry adapted cartesian basis functions of A'  symmetry.
 There are    74 symmetry adapted cartesian basis functions of A"  symmetry.
 There are   116 symmetry adapted basis functions of A'  symmetry.
 There are    72 symmetry adapted basis functions of A"  symmetry.
   188 basis functions,   282 primitive gaussians,   200 cartesian basis functions
    25 alpha electrons       25 beta electrons
       nuclear repulsion energy       272.6719101817 Hartrees.
 IExCor= 4639 DFT=T Ex+Corr=wB97XD ExCW=0 ScaHFX=  1.000000
 ScaDFX=  1.000000  1.000000  1.000000  1.000000 ScalE2=  1.000000  1.000000
 IRadAn=      5 IRanWt=     -1 IRanGd=            0 ICorTp=0 IEmpDi=121
 HFx  wShort=  0.000000 wLong=  0.200000 cFull=  0.222036 cShort=  0.000000 cLong=  0.777964
 DFx  wShort=  0.000000 wLong=  0.200000 cFull=  0.000000 cShort=  0.000000 cLong=  1.000000
 NAtoms=    8 NActive=    8 NUniq=    6 SFac= 1.78D+00 NAtFMM=   60 NAOKFM=F Big=F
 Integral buffers will be    131072 words long.
 Raffenetti 2 integral format.
 Two-electron integral symmetry is turned on.
 R6Disp:  Grimme-D2 Dispersion energy=       -0.0021533463 Hartrees.
 Nuclear repulsion after empirical dispersion term =      272.6697568354 Hartrees.
 Leave Link  301 at Thu Apr  2 15:18:12 2026, MaxMem=  1073741824 cpu:               0.1 elap:               0.0
 (Enter /Users/yarger/Applications/g16/l302.exe)
 NPDir=0 NMtPBC=     1 NCelOv=     1 NCel=       1 NClECP=     1 NCelD=      1
         NCelK=      1 NCelE2=     1 NClLst=     1 CellRange=     0.0.
 One-electron integrals computed using PRISM.
 One-electron integral symmetry used in STVInt
 NBasis=   188 RedAO= T EigKep=  1.12D-04  NBF=   116    72
 NBsUse=   188 1.00D-06 EigRej= -1.00D+00 NBFU=   116    72
 Precomputing XC quadrature grid using
 IXCGrd= 4 IRadAn=           5 IRanWt=          -1 IRanGd=           0 AccXCQ= 0.00D+00.
 Generated NRdTot=       0 NPtTot=           0 NUsed=           0 NTot=          32
 NSgBfM=   200   200   200   200   200 MxSgAt=     8 MxSgA2=     8.
 Leave Link  302 at Thu Apr  2 15:18:12 2026, MaxMem=  1073741824 cpu:               0.5 elap:               0.1
 (Enter /Users/yarger/Applications/g16/l303.exe)
 DipDrv:  MaxL=1.
 Leave Link  303 at Thu Apr  2 15:18:12 2026, MaxMem=  1073741824 cpu:               0.1 elap:               0.0
 (Enter /Users/yarger/Applications/g16/l401.exe)
 Initial guess from the checkpoint file:  "1112Tetrafluoroethane_Opt_Freq_DFT_WB97XD_6311pp2d3p_Gaussian16.chk"
 B after Tr=     0.000000    0.000000    0.000000
         Rot=    1.000000    0.000000   -0.000000    0.000000 Ang=   0.00 deg.
 Guess basis will be translated and rotated to current coordinates.
 JPrj=2 DoOrth=T DoCkMO=T.
 Initial guess orbital symmetries:
       Occupied  (A') (A") (A') (A') (A') (A') (A') (A') (A") (A')
                 (A') (A') (A") (A') (A') (A') (A") (A') (A") (A')
                 (A') (A") (A") (A") (A')
       Virtual   (A') (A") (A') (A') (A") (A') (A') (A') (A") (A')
                 (A') (A") (A') (A") (A') (A') (A') (A") (A') (A')
                 (A') (A") (A') (A") (A') (A") (A') (A") (A') (A')
                 (A") (A') (A") (A') (A') (A") (A') (A") (A') (A')
                 (A') (A") (A") (A') (A') (A") (A') (A") (A') (A')
                 (A') (A') (A") (A") (A') (A') (A') (A") (A') (A')
                 (A") (A') (A") (A') (A") (A') (A") (A') (A") (A')
                 (A') (A") (A") (A') (A') (A") (A') (A") (A') (A")
                 (A') (A") (A') (A') (A") (A") (A') (A') (A") (A')
                 (A") (A') (A') (A') (A") (A') (A') (A") (A') (A')
                 (A") (A") (A') (A') (A') (A") (A") (A') (A') (A")
                 (A') (A') (A") (A') (A") (A') (A') (A") (A') (A")
                 (A') (A") (A") (A') (A') (A") (A') (A') (A') (A')
                 (A") (A") (A') (A") (A') (A') (A") (A") (A') (A")
                 (A") (A') (A") (A') (A") (A') (A") (A') (A') (A")
                 (A') (A') (A") (A') (A') (A') (A") (A') (A') (A')
                 (A") (A') (A')
 The electronic state of the initial guess is 1-A'.
 Leave Link  401 at Thu Apr  2 15:18:12 2026, MaxMem=  1073741824 cpu:               0.3 elap:               0.1
 (Enter /Users/yarger/Applications/g16/l502.exe)
 Keep R1 ints in memory in symmetry-blocked form, NReq=474084691.
 FoFCou: FMM=F IPFlag=           0 FMFlag=           0 FMFlg1=           0
         NFxFlg=           0 DoJE=F BraDBF=F KetDBF=F FulRan=T
         wScrn=  0.000000 ICntrl=       600 IOpCl=  0 I1Cent=           0 NGrid=           0
         NMat0=    1 NMatS0=  17766 NMatT0=    0 NMatD0=    1 NMtDS0=    0 NMtDT0=    0
 Petite list used in FoFCou.
 Closed shell SCF:
 Using DIIS extrapolation, IDIIS=  1040.
 NGot=  1073741824 LenX=   994422283 LenY=   994381842
 Requested convergence on RMS density matrix=1.00D-08 within 128 cycles.
 Requested convergence on MAX density matrix=1.00D-06.
 Requested convergence on             energy=1.00D-06.
 No special actions if energy rises.

 Cycle   1  Pass 1  IDiag  1:
 E= -476.815389172637    
 DIIS: error= 1.66D-08 at cycle   1 NSaved=   1.
 NSaved= 1 IEnMin= 1 EnMin= -476.815389172637     IErMin= 1 ErrMin= 1.66D-08
 ErrMax= 1.66D-08  0.00D+00 EMaxC= 1.00D-01 BMatC= 6.99D-14 BMatP= 6.99D-14
 IDIUse=1 WtCom= 1.00D+00 WtEn= 0.00D+00
 Coeff-Com:  0.100D+01
 Coeff:      0.100D+01
 Gap=     0.504 Goal=   None    Shift=    0.000
 RMSDP=1.75D-09 MaxDP=5.88D-08              OVMax= 6.53D-08

 SCF Done:  E(RwB97XD) =  -476.815389173     A.U. after    1 cycles
            NFock=  1  Conv=0.17D-08     -V/T= 2.0026
 KE= 4.755604143820D+02 PE=-1.678486567267D+03 EE= 4.534410068765D+02
 Leave Link  502 at Thu Apr  2 15:18:17 2026, MaxMem=  1073741824 cpu:              18.5 elap:               4.7
 (Enter /Users/yarger/Applications/g16/l801.exe)
 DoSCS=F DFT=T ScalE2(SS,OS)=  1.000000  1.000000
 Range of M.O.s used for correlation:     1   188
 NBasis=   188 NAE=    25 NBE=    25 NFC=     0 NFV=     0
 NROrb=    188 NOA=    25 NOB=    25 NVA=   163 NVB=   163

 **** Warning!!: The largest alpha MO coefficient is  0.34089507D+02

 Leave Link  801 at Thu Apr  2 15:18:17 2026, MaxMem=  1073741824 cpu:               0.1 elap:               0.0
 (Enter /Users/yarger/Applications/g16/l1002.exe)
 Minotr:  Closed shell wavefunction.
          Direct CPHF calculation.
          Differentiating once with respect to electric field.
                with respect to dipole field.
          Electric field/nuclear overlap derivatives assumed to be zero.
          Using symmetry in CPHF.
          Requested convergence is 1.0D-08 RMS, and 1.0D-07 maximum.
          Secondary convergence is 1.0D-12 RMS, and 1.0D-12 maximum.
          NewPWx=F KeepS1=T KeepF1=T KeepIn=T MapXYZ=F SortEE=F KeepMc=T.
         2455 words used for storage of precomputed grid.
 Keep R1 ints in memory in symmetry-blocked form, NReq=474088346.
 FoFCou: FMM=F IPFlag=           0 FMFlag=           0 FMFlg1=           0
         NFxFlg=           0 DoJE=F BraDBF=F KetDBF=F FulRan=T
         wScrn=  0.000000 ICntrl=       600 IOpCl=  0 I1Cent=           0 NGrid=           0
         NMat0=    1 NMatS0=  17766 NMatT0=    0 NMatD0=    1 NMtDS0=    0 NMtDT0=    0
 Petite list used in FoFCou.
 Two-electron integral symmetry used by symmetrizing perturbed Fock matrices.
          MDV=    1073741824 using IRadAn=       1.
          Solving linear equations simultaneously, MaxMat=       0.
          There are     3 degrees of freedom in the 1st order CPHF.  IDoFFX=0 NUNeed=     3.
      3 vectors produced by pass  0 Test12= 1.36D-13 3.33D-08 XBig12= 8.93D+00 1.01D+00.
 AX will form     3 AO Fock derivatives at one time.
      3 vectors produced by pass  1 Test12= 1.36D-13 3.33D-08 XBig12= 1.56D+00 1.89D-01.
      3 vectors produced by pass  2 Test12= 1.36D-13 3.33D-08 XBig12= 2.67D-01 7.96D-02.
      3 vectors produced by pass  3 Test12= 1.36D-13 3.33D-08 XBig12= 1.16D-02 2.47D-02.
      3 vectors produced by pass  4 Test12= 1.36D-13 3.33D-08 XBig12= 1.46D-03 7.79D-03.
      3 vectors produced by pass  5 Test12= 1.36D-13 3.33D-08 XBig12= 8.19D-05 2.01D-03.
      3 vectors produced by pass  6 Test12= 1.36D-13 3.33D-08 XBig12= 6.80D-06 5.33D-04.
      3 vectors produced by pass  7 Test12= 1.36D-13 3.33D-08 XBig12= 8.54D-07 1.47D-04.
      3 vectors produced by pass  8 Test12= 1.36D-13 3.33D-08 XBig12= 2.66D-08 3.05D-05.
      3 vectors produced by pass  9 Test12= 1.36D-13 3.33D-08 XBig12= 9.37D-10 7.20D-06.
      3 vectors produced by pass 10 Test12= 1.36D-13 3.33D-08 XBig12= 2.59D-11 8.44D-07.
      2 vectors produced by pass 11 Test12= 1.36D-13 3.33D-08 XBig12= 5.54D-13 1.83D-07.
 InvSVY:  IOpt=1 It=  1 EMax= 8.88D-16
 Solved reduced A of dimension    35 with     3 vectors.
 End of Minotr F.D. properties file   721 does not exist.
 End of Minotr F.D. properties file   722 does not exist.
 End of Minotr F.D. properties file   788 does not exist.
 Leave Link 1002 at Thu Apr  2 15:18:25 2026, MaxMem=  1073741824 cpu:              30.4 elap:               7.7
 (Enter /Users/yarger/Applications/g16/l1101.exe)
 Using compressed storage, NAtomX=     8.
 Will process      9 centers per pass.
 R6Disp: Adding Grimme-D2 dispersion energy 1st derivatives to the gradient.
 Leave Link 1101 at Thu Apr  2 15:18:25 2026, MaxMem=  1073741824 cpu:               0.4 elap:               0.1
 (Enter /Users/yarger/Applications/g16/l1102.exe)
 Symmetrizing basis deriv contribution to polar:
 IMax=3 JMax=2 DiffMx= 0.00D+00
 Leave Link 1102 at Thu Apr  2 15:18:25 2026, MaxMem=  1073741824 cpu:               0.1 elap:               0.0
 (Enter /Users/yarger/Applications/g16/l1110.exe)
 Forming Gx(P) for the SCF density, NAtomX=     8.
 Integral derivatives from FoFJK, PRISM(SPDF).
 Do as many integral derivatives as possible in FoFJK.
 G2DrvN: MDV=    1073741112.
 G2DrvN: will do     9 centers at a time, making    1 passes.
 PxScal for G2LodP:  IOpCl= 0 ISclPx=1 IMOff=     1 NMtTot=     4 NTT=   17766 ScalPx= 2.42D+00
 Calling FoFCou, ICntrl=  3107 FMM=F I1Cent=   0 AccDes= 0.00D+00.
 FoFJK:  IHMeth= 1 ICntrl=    3107 DoSepK=T KAlg= 0 I1Cent=           0 FoldK=F
 IRaf=         1 NMat=       1 IRICut=       1 DoRegI=T DoRafI=F ISym2E= 1 IDoP0=0 IntGTp=1.
 FoFCou: FMM=F IPFlag=           0 FMFlag=      100000 FMFlg1=           0
         NFxFlg=           0 DoJE=F BraDBF=F KetDBF=F FulRan=T
         wScrn=  0.000000 ICntrl=      3507 IOpCl=  0 I1Cent=           0 NGrid=           0
         NMat0=    1 NMatS0=      1 NMatT0=    0 NMatD0=    4 NMtDS0=    3 NMtDT0=    0
 Petite list used in FoFCou.
 End of G2Drv F.D. properties file   721 does not exist.
 End of G2Drv F.D. properties file   722 does not exist.
 End of G2Drv F.D. properties file   788 does not exist.
 Leave Link 1110 at Thu Apr  2 15:18:41 2026, MaxMem=  1073741824 cpu:              60.9 elap:              15.5
 (Enter /Users/yarger/Applications/g16/l1002.exe)
 Minotr:  Closed shell wavefunction.
          IDoAtm=11111111
          Direct CPHF calculation.
          Differentiating once with respect to electric field.
                with respect to dipole field.
          Differentiating once with respect to nuclear coordinates.
          Using symmetry in CPHF.
          Requested convergence is 1.0D-08 RMS, and 1.0D-07 maximum.
          Secondary convergence is 1.0D-12 RMS, and 1.0D-12 maximum.
          NewPWx=T KeepS1=F KeepF1=F KeepIn=T MapXYZ=F SortEE=F KeepMc=T.
         2455 words used for storage of precomputed grid.
 Keep R1 ints in memory in symmetry-blocked form, NReq=474088530.
 FoFCou: FMM=F IPFlag=           0 FMFlag=           0 FMFlg1=           0
         NFxFlg=           0 DoJE=F BraDBF=F KetDBF=F FulRan=T
         wScrn=  0.000000 ICntrl=       600 IOpCl=  0 I1Cent=           0 NGrid=           0
         NMat0=    1 NMatS0=  17766 NMatT0=    0 NMatD0=    1 NMtDS0=    0 NMtDT0=    0
 Petite list used in FoFCou.
          MDV=    1073741824 using IRadAn=       1.
          Solving linear equations simultaneously, MaxMat=       0.
          There are    21 degrees of freedom in the 1st order CPHF.  IDoFFX=4 NUNeed=    21.
 Will reuse    3 saved solutions.
     18 vectors produced by pass  0 Test12= 1.94D-14 4.76D-09 XBig12= 1.05D-01 8.89D-02.
 AX will form    18 AO Fock derivatives at one time.
     18 vectors produced by pass  1 Test12= 1.94D-14 4.76D-09 XBig12= 1.40D-02 2.48D-02.
     18 vectors produced by pass  2 Test12= 1.94D-14 4.76D-09 XBig12= 1.35D-03 6.51D-03.
     18 vectors produced by pass  3 Test12= 1.94D-14 4.76D-09 XBig12= 2.21D-05 8.72D-04.
     18 vectors produced by pass  4 Test12= 1.94D-14 4.76D-09 XBig12= 2.08D-07 6.58D-05.
     18 vectors produced by pass  5 Test12= 1.94D-14 4.76D-09 XBig12= 1.64D-09 7.34D-06.
     18 vectors produced by pass  6 Test12= 1.94D-14 4.76D-09 XBig12= 1.30D-11 6.36D-07.
      7 vectors produced by pass  7 Test12= 1.94D-14 4.76D-09 XBig12= 8.94D-14 4.36D-08.
 InvSVY:  IOpt=1 It=  1 EMax= 2.78D-16
 Solved reduced A of dimension   133 with    21 vectors.
 FullF1:  Do perturbations      1 to      21.
 Isotropic polarizability for W=    0.000000       28.76 Bohr**3.
 FullF1:  Do perturbations      1 to       6.
 End of Minotr F.D. properties file   721 does not exist.
 End of Minotr F.D. properties file   722 does not exist.
 End of Minotr F.D. properties file   788 does not exist.
 Leave Link 1002 at Thu Apr  2 15:19:01 2026, MaxMem=  1073741824 cpu:              79.8 elap:              20.1
 (Enter /Users/yarger/Applications/g16/l601.exe)
 Copying SCF densities to generalized density rwf, IOpCl= 0 IROHF=0.

 **********************************************************************

            Population analysis using the SCF density.

 **********************************************************************

 Orbital symmetries:
       Occupied  (A') (A") (A') (A') (A') (A') (A') (A') (A") (A')
                 (A') (A') (A") (A') (A') (A') (A") (A') (A") (A')
                 (A') (A") (A") (A") (A')
       Virtual   (A') (A") (A') (A') (A") (A') (A') (A') (A") (A')
                 (A') (A") (A') (A") (A') (A') (A') (A") (A') (A')
                 (A') (A") (A') (A") (A') (A") (A') (A") (A') (A')
                 (A") (A') (A") (A') (A') (A") (A') (A") (A') (A')
                 (A') (A") (A") (A') (A') (A") (A') (A") (A') (A')
                 (A') (A') (A") (A") (A') (A') (A') (A") (A') (A')
                 (A") (A') (A") (A') (A") (A') (A") (A') (A") (A')
                 (A') (A") (A") (A') (A') (A") (A') (A") (A') (A")
                 (A') (A") (A') (A') (A") (A") (A') (A') (A") (A')
                 (A") (A') (A') (A') (A") (A') (A') (A") (A') (A')
                 (A") (A") (A') (A') (A') (A") (A") (A') (A') (A")
                 (A') (A') (A") (A') (A") (A') (A') (A") (A') (A")
                 (A') (A") (A") (A') (A') (A") (A') (A') (A') (A')
                 (A") (A") (A') (A") (A') (A') (A") (A") (A') (A")
                 (A") (A') (A") (A') (A") (A') (A") (A') (A') (A")
                 (A') (A') (A") (A') (A') (A') (A") (A') (A') (A')
                 (A") (A') (A')
 The electronic state is 1-A'.
 Alpha  occ. eigenvalues --  -24.86018 -24.85700 -24.85699 -24.82947 -10.55524
 Alpha  occ. eigenvalues --  -10.40212  -1.44509  -1.35442  -1.35213  -1.33981
 Alpha  occ. eigenvalues --   -0.90258  -0.79154  -0.71319  -0.71279  -0.68751
 Alpha  occ. eigenvalues --   -0.62204  -0.61983  -0.57937  -0.57857  -0.55158
 Alpha  occ. eigenvalues --   -0.53877  -0.53793  -0.51974  -0.47221  -0.46273
 Alpha virt. eigenvalues --    0.04169   0.06656   0.08237   0.09655   0.12491
 Alpha virt. eigenvalues --    0.12784   0.13459   0.15782   0.15791   0.17172
 Alpha virt. eigenvalues --    0.19181   0.19638   0.22935   0.26135   0.27177
 Alpha virt. eigenvalues --    0.28420   0.29253   0.30902   0.33234   0.34844
 Alpha virt. eigenvalues --    0.34989   0.37647   0.37648   0.39057   0.40515
 Alpha virt. eigenvalues --    0.41648   0.41967   0.42399   0.44069   0.45129
 Alpha virt. eigenvalues --    0.46724   0.47950   0.49853   0.49891   0.52630
 Alpha virt. eigenvalues --    0.53840   0.58753   0.60588   0.62881   0.66131
 Alpha virt. eigenvalues --    0.74102   0.74844   0.79143   0.79349   0.83366
 Alpha virt. eigenvalues --    0.87763   0.88560   0.96962   0.99673   1.01550
 Alpha virt. eigenvalues --    1.02609   1.13966   1.14165   1.24044   1.24920
 Alpha virt. eigenvalues --    1.25561   1.35875   1.36621   1.37351   1.38983
 Alpha virt. eigenvalues --    1.40578   1.43751   1.45718   1.46114   1.46375
 Alpha virt. eigenvalues --    1.49120   1.50964   1.53648   1.60324   1.60836
 Alpha virt. eigenvalues --    1.63439   1.87270   1.92792   1.93496   1.96973
 Alpha virt. eigenvalues --    2.00686   2.02384   2.05084   2.05348   2.11405
 Alpha virt. eigenvalues --    2.14178   2.15304   2.18205   2.21147   2.22466
 Alpha virt. eigenvalues --    2.23420   2.25294   2.33774   2.36166   2.45685
 Alpha virt. eigenvalues --    2.46193   2.47755   2.65332   2.68057   2.70256
 Alpha virt. eigenvalues --    2.76729   2.81104   2.81889   2.89822   3.06079
 Alpha virt. eigenvalues --    3.07125   3.07649   3.12857   3.44232   3.48953
 Alpha virt. eigenvalues --    3.50425   3.52968   3.53517   3.55901   3.56956
 Alpha virt. eigenvalues --    3.58155   3.60174   3.64463   3.65193   4.23379
 Alpha virt. eigenvalues --    4.27842   4.31748   4.31950   4.51163   6.40174
 Alpha virt. eigenvalues --    6.40220   6.43062   6.46247   6.46677   6.49494
 Alpha virt. eigenvalues --    6.50235   6.51541   6.55123   6.72779   6.86460
 Alpha virt. eigenvalues --    6.87258   8.35671   8.41438   8.45541   8.48284
 Alpha virt. eigenvalues --    8.67314   8.71586   9.09348   9.12666   9.13088
 Alpha virt. eigenvalues --    9.19442   9.21039   9.23104   9.23911   9.25569
 Alpha virt. eigenvalues --    9.25931   9.34041   9.34931   9.45144   9.51848
 Alpha virt. eigenvalues --    9.52726   9.68678   9.72314   9.74000   9.80028
 Alpha virt. eigenvalues --    9.89283   9.89357  23.98803  24.10055  66.95468
 Alpha virt. eigenvalues --   66.96019  66.97263  67.01677
          Condensed to atoms (all electrons):
               1          2          3          4          5          6
     1  C    4.621338   0.388574   0.352528  -0.088157  -0.088157  -0.084390
     2  H    0.388574   0.669351  -0.048456  -0.005150   0.010517   0.001395
     3  C    0.352528  -0.048456   4.341432   0.242464   0.242464   0.236825
     4  F   -0.088157  -0.005150   0.242464   9.129856  -0.006956  -0.001028
     5  F   -0.088157   0.010517   0.242464  -0.006956   9.129856  -0.001028
     6  F   -0.084390   0.001395   0.236825  -0.001028  -0.001028   9.139031
     7  F    0.150002  -0.034741  -0.074740   0.014083   0.014083   0.000918
     8  H    0.388574  -0.037816  -0.048456   0.010517  -0.005150   0.001395
               7          8
     1  C    0.150002   0.388574
     2  H   -0.034741  -0.037816
     3  C   -0.074740  -0.048456
     4  F    0.014083   0.010517
     5  F    0.014083  -0.005150
     6  F    0.000918   0.001395
     7  F    9.309033  -0.034741
     8  H   -0.034741   0.669351
 Mulliken charges:
               1
     1  C    0.359688
     2  H    0.056325
     3  C    0.755938
     4  F   -0.295630
     5  F   -0.295630
     6  F   -0.293118
     7  F   -0.343898
     8  H    0.056325
 Sum of Mulliken charges =  -0.00000
 Mulliken charges with hydrogens summed into heavy atoms:
               1
     1  C    0.472338
     3  C    0.755938
     4  F   -0.295630
     5  F   -0.295630
     6  F   -0.293118
     7  F   -0.343898
 APT charges:
               1
     1  C    0.475795
     2  H    0.015447
     3  C    1.595931
     4  F   -0.542120
     5  F   -0.542120
     6  F   -0.545233
     7  F   -0.473147
     8  H    0.015447
 Sum of APT charges =  -0.00000
 APT charges with hydrogens summed into heavy atoms:
               1
     1  C    0.506689
     3  C    1.595931
     4  F   -0.542120
     5  F   -0.542120
     6  F   -0.545233
     7  F   -0.473147
 Electronic spatial extent (au):  <R**2>=            475.9100
 Charge=              0.0000 electrons
 Dipole moment (field-independent basis, Debye):
    X=              1.3751    Y=              1.5900    Z=              0.0000  Tot=              2.1022
 Quadrupole moment (field-independent basis, Debye-Ang):
   XX=            -32.3154   YY=            -33.6910   ZZ=            -31.7598
   XY=              3.2497   XZ=              0.0000   YZ=             -0.0000
 Traceless Quadrupole moment (field-independent basis, Debye-Ang):
   XX=              0.2734   YY=             -1.1023   ZZ=              0.8289
   XY=              3.2497   XZ=              0.0000   YZ=             -0.0000
 Octapole moment (field-independent basis, Debye-Ang**2):
  XXX=             -6.0765  YYY=             -3.8400  ZZZ=             -0.0000  XYY=             -1.7146
  XXY=              3.5895  XXZ=             -0.0000  XZZ=              1.1560  YZZ=              0.6551
  YYZ=             -0.0000  XYZ=              0.0000
 Hexadecapole moment (field-independent basis, Debye-Ang**3):
 XXXX=           -233.8201 YYYY=           -137.5546 ZZZZ=            -97.6142 XXXY=             32.4360
 XXXZ=             -0.0000 YYYX=             27.5566 YYYZ=             -0.0000 ZZZX=             -0.0000
 ZZZY=              0.0000 XXYY=            -63.8673 XXZZ=            -52.9144 YYZZ=            -38.1455
 XXYZ=              0.0000 YYXZ=             -0.0000 ZZXY=              9.8052
 N-N= 2.726697568354D+02 E-N=-1.678486563997D+03  KE= 4.755604143820D+02
 Symmetry A'   KE= 3.587458900397D+02
 Symmetry A"   KE= 1.168145243423D+02
  Exact polarizability:  28.975  -0.636  29.534   0.000   0.000  27.779
 Approx polarizability:  27.916  -0.711  32.032   0.000  -0.000  29.947
 No NMR shielding tensors so no spin-rotation constants.
 Leave Link  601 at Thu Apr  2 15:19:01 2026, MaxMem=  1073741824 cpu:               0.3 elap:               0.1
 (Enter /Users/yarger/Applications/g16/l701.exe)
 ... and contract with generalized density number  0.
 Compute integral second derivatives.
 R6Disp: Adding Grimme-D2 dispersion energy 2nd derivatives to the Hessian.
 Leave Link  701 at Thu Apr  2 15:19:01 2026, MaxMem=  1073741824 cpu:               0.4 elap:               0.1
 (Enter /Users/yarger/Applications/g16/l702.exe)
 L702 exits ... SP integral derivatives will be done elsewhere.
 Leave Link  702 at Thu Apr  2 15:19:01 2026, MaxMem=  1073741824 cpu:               0.0 elap:               0.0
 (Enter /Users/yarger/Applications/g16/l703.exe)
 Integral derivatives from FoFJK, PRISM(SPDF).
 Compute integral second derivatives, UseDBF=F ICtDFT=           0.
 Calling FoFJK, ICntrl=    100127 FMM=F ISym2X=1 I1Cent= 0 IOpClX= 0 NMat=1 NMatS=1 NMatT=0.
 FoFJK:  IHMeth= 1 ICntrl=  100127 DoSepK=T KAlg= 0 I1Cent=           0 FoldK=F
 IRaf=         1 NMat=       1 IRICut=       1 DoRegI=T DoRafI=F ISym2E= 1 IDoP0=0 IntGTp=1.
 FoFCou: FMM=F IPFlag=           0 FMFlag=      100000 FMFlg1=         800
         NFxFlg=           0 DoJE=F BraDBF=F KetDBF=F FulRan=T
         wScrn=  0.000000 ICntrl=    100527 IOpCl=  0 I1Cent=           0 NGrid=           0
         NMat0=    1 NMatS0=      1 NMatT0=    0 NMatD0=    1 NMtDS0=    0 NMtDT0=    0
 Petite list used in FoFCou.
 Leave Link  703 at Thu Apr  2 15:19:24 2026, MaxMem=  1073741824 cpu:              90.3 elap:              22.6
 (Enter /Users/yarger/Applications/g16/l716.exe)
 Dipole        = 5.41007826D-01 6.25573660D-01 9.91745699D-16
 Polarizability= 2.89752812D+01-6.35661147D-01 2.95341690D+01
                 6.13969478D-14 2.06009414D-15 2.77787440D+01
 HyperPolar    = 1.42484691D+01 1.29472549D+01 1.08406302D+01
                 2.82734886D+01 2.80713556D-11 1.35993316D-11
                 6.11284247D-11 1.59425643D+01 2.39699458D+01
                 1.77788663D-10
 Full mass-weighted force constant matrix:
 Low frequencies ---   -5.6271   -1.8161   -0.0006    0.0002    0.0005    6.1749
 Low frequencies ---  108.6511  219.1373  351.6675
 Diagonal vibrational polarizability:
        6.7521178       8.7693110      20.2643396
 Diagonal vibrational hyperpolarizability:
        6.1202808       7.1422009       0.0000051
 Harmonic frequencies (cm**-1), IR intensities (KM/Mole), Raman scattering
 activities (A**4/AMU), depolarization ratios for plane and unpolarized
 incident light, reduced masses (AMU), force constants (mDyne/A),
 and normal coordinates:
                      1                      2                      3
                     A"                     A'                     A"
 Frequencies --    108.6481               219.1373               351.6673
 Red. masses --      4.8495                15.9123                 3.3071
 Frc consts  --      0.0337                 0.4502                 0.2410
 IR Inten    --      6.0793                 2.9740                 1.6052
 Raman Activ --      0.0635                 0.0745                 0.2608
 Depolar (P) --      0.7500                 0.5610                 0.7500
 Depolar (U) --      0.8571                 0.7187                 0.8571
  Atom  AN      X      Y      Z        X      Y      Z        X      Y      Z
     1   6     0.00  -0.00  -0.23    -0.07  -0.11  -0.00     0.00  -0.00  -0.20
     2   1    -0.06  -0.39  -0.48    -0.27   0.04   0.02    -0.32  -0.28  -0.49
     3   6     0.00   0.00  -0.07    -0.11  -0.17   0.00    -0.00   0.00   0.08
     4   9    -0.15   0.11  -0.08    -0.39  -0.01   0.03     0.20  -0.05   0.01
     5   9     0.15  -0.11  -0.08    -0.39  -0.01  -0.03    -0.20   0.05   0.01
     6   9    -0.00  -0.00   0.09     0.36   0.03   0.00    -0.00  -0.00   0.12
     7   9     0.00  -0.00   0.30     0.57   0.16  -0.00     0.00  -0.00  -0.02
     8   1     0.06   0.39  -0.48    -0.27   0.04  -0.02     0.32   0.28  -0.49
                      4                      5                      6
                     A'                     A"                     A'
 Frequencies --    411.0649               532.9478               548.4187
 Red. masses --     13.4853                 8.2374                10.9414
 Frc consts  --      1.3426                 1.3785                 1.9389
 IR Inten    --      0.6604                 1.6081                 8.0907
 Raman Activ --      1.2329                 0.6317                 1.2491
 Depolar (P) --      0.5159                 0.7500                 0.5199
 Depolar (U) --      0.6806                 0.8571                 0.6841
  Atom  AN      X      Y      Z        X      Y      Z        X      Y      Z
     1   6    -0.16   0.26  -0.00     0.00   0.00   0.01     0.28   0.03   0.00
     2   1    -0.22   0.29  -0.00     0.41   0.20   0.28     0.44  -0.07   0.00
     3   6     0.03  -0.06   0.00     0.00   0.00  -0.24     0.08   0.24   0.00
     4   9     0.01  -0.27   0.13    -0.05  -0.30  -0.14    -0.08  -0.15   0.38
     5   9     0.01  -0.27  -0.13     0.05   0.30  -0.14    -0.08  -0.15  -0.38
     6   9     0.48   0.11   0.00    -0.00   0.00   0.37    -0.19   0.25  -0.00
     7   9    -0.39   0.26   0.00     0.00  -0.00   0.03     0.09  -0.12  -0.00
     8   1    -0.22   0.29   0.00    -0.41  -0.20   0.28     0.44  -0.07  -0.00
                      7                      8                      9
                     A'                     A'                     A"
 Frequencies --    666.4393               850.9869               982.2459
 Red. masses --      9.3711                 7.4392                 2.0008
 Frc consts  --      2.4522                 3.1741                 1.1374
 IR Inten    --     32.8444                17.0752                65.6690
 Raman Activ --      1.5917                 6.9929                 1.7751
 Depolar (P) --      0.6247                 0.0263                 0.7500
 Depolar (U) --      0.7690                 0.0513                 0.8571
  Atom  AN      X      Y      Z        X      Y      Z        X      Y      Z
     1   6    -0.37  -0.21   0.00     0.38   0.17   0.00    -0.00   0.00   0.21
     2   1    -0.44  -0.17   0.01     0.53   0.06  -0.01    -0.58  -0.31  -0.19
     3   6    -0.26   0.09  -0.00    -0.05   0.01   0.00    -0.00  -0.00   0.11
     4   9     0.16  -0.13  -0.08    -0.10  -0.15  -0.27    -0.05  -0.04  -0.08
     5   9     0.16  -0.13   0.08    -0.10  -0.15   0.27     0.05   0.04  -0.08
     6   9    -0.03   0.43   0.00    -0.02   0.19   0.00     0.00  -0.00   0.00
     7   9     0.16  -0.08   0.00    -0.03  -0.02   0.00    -0.00  -0.00  -0.03
     8   1    -0.44  -0.17  -0.01     0.53   0.06   0.01     0.58   0.31  -0.19
                     10                     11                     12
                     A'                     A'                     A"
 Frequencies --   1121.9618              1183.0890              1206.1379
 Red. masses --      7.1508                 9.1917                 2.1503
 Frc consts  --      5.3035                 7.5802                 1.8431
 IR Inten    --     99.5616               291.4678               116.1693
 Raman Activ --      3.5619                 1.4024                 1.6141
 Depolar (P) --      0.4408                 0.7468                 0.7500
 Depolar (U) --      0.6119                 0.8551                 0.8571
  Atom  AN      X      Y      Z        X      Y      Z        X      Y      Z
     1   6    -0.13   0.54  -0.00    -0.09   0.00   0.00     0.00  -0.00  -0.14
     2   1    -0.19   0.48  -0.04     0.35  -0.19   0.05    -0.19   0.63   0.15
     3   6    -0.10  -0.07   0.00    -0.24   0.71  -0.00    -0.00   0.00   0.25
     4   9     0.01   0.02   0.02    -0.01  -0.07  -0.04    -0.02  -0.03  -0.06
     5   9     0.01   0.02  -0.02    -0.01  -0.07   0.04     0.02   0.03  -0.06
     6   9     0.04  -0.03   0.00     0.13  -0.27   0.00     0.00  -0.00  -0.02
     7   9     0.11  -0.36   0.00     0.05  -0.02  -0.00    -0.00   0.00   0.05
     8   1    -0.19   0.48   0.04     0.35  -0.19  -0.05     0.19  -0.63   0.15
                     13                     14                     15
                     A'                     A"                     A'
 Frequencies --   1308.5604              1320.2726              1452.2018
 Red. masses --      3.4984                 1.5412                 1.7646
 Frc consts  --      3.5294                 1.5828                 2.1926
 IR Inten    --    147.6530               123.3361                16.5819
 Raman Activ --      1.3106                 2.9894                 0.3075
 Depolar (P) --      0.5676                 0.7500                 0.5864
 Depolar (U) --      0.7242                 0.8571                 0.7393
  Atom  AN      X      Y      Z        X      Y      Z        X      Y      Z
     1   6    -0.07  -0.02  -0.00    -0.00  -0.00  -0.01     0.19  -0.08   0.00
     2   1    -0.56   0.27  -0.01     0.57  -0.39  -0.01    -0.54   0.42  -0.00
     3   6     0.40   0.17  -0.00     0.00   0.00   0.20    -0.15   0.03  -0.00
     4   9    -0.06  -0.05  -0.06    -0.01  -0.01  -0.04     0.02   0.01   0.01
     5   9    -0.06  -0.05   0.06     0.01   0.01  -0.04     0.02   0.01  -0.01
     6   9    -0.04   0.01   0.00    -0.00  -0.00  -0.01     0.01  -0.02   0.00
     7   9     0.01  -0.05   0.00    -0.00  -0.00  -0.03    -0.02  -0.01  -0.00
     8   1    -0.56   0.27   0.01    -0.57   0.39  -0.01    -0.54   0.42   0.00
                     16                     17                     18
                     A'                     A'                     A"
 Frequencies --   1496.8529              3091.6400              3156.5505
 Red. masses --      1.0890                 1.0566                 1.1114
 Frc consts  --      1.4376                 5.9501                 6.5246
 IR Inten    --      8.0908                13.9934                 6.9034
 Raman Activ --      3.6582               106.9028                40.5177
 Depolar (P) --      0.7333                 0.0542                 0.7500
 Depolar (U) --      0.8461                 0.1028                 0.8571
  Atom  AN      X      Y      Z        X      Y      Z        X      Y      Z
     1   6    -0.05  -0.07   0.00     0.04   0.05   0.00     0.00   0.00  -0.10
     2   1     0.29   0.47   0.43    -0.22  -0.33   0.59    -0.23  -0.33   0.58
     3   6     0.01  -0.01  -0.00    -0.00   0.00  -0.00     0.00   0.00  -0.00
     4   9     0.00   0.00  -0.00    -0.00  -0.00  -0.00     0.00   0.00   0.00
     5   9     0.00   0.00   0.00    -0.00  -0.00   0.00    -0.00  -0.00   0.00
     6   9    -0.00   0.00   0.00     0.00  -0.00   0.00     0.00  -0.00   0.00
     7   9    -0.00  -0.01   0.00    -0.00   0.00   0.00    -0.00  -0.00   0.00
     8   1     0.29   0.47  -0.43    -0.22  -0.33  -0.59     0.23   0.33   0.58

 -------------------
 - Thermochemistry -
 -------------------
 Temperature   298.150 Kelvin.  Pressure   1.00000 Atm.
 Atom     1 has atomic number  6 and mass  12.00000
 Atom     2 has atomic number  1 and mass   1.00783
 Atom     3 has atomic number  6 and mass  12.00000
 Atom     4 has atomic number  9 and mass  18.99840
 Atom     5 has atomic number  9 and mass  18.99840
 Atom     6 has atomic number  9 and mass  18.99840
 Atom     7 has atomic number  9 and mass  18.99840
 Atom     8 has atomic number  1 and mass   1.00783
 Molecular mass:   102.00926 amu.
 Principal axes and moments of inertia in atomic units:
                           1         2         3
     Eigenvalues --   336.66780 645.32886 655.05614
           X            0.87272   0.48822  -0.00000
           Y           -0.48822   0.87272  -0.00000
           Z            0.00000   0.00000   1.00000
 This molecule is an asymmetric top.
 Rotational symmetry number  1.
 Rotational temperatures (Kelvin)      0.25727     0.13422     0.13222
 Rotational constants (GHZ):           5.36060     2.79662     2.75509
 Zero-point vibrational energy     119679.3 (Joules/Mol)
                                   28.60405 (Kcal/Mol)
 Warning -- explicit consideration of   6 degrees of freedom as
           vibrations may cause significant error
 Vibrational temperatures:    156.32   315.29   505.97   591.43   766.79
          (Kelvin)            789.05   958.86  1224.38  1413.23  1614.25
                             1702.20  1735.36  1882.73  1899.58  2089.39
                             2153.64  4448.18  4541.57
 
 Zero-point correction=                           0.045583 (Hartree/Particle)
 Thermal correction to Energy=                    0.051036
 Thermal correction to Enthalpy=                  0.051980
 Thermal correction to Gibbs Free Energy=         0.016088
 Sum of electronic and zero-point Energies=           -476.769806
 Sum of electronic and thermal Energies=              -476.764353
 Sum of electronic and thermal Enthalpies=            -476.763409
 Sum of electronic and thermal Free Energies=         -476.799301
 
                     E (Thermal)             CV                S
                      KCal/Mol        Cal/Mol-Kelvin    Cal/Mol-Kelvin
 Total                   32.025             18.042             75.540
 Electronic               0.000              0.000              0.000
 Translational            0.889              2.981             39.777
 Rotational               0.889              2.981             26.456
 Vibrational             30.248             12.080              9.307
 Vibration     1          0.606              1.942              3.293
 Vibration     2          0.647              1.812              1.966
 Vibration     3          0.728              1.572              1.159
 Vibration     4          0.775              1.446              0.923
 Vibration     5          0.888              1.177              0.581
 Vibration     6          0.904              1.143              0.547
                       Q            Log10(Q)             Ln(Q)
 Total Bot       0.398035D-07         -7.400078        -17.039310
 Total V=0       0.368838D+14         13.566836         31.238794
 Vib (Bot)       0.727834D-20        -20.137968        -46.369385
 Vib (Bot)    1  0.188563D+01          0.275456          0.634262
 Vib (Bot)    2  0.902972D+00         -0.044326         -0.102064
 Vib (Bot)    3  0.524073D+00         -0.280608         -0.646124
 Vib (Bot)    4  0.430056D+00         -0.366475         -0.843840
 Vib (Bot)    5  0.299259D+00         -0.523953         -1.206447
 Vib (Bot)    6  0.286588D+00         -0.542742         -1.249709
 Vib (V=0)       0.674445D+01          0.828946          1.908719
 Vib (V=0)    1  0.245079D+01          0.389307          0.896412
 Vib (V=0)    2  0.153216D+01          0.185305          0.426680
 Vib (V=0)    3  0.122433D+01          0.087898          0.202393
 Vib (V=0)    4  0.115951D+01          0.064273          0.147994
 Vib (V=0)    5  0.108271D+01          0.034514          0.079471
 Vib (V=0)    6  0.107631D+01          0.031937          0.073538
 Electronic      0.100000D+01          0.000000          0.000000
 Translational   0.404961D+08          7.607413         17.516716
 Rotational      0.135044D+06          5.130476         11.813358
 
                                                  r134a - 1,1,1,2-Tetrafluoroetha
 ne
                                                             IR Spectrum
 
     3  3                                                               1 1    11   11 1                                             
     1  0                                                               4 4    33   21 1     9    8       6   55    4 3     2   1    
     5  9                                                               9 5    20   08 2     8    5       6   43    1 5     1   0    
     7  2                                                               7 2    09   63 2     2    1       6   83    1 2     9   9    
 
     X  X                                                               X X    XX   XX X     X    X       X   XX    X X     X   X    
                                                                               XX   XX X     X            X                          
                                                                               XX   XX X     X                                       
                                                                               XX   XX X     X                                       
                                                                               XX   XX X     X                                       
                                                                               XX   XX X                                             
                                                                               XX   XX X                                             
                                                                               XX   XX                                               
                                                                                X    X                                               
                                                                                X    X                                               
                                                                                     X                                               
                                                                                     X                                               
                                                                                     X                                               
                                                                                     X                                               
                                                                                     X                                               
                                                                                     X                                               
                                                                                     X                                               
                                                                                     X                                               
                                                                                     X                                               
                                                                                     X                                               
 
 
                                                  r134a - 1,1,1,2-Tetrafluoroetha
 ne
                                                            Raman Spectrum
 
     3  3                                                               1 1    11   11 1                                             
     1  0                                                               4 4    33   21 1     9    8       6   55    4 3     2   1    
     5  9                                                               9 5    20   08 2     8    5       6   43    1 5     1   0    
     7  2                                                               7 2    09   63 2     2    1       6   83    1 2     9   9    
 
     X  X                                                               X X    XX   XX X     X    X       X   XX    X X     X   X    
     X  X                                                                                                                            
     X  X                                                                                                                            
     X  X                                                                                                                            
     X  X                                                                                                                            
     X  X                                                                                                                            
     X  X                                                                                                                            
     X  X                                                                                                                            
        X                                                                                                                            
        X                                                                                                                            
        X                                                                                                                            
        X                                                                                                                            
        X                                                                                                                            
        X                                                                                                                            
        X                                                                                                                            
        X                                                                                                                            
        X                                                                                                                            
        X                                                                                                                            
        X                                                                                                                            
        X                                                                                                                            
 
 ***** Axes restored to original set *****
 -------------------------------------------------------------------
 Center     Atomic                   Forces (Hartrees/Bohr)
 Number     Number              X              Y              Z
 -------------------------------------------------------------------
      1        6          -0.000003929   -0.000011362    0.000024056
      2        1           0.000002468    0.000005460   -0.000005374
      3        6           0.000004334   -0.000003802   -0.000000386
      4        9          -0.000007992   -0.000001999    0.000001867
      5        9          -0.000001151    0.000005334    0.000006448
      6        9           0.000004244   -0.000001302   -0.000004254
      7        9           0.000003193    0.000006109   -0.000014549
      8        1          -0.000001168    0.000001562   -0.000007809
 -------------------------------------------------------------------
 Cartesian Forces:  Max     0.000024056 RMS     0.000007433
 Force constants in Cartesian coordinates: 
                1             2             3             4             5 
      1  0.561203D+00
      2  0.504468D-01  0.597379D+00
      3  0.553949D-01  0.126899D-01  0.549327D+00
      4 -0.807807D-01 -0.777669D-01 -0.554560D-02  0.808117D-01
      5 -0.747028D-01 -0.297102D+00 -0.761404D-02  0.853821D-01  0.317765D+00
      6 -0.611595D-02 -0.157025D-01 -0.490405D-01 -0.447092D-02  0.146645D-02
      7 -0.156623D+00  0.649990D-01  0.199538D-01  0.104300D-01 -0.111429D-01
      8  0.727942D-01 -0.124311D+00 -0.275156D-01  0.241431D-01 -0.204996D-01
      9  0.747510D-02 -0.158740D-01 -0.593410D-01  0.354959D-03 -0.112063D-02
     10 -0.340699D-01 -0.403287D-02 -0.405567D-01  0.730549D-03  0.141331D-03
     11  0.166816D-01  0.753536D-02  0.143688D-01 -0.167407D-02  0.223421D-02
     12 -0.884417D-02 -0.187299D-02 -0.812440D-02  0.128872D-03  0.137420D-03
     13  0.994645D-02  0.227500D-01  0.107473D-02 -0.334896D-02  0.310316D-02
     14 -0.167140D-01 -0.501268D-01  0.503943D-02  0.765946D-02 -0.302590D-02
     15 -0.623338D-03 -0.671988D-02  0.552135D-02  0.137738D-02 -0.599888D-03
     16 -0.510208D-02 -0.103451D-01  0.340065D-01  0.263111D-03  0.116981D-02
     17  0.460814D-02  0.885859D-02 -0.105300D-01 -0.126724D-02  0.220727D-02
     18  0.100691D-01  0.118016D-01 -0.273499D-01 -0.938802D-03 -0.501252D-03
     19 -0.952626D-01 -0.182846D-01  0.697949D-01 -0.435170D-02 -0.431506D-02
     20 -0.194861D-01 -0.789454D-01  0.464189D-01 -0.141543D-01 -0.610061D-03
     21  0.717184D-01  0.446245D-01 -0.246669D+00  0.101974D-01  0.872003D-02
     22 -0.199311D+00 -0.277663D-01 -0.134122D+00 -0.375391D-02  0.364299D-03
     23 -0.336278D-01 -0.632882D-01 -0.328574D-01 -0.223221D-01 -0.968982D-03
     24 -0.129074D+00 -0.289465D-01 -0.164324D+00 -0.110332D-02 -0.488091D-03
                6             7             8             9            10 
      6  0.598531D-01
      7 -0.587511D-02  0.592466D+00
      8 -0.340874D-02 -0.506388D-01  0.571720D+00
      9  0.168167D-02 -0.853281D-02  0.127968D-01  0.524730D+00
     10  0.333441D-03 -0.212074D+00  0.697831D-02 -0.885908D-01  0.251735D+00
     11  0.425591D-03 -0.280262D-03 -0.787617D-01 -0.484301D-02  0.294291D-01
     12  0.229038D-03 -0.993611D-01 -0.128259D-02 -0.144078D+00  0.163518D+00
     13  0.189655D-02 -0.847680D-01 -0.264705D-01 -0.651005D-03 -0.222497D-01
     14 -0.182691D-02 -0.139297D-01 -0.275519D+00 -0.110934D-01 -0.393926D-01
     15  0.176356D-03  0.166339D-02 -0.676511D-02 -0.746271D-01 -0.237630D-01
     16  0.242777D-04 -0.122723D+00 -0.179325D-02  0.756165D-01  0.187428D-01
     17 -0.598518D-04 -0.705651D-02 -0.798632D-01  0.199042D-01  0.242870D-02
     18 -0.400437D-03  0.840420D-01  0.120439D-01 -0.218803D+00 -0.173729D-01
     19  0.188018D-01 -0.100004D-01 -0.156575D-01  0.351689D-01  0.284165D-02
     20  0.385267D-01  0.203771D-02  0.335382D-02 -0.135899D-01 -0.137358D-02
     21 -0.152589D-01  0.684230D-02  0.128366D-01 -0.340020D-01  0.314139D-02
     22 -0.459406D-02 -0.167076D-01 -0.935554D-02 -0.208409D-01 -0.565569D-02
     23 -0.194207D-01  0.160115D-01  0.388043D-02  0.138199D-01  0.582157D-02
     24  0.275968D-02  0.126759D-02  0.129480D-02  0.443922D-02  0.329058D-02
               11            12            13            14            15 
     11  0.824097D-01
     12  0.221431D-01  0.223592D+00
     13 -0.517904D-01 -0.226047D-01  0.977929D-01
     14 -0.246623D-01 -0.263609D-01  0.865084D-01  0.381653D+00
     15 -0.359041D-01 -0.218260D-02  0.347986D-02 -0.691067D-03  0.782910D-01
     16  0.361626D-02 -0.322443D-01 -0.827934D-03 -0.255432D-01  0.186754D-01
     17  0.121002D-01  0.665118D-02 -0.329874D-01 -0.346322D-01  0.515644D-01
     18  0.664599D-02 -0.769529D-01  0.176218D-01  0.386787D-01 -0.106497D-01
     19  0.259845D-03 -0.412173D-03  0.135790D-02  0.148273D-02 -0.209285D-02
     20  0.788163D-03 -0.621264D-03  0.110997D-03  0.539511D-02 -0.363755D-03
     21 -0.154687D-02  0.641558D-02 -0.835717D-03 -0.392615D-02  0.329239D-02
     22  0.375792D-02 -0.180510D-03  0.209734D-02 -0.711473D-04  0.128323D-02
     23 -0.164371D-02  0.120610D-02 -0.122426D-02  0.918190D-03 -0.520632D-03
     24 -0.128947D-02  0.110089D-02  0.184661D-04  0.180273D-03  0.178268D-03
               16            17            18            19            20 
     16  0.116367D+00
     17  0.291508D-01  0.917429D-01
     18 -0.102715D+00 -0.641961D-01  0.335000D+00
     19 -0.801923D-02  0.482956D-02  0.740508D-02  0.979626D-01
     20  0.535110D-02 -0.127727D-03 -0.439962D-02  0.258998D-01  0.658038D-01
     21  0.657019D-02 -0.362074D-02 -0.189993D-02 -0.115786D+00 -0.668687D-01
     22  0.129934D-02  0.293862D-03  0.188872D-02  0.154717D-01  0.161445D-02
     23 -0.160649D-02 -0.285909D-03 -0.731839D-04  0.578515D-02  0.434230D-02
     24  0.664760D-04  0.286943D-03  0.105652D-02 -0.128798D-01  0.897592D-03
               21            22            23            24 
     21  0.328156D+00
     22  0.181519D-01  0.206560D+00
     23  0.978133D-02  0.311625D-01  0.570459D-01
     24 -0.400347D-01  0.138414D+00  0.280645D-01  0.194824D+00
 FormGI is forming the generalized inverse of G from B-inverse, IUseBI=4.
 Force constants in internal coordinates: 
                1             2             3             4             5 
      1  0.345268D+00
      2  0.275621D-02  0.289565D+00
      3  0.137999D-01  0.180438D-01  0.392066D+00
      4  0.226530D-02  0.275621D-02  0.137999D-01  0.345268D+00
      5  0.559705D-03  0.194654D-01  0.539348D-02 -0.712456D-04  0.405904D+00
      6 -0.712470D-04  0.194654D-01  0.539348D-02  0.559705D-03  0.576060D-01
      7  0.151272D-02  0.187443D-01  0.476414D-02  0.151272D-02  0.563499D-01
      8  0.734362D-02  0.125158D-01 -0.253334D-01 -0.843616D-02 -0.161793D-02
      9 -0.645745D-03 -0.118314D-01  0.140957D-01  0.124594D-02  0.904279D-03
     10  0.333815D-02 -0.142845D-01  0.215343D-02  0.333815D-02 -0.346810D-02
     11 -0.291052D-02  0.135237D-01  0.200235D-01 -0.291052D-02 -0.748166D-02
     12 -0.843616D-02  0.125158D-01 -0.253334D-01  0.734362D-02  0.122981D-01
     13  0.124594D-02 -0.118314D-01  0.140957D-01 -0.645744D-03 -0.661690D-03
     14 -0.265122D-02  0.166558D-01 -0.429606D-02  0.446080D-02  0.148673D-01
     15  0.446081D-02  0.166558D-01 -0.429606D-02 -0.265122D-02 -0.306958D-01
     16 -0.126188D-02  0.109100D-01  0.175397D-01 -0.126188D-02 -0.282303D-01
     17 -0.359131D-03 -0.174955D-01 -0.107472D-02 -0.359131D-03  0.207986D-01
     18  0.640659D-04 -0.145130D-01 -0.406034D-02 -0.304393D-03  0.211430D-01
     19 -0.304393D-03 -0.145130D-01 -0.406034D-02  0.640672D-04  0.390321D-02
     20 -0.152279D-02  0.614795D-03  0.174939D-01 -0.270385D-02 -0.106684D-02
     21 -0.690720D-03  0.183967D-02  0.994393D-02 -0.187178D-02  0.145162D-01
     22  0.859881D-03  0.122723D-02  0.137189D-01 -0.425445D-02 -0.180510D-01
     23 -0.345601D-02 -0.612436D-03  0.377499D-02  0.262394D-02  0.326391D-02
     24 -0.262394D-02  0.612436D-03 -0.377499D-02  0.345601D-02  0.188470D-01
     25 -0.107334D-02  0.000000D+00  0.000000D+00  0.107334D-02 -0.137202D-01
     26  0.187178D-02 -0.183967D-02 -0.994393D-02  0.690720D-03  0.106673D-02
     27  0.270385D-02 -0.614794D-03 -0.174939D-01  0.152279D-02  0.166498D-01
     28  0.425445D-02 -0.122723D-02 -0.137189D-01 -0.859880D-03 -0.159174D-01
                6             7             8             9            10 
      6  0.405904D+00
      7  0.563499D-01  0.392193D+00
      8  0.122981D-01 -0.313214D-02  0.112388D+00
      9 -0.661690D-03 -0.633978D-02 -0.459428D-01  0.724064D-01
     10 -0.346810D-02  0.439832D-03 -0.415106D-01  0.136026D-01  0.507723D-01
     11 -0.748166D-02  0.188389D-01 -0.175377D-01 -0.677702D-01  0.415623D-02
     12 -0.161793D-02 -0.313214D-02 -0.137848D-01  0.725672D-02 -0.415106D-01
     13  0.904279D-03 -0.633979D-02  0.725672D-02  0.184004D-01  0.136026D-01
     14 -0.306958D-01 -0.276278D-01 -0.106065D-01  0.633278D-02 -0.389477D-02
     15  0.148673D-01 -0.276278D-01  0.243645D-01 -0.445066D-02 -0.389477D-02
     16 -0.282303D-01  0.204940D-01 -0.963708D-02 -0.772730D-02  0.431624D-02
     17  0.207986D-01  0.439682D-02 -0.456456D-02  0.154210D-03  0.247846D-02
     18  0.390321D-02  0.165874D-01  0.384300D-02  0.206860D-02  0.618694D-03
     19  0.211430D-01  0.165874D-01 -0.371342D-02  0.388546D-02  0.618694D-03
     20 -0.166498D-01  0.185473D-01 -0.618776D-02  0.861413D-02 -0.493909D-02
     21 -0.106673D-02 -0.153652D-01 -0.223634D-02  0.101628D-01 -0.731345D-02
     22  0.159174D-01  0.159106D-02  0.188943D-02  0.718824D-02 -0.612627D-02
     23 -0.188470D-01  0.169563D-01 -0.793851D-02 -0.113729D-01  0.118718D-02
     24 -0.326391D-02 -0.169563D-01 -0.398709D-02 -0.982420D-02 -0.118718D-02
     25  0.137202D-01  0.000000D+00  0.138676D-03 -0.127988D-01  0.000000D+00
     26 -0.145162D-01  0.153652D-01  0.201535D-02  0.214558D-02  0.731344D-02
     27  0.106684D-02 -0.185473D-01  0.596677D-02  0.369427D-02  0.493909D-02
     28  0.180510D-01 -0.159106D-02  0.100925D-01  0.719696D-03  0.612627D-02
               11            12            13            14            15 
     11  0.169802D+00
     12 -0.175377D-01  0.112388D+00
     13 -0.677702D-01 -0.459428D-01  0.724064D-01
     14 -0.118267D-01  0.243645D-01 -0.445067D-02  0.181118D+00
     15 -0.118267D-01 -0.106065D-01  0.633278D-02 -0.502428D-02  0.181118D+00
     16  0.308441D-01 -0.963708D-02 -0.772730D-02  0.118247D-02  0.118247D-02
     17  0.636199D-02 -0.456456D-02  0.154210D-03 -0.933215D-01 -0.933215D-01
     18 -0.685242D-02 -0.371342D-02  0.388546D-02 -0.850851D-01 -0.800470D-02
     19 -0.685242D-02  0.384300D-02  0.206860D-02 -0.800470D-02 -0.850851D-01
     20  0.122418D-01 -0.596677D-02 -0.369427D-02 -0.226498D-02 -0.656935D-02
     21  0.352489D-02 -0.201536D-02 -0.214558D-02  0.312732D-02 -0.117706D-02
     22  0.788336D-02 -0.100925D-01 -0.719695D-03 -0.914697D-02  0.570493D-02
     23  0.435847D-02  0.398709D-02  0.982420D-02  0.348975D-02 -0.888204D-02
     24 -0.435847D-02  0.793851D-02  0.113729D-01  0.888204D-02 -0.348975D-02
     25  0.000000D+00 -0.138677D-03  0.127988D-01 -0.339224D-02  0.339224D-02
     26 -0.352489D-02  0.223634D-02 -0.101628D-01  0.117706D-02 -0.312731D-02
     27 -0.122418D-01  0.618776D-02 -0.861413D-02  0.656935D-02  0.226498D-02
     28 -0.788336D-02 -0.188943D-02 -0.718824D-02 -0.570493D-02  0.914697D-02
               16            17            18            19            20 
     16  0.181706D+00
     17 -0.933125D-02  0.129906D+00
     18 -0.920637D-01  0.374375D-01  0.120246D+00
     19 -0.920637D-01  0.374375D-01  0.376331D-01  0.120246D+00
     20  0.829450D-02 -0.160002D-01  0.179547D-01 -0.528384D-03  0.270418D-01
     21 -0.209173D-02  0.184124D-01 -0.297685D-03 -0.187808D-01 -0.608222D-05
     22  0.310138D-02  0.120611D-02 -0.186986D-01  0.178725D-01  0.706643D-03
     23  0.519311D-02 -0.172063D-01  0.171838D-01  0.106863D-02  0.130219D-01
     24 -0.519311D-02  0.172063D-01 -0.106863D-02 -0.171838D-01 -0.140260D-01
     25  0.000000D+00  0.000000D+00 -0.194695D-01  0.194695D-01 -0.133132D-01
     26  0.209173D-02 -0.184124D-01  0.187808D-01  0.297685D-03  0.138529D-01
     27 -0.829450D-02  0.160002D-01  0.528385D-03 -0.179547D-01 -0.131949D-01
     28 -0.310138D-02 -0.120611D-02 -0.178725D-01  0.186986D-01 -0.124822D-01
               21            22            23            24            25 
     21  0.252307D-01
     22 -0.198913D-03  0.275581D-01
     23 -0.131204D-01 -0.138799D-01  0.290863D-01
     24  0.121163D-01 -0.147854D-01  0.294401D-02  0.290863D-01
     25 -0.133132D-01  0.129716D-01  0.218456D-02  0.218456D-02  0.284694D-01
     26 -0.113838D-01 -0.115767D-01  0.121163D-01 -0.131204D-01 -0.133132D-01
     27  0.138529D-01 -0.124822D-01 -0.140260D-01  0.130219D-01 -0.133132D-01
     28 -0.115767D-01  0.152748D-01 -0.147854D-01 -0.138799D-01  0.129716D-01
               26            27            28 
     26  0.252307D-01
     27 -0.608232D-05  0.270418D-01
     28 -0.198913D-03  0.706642D-03  0.275581D-01
 Leave Link  716 at Thu Apr  2 15:19:24 2026, MaxMem=  1073741824 cpu:               0.1 elap:               0.0
 (Enter /Users/yarger/Applications/g16/l103.exe)

 GradGradGradGradGradGradGradGradGradGradGradGradGradGradGradGradGradGrad
 Berny optimization.
 Red2BG is reusing G-inverse.
 Internal  Forces:  Max     0.000014012 RMS     0.000004010
 Search for a local minimum.
 Step number   1 out of a maximum of    2
 All quantities printed in internal units (Hartrees-Bohrs-Radians)
 Second derivative matrix not updated -- analytic derivatives used.
 ITU=  0
     Eigenvalues ---    0.00284   0.05006   0.07124   0.09313   0.09902
     Eigenvalues ---    0.14254   0.14707   0.19861   0.23297   0.25159
     Eigenvalues ---    0.27157   0.34254   0.34458   0.36840   0.37354
     Eigenvalues ---    0.37741   0.42044   0.53943
 Angle between quadratic step and forces=  45.55 degrees.
 Linear search not attempted -- first point.
 Iteration  1 RMS(Cart)=  0.00001342 RMS(Int)=  0.00000000
 Iteration  2 RMS(Cart)=  0.00000000 RMS(Int)=  0.00000000
 ITry= 1 IFail=0 DXMaxC= 3.64D-05 DCOld= 1.00D+10 DXMaxT= 3.00D-01 DXLimC= 3.00D+00 Rises=F
 ClnCor:  largest displacement from symmetrization is 5.33D-09 for atom     5.
 Variable       Old X    -DE/DX   Delta X   Delta X   Delta X     New X
                                 (Linear)    (Quad)   (Total)
    R1        2.05845   0.00001   0.00000   0.00002   0.00002   2.05847
    R2        2.86589  -0.00000   0.00000   0.00000   0.00000   2.86589
    R3        2.58644  -0.00001   0.00000  -0.00005  -0.00005   2.58639
    R4        2.05845   0.00001   0.00000   0.00002   0.00002   2.05847
    R5        2.52018  -0.00001   0.00000  -0.00001  -0.00001   2.52017
    R6        2.52018  -0.00001   0.00000  -0.00001  -0.00001   2.52017
    R7        2.53448   0.00001   0.00000   0.00001   0.00001   2.53449
    A1        1.89752  -0.00000   0.00000  -0.00001  -0.00001   1.89751
    A2        1.91154   0.00000   0.00000   0.00003   0.00003   1.91156
    A3        1.93092  -0.00000   0.00000  -0.00004  -0.00004   1.93087
    A4        1.91468   0.00000   0.00000   0.00001   0.00001   1.91469
    A5        1.89752  -0.00000   0.00000  -0.00001  -0.00001   1.89751
    A6        1.91154   0.00000   0.00000   0.00003   0.00003   1.91156
    A7        1.95403  -0.00000   0.00000  -0.00002  -0.00002   1.95401
    A8        1.95403  -0.00000   0.00000  -0.00002  -0.00002   1.95401
    A9        1.89896   0.00000   0.00000   0.00002   0.00002   1.89898
   A10        1.88272   0.00000   0.00000  -0.00001  -0.00001   1.88271
   A11        1.88589   0.00000   0.00000   0.00001   0.00001   1.88590
   A12        1.88589   0.00000   0.00000   0.00001   0.00001   1.88590
    D1        1.03153   0.00000   0.00000   0.00005   0.00005   1.03158
    D2       -3.13481  -0.00000   0.00000   0.00001   0.00001  -3.13480
    D3       -1.05164   0.00000   0.00000   0.00003   0.00003  -1.05161
    D4       -1.05842   0.00000   0.00000   0.00002   0.00002  -1.05840
    D5        1.05842  -0.00000   0.00000  -0.00002  -0.00002   1.05840
    D6        3.14159  -0.00000   0.00000  -0.00000   0.00000   3.14159
    D7        3.13481   0.00000   0.00000  -0.00001  -0.00001   3.13480
    D8       -1.03153  -0.00000   0.00000  -0.00005  -0.00005  -1.03158
    D9        1.05164  -0.00000   0.00000  -0.00003  -0.00003   1.05161
         Item               Value     Threshold  Converged?
 Maximum Force            0.000014     0.000015     YES
 RMS     Force            0.000004     0.000010     YES
 Maximum Displacement     0.000036     0.000060     YES
 RMS     Displacement     0.000013     0.000040     YES
 Predicted change in Energy=-9.642488D-10
 Optimization completed.
    -- Stationary point found.
                           ----------------------------
                           !   Optimized Parameters   !
                           ! (Angstroms and Degrees)  !
 --------------------------                            --------------------------
 ! Name  Definition              Value          Derivative Info.                !
 --------------------------------------------------------------------------------
 ! R1    R(1,2)                  1.0893         -DE/DX =    0.0                 !
 ! R2    R(1,3)                  1.5166         -DE/DX =    0.0                 !
 ! R3    R(1,7)                  1.3687         -DE/DX =    0.0                 !
 ! R4    R(1,8)                  1.0893         -DE/DX =    0.0                 !
 ! R5    R(3,4)                  1.3336         -DE/DX =    0.0                 !
 ! R6    R(3,5)                  1.3336         -DE/DX =    0.0                 !
 ! R7    R(3,6)                  1.3412         -DE/DX =    0.0                 !
 ! A1    A(2,1,3)              108.7197         -DE/DX =    0.0                 !
 ! A2    A(2,1,7)              109.523          -DE/DX =    0.0                 !
 ! A3    A(2,1,8)              110.6334         -DE/DX =    0.0                 !
 ! A4    A(3,1,7)              109.7029         -DE/DX =    0.0                 !
 ! A5    A(3,1,8)              108.7197         -DE/DX =    0.0                 !
 ! A6    A(7,1,8)              109.523          -DE/DX =    0.0                 !
 ! A7    A(1,3,4)              111.9576         -DE/DX =    0.0                 !
 ! A8    A(1,3,5)              111.9576         -DE/DX =    0.0                 !
 ! A9    A(1,3,6)              108.8026         -DE/DX =    0.0                 !
 ! A10   A(4,3,5)              107.8719         -DE/DX =    0.0                 !
 ! A11   A(4,3,6)              108.0534         -DE/DX =    0.0                 !
 ! A12   A(5,3,6)              108.0534         -DE/DX =    0.0                 !
 ! D1    D(2,1,3,4)             59.1021         -DE/DX =    0.0                 !
 ! D2    D(2,1,3,5)           -179.6116         -DE/DX =    0.0                 !
 ! D3    D(2,1,3,6)            -60.2547         -DE/DX =    0.0                 !
 ! D4    D(7,1,3,4)            -60.6431         -DE/DX =    0.0                 !
 ! D5    D(7,1,3,5)             60.6431         -DE/DX =    0.0                 !
 ! D6    D(7,1,3,6)            180.0            -DE/DX =    0.0                 !
 ! D7    D(8,1,3,4)            179.6116         -DE/DX =    0.0                 !
 ! D8    D(8,1,3,5)            -59.1021         -DE/DX =    0.0                 !
 ! D9    D(8,1,3,6)             60.2547         -DE/DX =    0.0                 !
 --------------------------------------------------------------------------------
 GradGradGradGradGradGradGradGradGradGradGradGradGradGradGradGradGradGrad

 Leave Link  103 at Thu Apr  2 15:19:24 2026, MaxMem=  1073741824 cpu:               0.0 elap:               0.0
 (Enter /Users/yarger/Applications/g16/l9999.exe)

 ----------------------------------------------------------------------

 Electric dipole moment (input orientation):
 (Debye = 10**-18 statcoulomb cm , SI units = C m)
                  (au)            (Debye)         (10**-30 SI)
   Tot        0.827062D+00      0.210218D+01      0.701213D+01
   x         -0.367378D+00     -0.933782D+00     -0.311476D+01
   y          0.607643D+00      0.154447D+01      0.515181D+01
   z         -0.424070D+00     -0.107788D+01     -0.359541D+01

 Dipole polarizability, Alpha (input orientation).
 (esu units = cm**3 , SI units = C**2 m**2 J**-1)
 Alpha(0;0):
               (au)            (10**-24 esu)      (10**-40 SI)
   iso        0.287627D+02      0.426220D+01      0.474233D+01
   aniso      0.190394D+01      0.282135D+00      0.313917D+00
   xx         0.286048D+02      0.423879D+01      0.471629D+01
   yx        -0.271149D+00     -0.401802D-01     -0.447065D-01
   yy         0.282222D+02      0.418211D+01      0.465322D+01
   zx        -0.799584D+00     -0.118486D+00     -0.131834D+00
   zy        -0.305026D+00     -0.452001D-01     -0.502919D-01
   zz         0.294612D+02      0.436569D+01      0.485749D+01

 First dipole hyperpolarizability, Beta (input orientation).
 ||, _|_  parallel and perpendicular components, (z) with respect to z axis,
 vector components x,y,z.  Values do not include the 1/n! factor of 1/2.
 (esu units = statvolt**-1 cm**4 , SI units = C**3 m**3 J**-2)
 Beta(0;0,0):
               (au)            (10**-30 esu)      (10**-50 SI)
   || (z)    -0.286595D+02     -0.247596D+00     -0.918929D-01
   _|_(z)    -0.955318D+01     -0.825321D-01     -0.306310D-01
   x         -0.789698D+02     -0.682238D+00     -0.253206D+00
   y          0.163188D+03      0.140982D+01      0.523240D+00
   z         -0.143298D+03     -0.123798D+01     -0.459464D+00
   ||         0.462172D+02      0.399281D+00      0.148189D+00
   xxx       -0.168205D+02     -0.145316D+00     -0.539327D-01
   xxy        0.651249D+01      0.562628D-01      0.208814D-01
   yxy        0.266558D+01      0.230286D-01      0.854683D-02
   yyy        0.432142D+02      0.373337D+00      0.138560D+00
   xxz       -0.162061D+02     -0.140008D+00     -0.519626D-01
   yxz        0.585382D-01      0.505725D-03      0.187695D-03
   yyz       -0.753013D+01     -0.650545D-01     -0.241443D-01
   zxz       -0.121683D+02     -0.105125D+00     -0.390160D-01
   zyz        0.466929D+01      0.403390D-01      0.149714D-01
   zzz       -0.240297D+02     -0.207598D+00     -0.770479D-01

 ----------------------------------------------------------------------

 Dipole orientation:
     6         -3.11261045         -3.12373737          1.80549119
     1         -2.11789753         -4.50432959          2.96382116
     6         -1.29209266         -2.07688670         -0.14466979
     9         -0.35391152         -3.88741033         -1.62558501
     9         -2.38496805         -0.35531676         -1.62558501
     9          0.64212704         -0.96465411          1.05755089
     9         -5.10294787         -4.26823928          0.61455388
     1         -3.80546944         -1.56957037          2.96382116

 Electric dipole moment (dipole orientation):
 (Debye = 10**-18 statcoulomb cm , SI units = C m)
                  (au)            (Debye)         (10**-30 SI)
   Tot        0.827062D+00      0.210218D+01      0.701213D+01
   x          0.000000D+00      0.000000D+00      0.000000D+00
   y          0.000000D+00      0.000000D+00      0.000000D+00
   z          0.827062D+00      0.210218D+01      0.701213D+01

 Dipole polarizability, Alpha (dipole orientation).
 (esu units = cm**3 , SI units = C**2 m**2 J**-1)
 Alpha(0;0):
               (au)            (10**-24 esu)      (10**-40 SI)
   iso        0.287627D+02      0.426220D+01      0.474233D+01
   aniso      0.190394D+01      0.282135D+00      0.313917D+00
   xx         0.293304D+02      0.434631D+01      0.483593D+01
   yx         0.892234D+00      0.132216D+00      0.147110D+00
   yy         0.282918D+02      0.419241D+01      0.466469D+01
   zx         0.319190D+00      0.472991D-01      0.526274D-01
   zy         0.183544D+00      0.271984D-01      0.302623D-01
   zz         0.286660D+02      0.424786D+01      0.472639D+01

 First dipole hyperpolarizability, Beta (dipole orientation).
 ||, _|_  parallel and perpendicular components, (z) with respect to z axis,
 vector components x,y,z.  Values do not include the 1/n! factor of 1/2.
 (esu units = statvolt**-1 cm**4 , SI units = C**3 m**3 J**-2)
 Beta(0;0,0):
               (au)            (10**-30 esu)      (10**-50 SI)
   || (z)     0.456895D+02      0.394721D+00      0.146497D+00
   _|_(z)     0.152298D+02      0.131574D+00      0.488323D-01
   x          0.301882D+02      0.260802D+00      0.967942D-01
   y          0.173591D+02      0.149969D+00      0.556595D-01
   z          0.228447D+03      0.197361D+01      0.732484D+00
   ||         0.462172D+02      0.399281D+00      0.148189D+00
   xxx        0.609135D+01      0.526245D-01      0.195311D-01
   xxy       -0.107226D+00     -0.926351D-03     -0.343806D-03
   yxy        0.203935D+01      0.176184D-01      0.653888D-02
   yyy        0.478261D+01      0.413180D-01      0.153348D-01
   xxz        0.120756D+02      0.104324D+00      0.387188D-01
   yxz       -0.947838D+01     -0.818858D-01     -0.303911D-01
   yyz        0.231086D+02      0.199640D+00      0.740945D-01
   zxz        0.193202D+01      0.166912D-01      0.619477D-02
   zyz        0.111097D+01      0.959792D-02      0.356217D-02
   zzz        0.409649D+02      0.353904D+00      0.131348D+00

 ----------------------------------------------------------------------
 1\1\GINC-MACBOOKPRO\Freq\RwB97XD\6-311++G(2d,3p)\C2H2F4\ROOT\02-Apr-20
 26\0\\#P Geom=AllCheck Guess=TCheck SCRF=Check GenChk RwB97XD/6-311++G
 (2d,3p) Freq\\r134a - 1,1,1,2-Tetrafluoroethane\\0,1\C,-1.5000684263,1
 .4097834604,1.4562275129\H,-1.1570103323,2.4435744918,1.4448761072\C,-
 0.3234556968,0.503121675,1.1504371998\F,0.6630486019,0.6506839744,2.03
 5635966\F,-0.6747840058,-0.7833455674,1.1398224633\F,0.1570184776,0.81
 2791588,-0.062839691\F,-2.0053337863,1.1090768252,2.6921797164\H,-2.26
 85937356,1.252062617,0.7005592052\\Version=EM64M-G16RevA.03\State=1-A'
 \HF=-476.8153892\RMSD=1.745e-09\RMSF=7.433e-06\ZeroPoint=0.0455835\The
 rmal=0.0510358\Dipole=-0.3673783,0.607643,-0.4240696\DipoleDeriv=0.354
 6112,0.0937956,-0.2119166,0.1118411,0.2746314,-0.1052027,-0.240804,-0.
 0782531,0.7981435,0.0469681,-0.0389568,0.0322811,-0.0438621,-0.0442599
 ,0.0306184,0.0213877,-0.0360135,0.0436326,1.5158452,0.121586,0.0895889
 ,0.1451568,1.6069066,-0.0578909,0.0518564,-0.0226895,1.6650405,-0.7276
 816,-0.0349398,-0.3639171,0.016521,-0.3248601,-0.0307272,-0.2935834,-0
 .0620159,-0.5738183,-0.370357,-0.0731653,0.0093707,-0.1618638,-0.96760
 47,-0.0065137,-0.0013524,-0.0308368,-0.2883982,-0.4307816,-0.0513142,0
 .2818043,-0.0042462,-0.3475392,0.0871023,0.2064573,0.1573949,-0.857378
 ,-0.3795967,-0.0149264,0.2332557,-0.0363443,-0.2747166,0.1107997,0.267
 5417,0.0788136,-0.7651282,-0.0090076,-0.002079,-0.0704671,-0.0272024,0
 .0774423,-0.028186,-0.0115033,-0.0063997,-0.0220939\Polar=28.604792,-0
 .2711491,28.2222484,-0.799584,-0.3050257,29.4611538\PolarDeriv=0.37368
 03,1.313408,-2.877355,1.2127604,-0.1579232,2.8432499,0.9954647,-2.1976
 622,-4.1530311,-0.1328465,0.1559524,0.4375973,2.6562251,-0.2442917,1.5
 605332,3.4288464,0.7183672,-0.3697285,1.0114855,1.1536491,1.8307586,-0
 .4270472,-0.0573457,0.1791257,1.4770291,0.9091732,7.80567,-0.0782692,-
 0.1277029,1.3873597,-0.2638585,-0.0640247,-0.2099701,-0.0936606,1.2034
 12,0.0714634,0.0693379,-0.940181,1.9307264,-0.8465176,0.2892327,-1.552
 0122,-1.1075291,1.0958156,2.0112693,-0.0402513,-0.0910705,-0.662886,-1
 .5131585,0.6240379,-0.3580025,-1.6503352,-0.5427903,0.8164649,4.478044
 7,0.2666069,0.5568341,1.9381815,-0.0191063,1.4080219,0.2260744,1.39495
 94,0.3092717,0.2263804,1.1038225,0.2408301,1.8292932,0.0959321,0.61195
 96,2.1750894,0.0882235,3.5027518,-0.9345127,-1.8631593,-1.0351287,-0.0
 764553,-0.0038167,-0.2539963,-0.8019119,-0.7843802,-6.6600908,0.030406
 3,-0.1320859,-1.0515275,0.0651303,-0.0754255,0.0986883,-0.352823,-1.66
 01228,-0.0229334,1.8309069,0.4896493,0.2534722,-1.9872415,-0.1023952,1
 .2237629,0.2779312,0.7479235,0.8397357,-0.2121017,-1.6102733,0.6881532
 ,-1.1664475,-0.3773974,-0.7101057,1.7220451,0.6253503,-5.9546966,-2.17
 06632,-0.2937474,0.1803605,2.391751,0.0081094,-1.4415169,-0.3711077,-0
 .5959147,-0.3801099,0.2780557,1.5447136,-0.4666679,1.2239206,-0.133766
 6,0.0678078,-2.738553,-0.2619187,5.783052,-4.6582797,-0.1262255,-0.839
 6682,-2.2054314,0.043245,-2.4066345,-0.6959507,-0.5699145,0.2272848,-0
 .0713738,-0.8433562,-0.5728586,-2.8311052,0.1749359,-1.0609105,-2.4906
 092,-0.1705211,-3.8263735\HyperPolar=-16.8205385,6.5124876,2.6655842,4
 3.2142337,-16.2060821,0.0585382,-7.5301322,-12.168324,4.6692908,-24.02
 9697\Quadrupole=0.0277742,1.4778936,-1.5056678,-0.6310713,1.8891014,-0
 .4368401\PG=CS [SG(C2F2),X(H2F2)]\NImag=0\\0.56120260,0.05044683,0.597
 37937,0.05539492,0.01268986,0.54932690,-0.08078073,-0.07776693,-0.0055
 4560,0.08081165,-0.07470280,-0.29710170,-0.00761404,0.08538212,0.31776
 477,-0.00611595,-0.01570252,-0.04904047,-0.00447092,0.00146645,0.05985
 311,-0.15662255,0.06499896,0.01995378,0.01042999,-0.01114286,-0.005875
 11,0.59246605,0.07279417,-0.12431128,-0.02751559,0.02414310,-0.0204996
 1,-0.00340874,-0.05063884,0.57172042,0.00747510,-0.01587400,-0.0593410
 0,0.00035496,-0.00112063,0.00168167,-0.00853281,0.01279677,0.52473034,
 -0.03406992,-0.00403287,-0.04055675,0.00073055,0.00014133,0.00033344,-
 0.21207431,0.00697831,-0.08859080,0.25173458,0.01668157,0.00753536,0.0
 1436879,-0.00167407,0.00223421,0.00042559,-0.00028026,-0.07876168,-0.0
 0484301,0.02942913,0.08240974,-0.00884417,-0.00187299,-0.00812440,0.00
 012887,0.00013742,0.00022904,-0.09936113,-0.00128259,-0.14407803,0.163
 51809,0.02214308,0.22359239,0.00994645,0.02275000,0.00107473,-0.003348
 96,0.00310316,0.00189655,-0.08476803,-0.02647050,-0.00065100,-0.022249
 69,-0.05179040,-0.02260473,0.09779292,-0.01671398,-0.05012676,0.005039
 43,0.00765946,-0.00302590,-0.00182691,-0.01392966,-0.27551891,-0.01109
 339,-0.03939260,-0.02466229,-0.02636093,0.08650837,0.38165275,-0.00062
 334,-0.00671988,0.00552135,0.00137738,-0.00059989,0.00017636,0.0016633
 9,-0.00676511,-0.07462709,-0.02376304,-0.03590411,-0.00218260,0.003479
 86,-0.00069107,0.07829104,-0.00510208,-0.01034510,0.03400647,0.0002631
 1,0.00116981,0.00002428,-0.12272321,-0.00179325,0.07561649,0.01874282,
 0.00361626,-0.03224425,-0.00082793,-0.02554318,0.01867537,0.11636719,0
 .00460814,0.00885859,-0.01053000,-0.00126724,0.00220727,-0.00005985,-0
 .00705651,-0.07986319,0.01990417,0.00242870,0.01210022,0.00665118,-0.0
 3298737,-0.03463220,0.05156443,0.02915085,0.09174295,0.01006912,0.0118
 0159,-0.02734994,-0.00093880,-0.00050125,-0.00040044,0.08404199,0.0120
 4387,-0.21880316,-0.01737292,0.00664599,-0.07695287,0.01762184,0.03867
 874,-0.01064970,-0.10271502,-0.06419614,0.33499952,-0.09526264,-0.0182
 8455,0.06979491,-0.00435170,-0.00431506,0.01880176,-0.01000036,-0.0156
 5745,0.03516894,0.00284165,0.00025985,-0.00041217,0.00135790,0.0014827
 3,-0.00209285,-0.00801923,0.00482956,0.00740508,0.09796265,-0.01948612
 ,-0.07894537,0.04641892,-0.01415433,-0.00061006,0.03852665,0.00203771,
 0.00335382,-0.01358986,-0.00137358,0.00078816,-0.00062126,0.00011100,0
 .00539511,-0.00036376,0.00535110,-0.00012773,-0.00439962,0.02589978,0.
 06580376,0.07171839,0.04462447,-0.24666887,0.01019743,0.00872003,-0.01
 525895,0.00684230,0.01283659,-0.03400196,0.00314139,-0.00154687,0.0064
 1558,-0.00083572,-0.00392615,0.00329239,0.00657019,-0.00362074,-0.0018
 9993,-0.11578589,-0.06686866,0.32815649,-0.19931114,-0.02776634,-0.134
 12245,-0.00375391,0.00036430,-0.00459406,-0.01670759,-0.00935554,-0.02
 084088,-0.00565569,0.00375792,-0.00018051,0.00209734,-0.00007115,0.001
 28323,0.00129934,0.00029386,0.00188872,0.01547173,0.00161445,0.0181519
 0,0.20655992,-0.03362781,-0.06328820,-0.03285738,-0.02232210,-0.000968
 98,-0.01942067,0.01601145,0.00388043,0.01381994,0.00582157,-0.00164371
 ,0.00120610,-0.00122426,0.00091819,-0.00052063,-0.00160649,-0.00028591
 ,-0.00007318,0.00578515,0.00434230,0.00978133,0.03116249,0.05704588,-0
 .12907408,-0.02894654,-0.16432356,-0.00110332,-0.00048809,0.00275968,0
 .00126759,0.00129480,0.00443922,0.00329058,-0.00128947,0.00110089,0.00
 001847,0.00018027,0.00017827,0.00006648,0.00028694,0.00105652,-0.01287
 978,0.00089759,-0.04003474,0.13841406,0.02806449,0.19482373\\0.0000039
 3,0.00001136,-0.00002406,-0.00000247,-0.00000546,0.00000537,-0.0000043
 3,0.00000380,0.00000039,0.00000799,0.00000200,-0.00000187,0.00000115,-
 0.00000533,-0.00000645,-0.00000424,0.00000130,0.00000425,-0.00000319,-
 0.00000611,0.00001455,0.00000117,-0.00000156,0.00000781\\\@


 I WANT IT ALL - RICH, THIN, AND CHOCOLATE.
 Job cpu time:       0 days  0 hours  4 minutes 43.8 seconds.
 Elapsed time:       0 days  0 hours  1 minutes 11.6 seconds.
 File lengths (MBytes):  RWF=     31 Int=      0 D2E=      0 Chk=      4 Scr=      1
 Normal termination of Gaussian 16 at Thu Apr  2 15:19:24 2026.
