 Entering Gaussian System, Link 0=g16
 Input=/Users/yarger/Downloads/1112Tetrafluoroethane_Opt_Freq_HF_631pd_Gaussian16.gjf
 Output=/Users/yarger/Downloads/1112Tetrafluoroethane_Opt_Freq_HF_631pd_Gaussian16.log
 Initial command:
 /Users/yarger/Applications/g16/l1.exe "/Users/yarger/Applications/scratch/Gau-82858.inp" -scrdir="/Users/yarger/Applications/scratch/"
 Entering Link 1 = /Users/yarger/Applications/g16/l1.exe PID=     82859.
  
 Copyright (c) 1988,1990,1992,1993,1995,1998,2003,2009,2016,
            Gaussian, Inc.  All Rights Reserved.
  
 This is part of the Gaussian(R) 16 program.  It is based on
 the Gaussian(R) 09 system (copyright 2009, Gaussian, Inc.),
 the Gaussian(R) 03 system (copyright 2003, Gaussian, Inc.),
 the Gaussian(R) 98 system (copyright 1998, Gaussian, Inc.),
 the Gaussian(R) 94 system (copyright 1995, Gaussian, Inc.),
 the Gaussian 92(TM) system (copyright 1992, Gaussian, Inc.),
 the Gaussian 90(TM) system (copyright 1990, Gaussian, Inc.),
 the Gaussian 88(TM) system (copyright 1988, Gaussian, Inc.),
 the Gaussian 86(TM) system (copyright 1986, Carnegie Mellon
 University), and the Gaussian 82(TM) system (copyright 1983,
 Carnegie Mellon University). Gaussian is a federally registered
 trademark of Gaussian, Inc.
  
 This software contains proprietary and confidential information,
 including trade secrets, belonging to Gaussian, Inc.
  
 This software is provided under written license and may be
 used, copied, transmitted, or stored only in accord with that
 written license.
  
 The following legend is applicable only to US Government
 contracts under FAR:
  
                    RESTRICTED RIGHTS LEGEND
  
 Use, reproduction and disclosure by the US Government is
 subject to restrictions as set forth in subparagraphs (a)
 and (c) of the Commercial Computer Software - Restricted
 Rights clause in FAR 52.227-19.
  
 Gaussian, Inc.
 340 Quinnipiac St., Bldg. 40, Wallingford CT 06492
  
  
 ---------------------------------------------------------------
 Warning -- This program may not be used in any manner that
 competes with the business of Gaussian, Inc. or will provide
 assistance to any competitor of Gaussian, Inc.  The licensee
 of this program is prohibited from giving any competitor of
 Gaussian, Inc. access to this program.  By using this program,
 the user acknowledges that Gaussian, Inc. is engaged in the
 business of creating and licensing software in the field of
 computational chemistry and represents and warrants to the
 licensee that it is not a competitor of Gaussian, Inc. and that
 it will not use this program in any manner prohibited above.
 ---------------------------------------------------------------
  

 Cite this work as:
 Gaussian 16, Revision A.03,
 M. J. Frisch, G. W. Trucks, H. B. Schlegel, G. E. Scuseria, 
 M. A. Robb, J. R. Cheeseman, G. Scalmani, V. Barone, 
 G. A. Petersson, H. Nakatsuji, X. Li, M. Caricato, A. V. Marenich, 
 J. Bloino, B. G. Janesko, R. Gomperts, B. Mennucci, H. P. Hratchian, 
 J. V. Ortiz, A. F. Izmaylov, J. L. Sonnenberg, D. Williams-Young, 
 F. Ding, F. Lipparini, F. Egidi, J. Goings, B. Peng, A. Petrone, 
 T. Henderson, D. Ranasinghe, V. G. Zakrzewski, J. Gao, N. Rega, 
 G. Zheng, W. Liang, M. Hada, M. Ehara, K. Toyota, R. Fukuda, 
 J. Hasegawa, M. Ishida, T. Nakajima, Y. Honda, O. Kitao, H. Nakai, 
 T. Vreven, K. Throssell, J. A. Montgomery, Jr., J. E. Peralta, 
 F. Ogliaro, M. J. Bearpark, J. J. Heyd, E. N. Brothers, K. N. Kudin, 
 V. N. Staroverov, T. A. Keith, R. Kobayashi, J. Normand, 
 K. Raghavachari, A. P. Rendell, J. C. Burant, S. S. Iyengar, 
 J. Tomasi, M. Cossi, J. M. Millam, M. Klene, C. Adamo, R. Cammi, 
 J. W. Ochterski, R. L. Martin, K. Morokuma, O. Farkas, 
 J. B. Foresman, and D. J. Fox, Gaussian, Inc., Wallingford CT, 2016.
 
 ******************************************
 Gaussian 16:  EM64M-G16RevA.03 25-Dec-2016
                 2-Apr-2026 
 ******************************************
 %nprocshared=4
 Will use up to    4 processors via shared memory.
 %mem=8GB
 %chk=1112Tetrafluoroethane_Opt_Freq_HF_631pd_Gaussian16.chk
 ----------------------------------------------------------------------
 #p opt=tight freq=raman hf/6-31+g(d) guess=save geom=connectivity pola
 r
 ----------------------------------------------------------------------
 1/7=10,18=20,19=15,38=1,57=2/1,3;
 2/9=110,12=2,17=6,18=5,40=1/2;
 3/5=1,6=6,7=11,11=9,25=1,30=1,71=1/1,2,3;
 4//1;
 5/5=2,38=5,98=1/2;
 6/7=2,8=2,9=2,10=2,28=1/1;
 7//1,2,3,16;
 1/7=10,18=20,19=15/3(2);
 2/9=110/2;
 99//99;
 2/9=110/2;
 3/5=1,6=6,7=11,11=9,25=1,30=1,71=1/1,2,3;
 4/5=5,16=3,69=1/1;
 5/5=2,38=5,98=1/2;
 7//1,2,3,16;
 1/7=10,18=20,19=15/3(-5);
 2/9=110/2;
 6/7=2,8=2,9=2,10=2,19=2,28=1/1;
 99/9=1/99;
 Leave Link    1 at Thu Apr  2 15:07:40 2026, MaxMem=  1073741824 cpu:               0.1 elap:               0.0
 (Enter /Users/yarger/Applications/g16/l101.exe)
 ---------------------------------
 r134a - 1,1,1,2-Tetrafluoroethane
 ---------------------------------
 Symbolic Z-matrix:
 Charge =  0 Multiplicity = 1
 C                    -1.50144   1.41061   1.45695 
 H                    -1.18245   2.43192   1.44839 
 C                    -0.30505   0.49643   1.13366 
 F                     0.66039   0.67411   2.06041 
 F                    -0.70751  -0.79214   1.14446 
 F                     0.18076   0.80592  -0.08728 
 F                    -1.98724   1.10112   2.6779 
 H                    -2.26664   1.26978   0.72242 
 
 ITRead=  0  0  0  0  0  0  0  0
 MicOpt= -1 -1 -1 -1 -1 -1 -1 -1
 NAtoms=      8 NQM=        8 NQMF=       0 NMMI=      0 NMMIF=      0
                NMic=       0 NMicF=      0.
                    Isotopes and Nuclear Properties:
 (Nuclear quadrupole moments (NQMom) in fm**2, nuclear magnetic moments (NMagM)
  in nuclear magnetons)

  Atom         1           2           3           4           5           6           7           8
 IAtWgt=          12           1          12          19          19          19          19           1
 AtmWgt=  12.0000000   1.0078250  12.0000000  18.9984033  18.9984033  18.9984033  18.9984033   1.0078250
 NucSpn=           0           1           0           1           1           1           1           1
 AtZEff=  -0.0000000  -0.0000000  -0.0000000  -0.0000000  -0.0000000  -0.0000000  -0.0000000  -0.0000000
 NQMom=    0.0000000   0.0000000   0.0000000   0.0000000   0.0000000   0.0000000   0.0000000   0.0000000
 NMagM=    0.0000000   2.7928460   0.0000000   2.6288670   2.6288670   2.6288670   2.6288670   2.7928460
 AtZNuc=   6.0000000   1.0000000   6.0000000   9.0000000   9.0000000   9.0000000   9.0000000   1.0000000
 Leave Link  101 at Thu Apr  2 15:07:40 2026, MaxMem=  1073741824 cpu:               0.7 elap:               0.2
 (Enter /Users/yarger/Applications/g16/l103.exe)

 GradGradGradGradGradGradGradGradGradGradGradGradGradGradGradGradGradGrad
 Berny optimization.
 Initialization pass.
                           ----------------------------
                           !    Initial Parameters    !
                           ! (Angstroms and Degrees)  !
 --------------------------                            --------------------------
 ! Name  Definition              Value          Derivative Info.                !
 --------------------------------------------------------------------------------
 ! R1    R(1,2)                  1.07           estimate D2E/DX2                !
 ! R2    R(1,3)                  1.54           estimate D2E/DX2                !
 ! R3    R(1,7)                  1.35           estimate D2E/DX2                !
 ! R4    R(1,8)                  1.07           estimate D2E/DX2                !
 ! R5    R(3,4)                  1.35           estimate D2E/DX2                !
 ! R6    R(3,5)                  1.35           estimate D2E/DX2                !
 ! R7    R(3,6)                  1.35           estimate D2E/DX2                !
 ! A1    A(2,1,3)              109.4712         estimate D2E/DX2                !
 ! A2    A(2,1,7)              109.4712         estimate D2E/DX2                !
 ! A3    A(2,1,8)              109.4712         estimate D2E/DX2                !
 ! A4    A(3,1,7)              109.4712         estimate D2E/DX2                !
 ! A5    A(3,1,8)              109.4712         estimate D2E/DX2                !
 ! A6    A(7,1,8)              109.4712         estimate D2E/DX2                !
 ! A7    A(1,3,4)              109.4712         estimate D2E/DX2                !
 ! A8    A(1,3,5)              109.4712         estimate D2E/DX2                !
 ! A9    A(1,3,6)              109.4712         estimate D2E/DX2                !
 ! A10   A(4,3,5)              109.4712         estimate D2E/DX2                !
 ! A11   A(4,3,6)              109.4712         estimate D2E/DX2                !
 ! A12   A(5,3,6)              109.4712         estimate D2E/DX2                !
 ! D1    D(2,1,3,4)             60.0            estimate D2E/DX2                !
 ! D2    D(2,1,3,5)            180.0            estimate D2E/DX2                !
 ! D3    D(2,1,3,6)            -60.0            estimate D2E/DX2                !
 ! D4    D(7,1,3,4)            -60.0            estimate D2E/DX2                !
 ! D5    D(7,1,3,5)             60.0            estimate D2E/DX2                !
 ! D6    D(7,1,3,6)            180.0            estimate D2E/DX2                !
 ! D7    D(8,1,3,4)           -180.0            estimate D2E/DX2                !
 ! D8    D(8,1,3,5)            -60.0            estimate D2E/DX2                !
 ! D9    D(8,1,3,6)             60.0            estimate D2E/DX2                !
 --------------------------------------------------------------------------------
 Trust Radius=3.00D-01 FncErr=1.00D-07 GrdErr=1.00D-07 EigMax=2.50D+02 EigMin=1.00D-04
 Number of steps in this run=     38 maximum allowed number of steps=    100.
 GradGradGradGradGradGradGradGradGradGradGradGradGradGradGradGradGradGrad

 Leave Link  103 at Thu Apr  2 15:07:40 2026, MaxMem=  1073741824 cpu:               0.0 elap:               0.0
 (Enter /Users/yarger/Applications/g16/l202.exe)
                          Input orientation:                          
 ---------------------------------------------------------------------
 Center     Atomic      Atomic             Coordinates (Angstroms)
 Number     Number       Type             X           Y           Z
 ---------------------------------------------------------------------
      1          6           0       -1.501439    1.410611    1.456949
      2          1           0       -1.182454    2.431922    1.448389
      3          6           0       -0.305047    0.496427    1.133662
      4          9           0        0.660391    0.674113    2.060407
      5          9           0       -0.707506   -0.792142    1.144463
      6          9           0        0.180758    0.805915   -0.087285
      7          9           0       -1.987244    1.101123    2.677896
      8          1           0       -2.266638    1.269779    0.722418
 ---------------------------------------------------------------------
                    Distance matrix (angstroms):
                    1          2          3          4          5
     1  C    0.000000
     2  H    1.070000   0.000000
     3  C    1.540000   2.148263   0.000000
     4  F    2.362224   2.619262   1.350000   0.000000
     5  F    2.362224   3.273001   1.350000   2.204541   0.000000
     6  F    2.362224   2.619262   1.350000   2.204541   2.204541
     7  F    1.350000   1.982524   2.362224   2.752017   2.752017
     8  H    1.070000   1.747303   2.148263   3.273001   2.619262
                    6          7          8
     6  F    0.000000
     7  F    3.526131   0.000000
     8  H    2.619262   1.982524   0.000000
 Stoichiometry    C2H2F4
 Framework group  CS[SG(C2F2),X(H2F2)]
 Deg. of freedom    11
 Full point group                 CS      NOp   2
 Largest Abelian subgroup         CS      NOp   2
 Largest concise Abelian subgroup CS      NOp   2
                         Standard orientation:                         
 ---------------------------------------------------------------------
 Center     Atomic      Atomic             Coordinates (Angstroms)
 Number     Number       Type             X           Y           Z
 ---------------------------------------------------------------------
      1          6           0        0.803253   -0.868125   -0.000000
      2          1           0        1.420351   -0.896813   -0.873651
      3          6           0       -0.026516    0.429212    0.000000
      4          9           0       -0.805098    0.465407   -1.102270
      5          9           0       -0.805098    0.465407    1.102270
      6          9           0        0.803253    1.494099   -0.000000
      7          9           0       -0.026516   -1.933012   -0.000000
      8          1           0        1.420351   -0.896813    0.873651
 ---------------------------------------------------------------------
 Rotational constants (GHZ):           5.2497613           2.7740143           2.7610135
 Leave Link  202 at Thu Apr  2 15:07:40 2026, MaxMem=  1073741824 cpu:               0.0 elap:               0.0
 (Enter /Users/yarger/Applications/g16/l301.exe)
 Standard basis: 6-31+G(d) (6D, 7F)
 Ernie: Thresh=  0.10000D-02 Tol=  0.10000D-05 Strict=F.
 There are    77 symmetry adapted cartesian basis functions of A'  symmetry.
 There are    41 symmetry adapted cartesian basis functions of A"  symmetry.
 There are    77 symmetry adapted basis functions of A'  symmetry.
 There are    41 symmetry adapted basis functions of A"  symmetry.
   118 basis functions,   200 primitive gaussians,   118 cartesian basis functions
    25 alpha electrons       25 beta electrons
       nuclear repulsion energy       271.2438406540 Hartrees.
 IExCor=    0 DFT=F Ex=HF Corr=None ExCW=0 ScaHFX=  1.000000
 ScaDFX=  1.000000  1.000000  1.000000  1.000000 ScalE2=  1.000000  1.000000
 IRadAn=      5 IRanWt=     -1 IRanGd=            0 ICorTp=0 IEmpDi=  4
 NAtoms=    8 NActive=    8 NUniq=    6 SFac= 1.78D+00 NAtFMM=   60 NAOKFM=F Big=F
 Integral buffers will be    131072 words long.
 Raffenetti 1 integral format.
 Two-electron integral symmetry is turned on.
 Leave Link  301 at Thu Apr  2 15:07:40 2026, MaxMem=  1073741824 cpu:               0.1 elap:               0.0
 (Enter /Users/yarger/Applications/g16/l302.exe)
 NPDir=0 NMtPBC=     1 NCelOv=     1 NCel=       1 NClECP=     1 NCelD=      1
         NCelK=      1 NCelE2=     1 NClLst=     1 CellRange=     0.0.
 One-electron integrals computed using PRISM.
 One-electron integral symmetry used in STVInt
 NBasis=   118 RedAO= T EigKep=  2.09D-04  NBF=    77    41
 NBsUse=   118 1.00D-06 EigRej= -1.00D+00 NBFU=    77    41
 Leave Link  302 at Thu Apr  2 15:07:40 2026, MaxMem=  1073741824 cpu:               0.4 elap:               0.1
 (Enter /Users/yarger/Applications/g16/l303.exe)
 DipDrv:  MaxL=1.
 Leave Link  303 at Thu Apr  2 15:07:41 2026, MaxMem=  1073741824 cpu:               0.1 elap:               0.0
 (Enter /Users/yarger/Applications/g16/l401.exe)
 ExpMin= 4.38D-02 ExpMax= 7.00D+03 ExpMxC= 1.05D+03 IAcc=3 IRadAn=         5 AccDes= 0.00D+00
 Harris functional with IExCor=  205 and IRadAn=       5 diagonalized for initial guess.
 HarFok:  IExCor=  205 AccDes= 0.00D+00 IRadAn=         5 IDoV= 1 UseB2=F ITyADJ=14
 ICtDFT=  3500011 ScaDFX=  1.000000  1.000000  1.000000  1.000000
 FoFCou: FMM=F IPFlag=           0 FMFlag=      100000 FMFlg1=           0
         NFxFlg=           0 DoJE=T BraDBF=F KetDBF=T FulRan=T
         wScrn=  0.000000 ICntrl=       500 IOpCl=  0 I1Cent=   200000004 NGrid=           0
         NMat0=    1 NMatS0=      1 NMatT0=    0 NMatD0=    1 NMtDS0=    0 NMtDT0=    0
 Petite list used in FoFCou.
 Harris En= -474.637877085745    
 JPrj=0 DoOrth=F DoCkMO=F.
 Initial guess orbital symmetries:
       Occupied  (A') (A') (A') (A") (A') (A') (A') (A') (A") (A')
                 (A') (A') (A") (A') (A') (A') (A") (A') (A") (A')
                 (A") (A') (A") (A") (A')
       Virtual   (A') (A') (A") (A') (A") (A') (A') (A') (A") (A')
                 (A') (A') (A') (A') (A") (A") (A') (A') (A') (A")
                 (A") (A') (A") (A') (A') (A') (A") (A') (A') (A")
                 (A') (A') (A') (A") (A") (A') (A') (A") (A') (A')
                 (A") (A') (A') (A") (A') (A") (A') (A') (A") (A")
                 (A') (A') (A') (A") (A') (A") (A') (A') (A") (A")
                 (A') (A") (A') (A") (A') (A') (A') (A") (A") (A")
                 (A') (A') (A') (A") (A') (A') (A") (A') (A") (A')
                 (A') (A") (A') (A') (A") (A') (A') (A') (A') (A')
                 (A") (A') (A')
 The electronic state of the initial guess is 1-A'.
 Leave Link  401 at Thu Apr  2 15:07:41 2026, MaxMem=  1073741824 cpu:               0.8 elap:               0.3
 (Enter /Users/yarger/Applications/g16/l502.exe)
 Keep R1 ints in memory in symmetry-blocked form, NReq=37119245.
 FoFCou: FMM=F IPFlag=           0 FMFlag=           0 FMFlg1=           0
         NFxFlg=           0 DoJE=F BraDBF=F KetDBF=F FulRan=T
         wScrn=  0.000000 ICntrl=       600 IOpCl=  0 I1Cent=           0 NGrid=           0
         NMat0=    1 NMatS0=   7021 NMatT0=    0 NMatD0=    1 NMtDS0=    0 NMtDT0=    0
 Petite list used in FoFCou.
 Closed shell SCF:
 Using DIIS extrapolation, IDIIS=  1040.
 NGot=  1073741824 LenX=  1061244307 LenY=  1061229942
 Requested convergence on RMS density matrix=1.00D-08 within 128 cycles.
 Requested convergence on MAX density matrix=1.00D-06.
 Requested convergence on             energy=1.00D-06.
 No special actions if energy rises.

 Cycle   1  Pass 1  IDiag  1:
 E= -474.565755073919    
 DIIS: error= 5.78D-02 at cycle   1 NSaved=   1.
 NSaved= 1 IEnMin= 1 EnMin= -474.565755073919     IErMin= 1 ErrMin= 5.78D-02
 ErrMax= 5.78D-02  0.00D+00 EMaxC= 1.00D-01 BMatC= 3.12D-01 BMatP= 3.12D-01
 IDIUse=3 WtCom= 4.22D-01 WtEn= 5.78D-01
 Coeff-Com:  0.100D+01
 Coeff-En:   0.100D+01
 Coeff:      0.100D+01
 Gap=     0.682 Goal=   None    Shift=    0.000
 GapD=    0.682 DampG=2.000 DampE=0.500 DampFc=1.0000 IDamp=-1.
 RMSDP=3.95D-03 MaxDP=6.44D-02              OVMax= 7.08D-02

 Cycle   2  Pass 1  IDiag  1:
 E= -474.663582582356     Delta-E=       -0.097827508437 Rises=F Damp=F
 DIIS: error= 8.44D-03 at cycle   2 NSaved=   2.
 NSaved= 2 IEnMin= 2 EnMin= -474.663582582356     IErMin= 2 ErrMin= 8.44D-03
 ErrMax= 8.44D-03  0.00D+00 EMaxC= 1.00D-01 BMatC= 1.29D-02 BMatP= 3.12D-01
 IDIUse=3 WtCom= 9.16D-01 WtEn= 8.44D-02
 Coeff-Com:  0.446D-01 0.955D+00
 Coeff-En:   0.000D+00 0.100D+01
 Coeff:      0.408D-01 0.959D+00
 Gap=     0.633 Goal=   None    Shift=    0.000
 RMSDP=9.86D-04 MaxDP=2.00D-02 DE=-9.78D-02 OVMax= 2.38D-02

 Cycle   3  Pass 1  IDiag  1:
 E= -474.671658490040     Delta-E=       -0.008075907684 Rises=F Damp=F
 DIIS: error= 4.78D-03 at cycle   3 NSaved=   3.
 NSaved= 3 IEnMin= 3 EnMin= -474.671658490040     IErMin= 3 ErrMin= 4.78D-03
 ErrMax= 4.78D-03  0.00D+00 EMaxC= 1.00D-01 BMatC= 2.77D-03 BMatP= 1.29D-02
 IDIUse=3 WtCom= 9.52D-01 WtEn= 4.78D-02
 Coeff-Com: -0.263D-01 0.287D+00 0.739D+00
 Coeff-En:   0.000D+00 0.000D+00 0.100D+01
 Coeff:     -0.250D-01 0.274D+00 0.751D+00
 Gap=     0.629 Goal=   None    Shift=    0.000
 RMSDP=2.84D-04 MaxDP=7.04D-03 DE=-8.08D-03 OVMax= 7.69D-03

 Cycle   4  Pass 1  IDiag  1:
 E= -474.673448534512     Delta-E=       -0.001790044473 Rises=F Damp=F
 DIIS: error= 6.07D-04 at cycle   4 NSaved=   4.
 NSaved= 4 IEnMin= 4 EnMin= -474.673448534512     IErMin= 4 ErrMin= 6.07D-04
 ErrMax= 6.07D-04  0.00D+00 EMaxC= 1.00D-01 BMatC= 5.67D-05 BMatP= 2.77D-03
 IDIUse=3 WtCom= 9.94D-01 WtEn= 6.07D-03
 Coeff-Com: -0.453D-02 0.124D-01 0.108D+00 0.884D+00
 Coeff-En:   0.000D+00 0.000D+00 0.000D+00 0.100D+01
 Coeff:     -0.450D-02 0.123D-01 0.108D+00 0.884D+00
 Gap=     0.628 Goal=   None    Shift=    0.000
 RMSDP=7.24D-05 MaxDP=1.10D-03 DE=-1.79D-03 OVMax= 1.66D-03

 Cycle   5  Pass 1  IDiag  1:
 E= -474.673508692950     Delta-E=       -0.000060158437 Rises=F Damp=F
 DIIS: error= 1.79D-04 at cycle   5 NSaved=   5.
 NSaved= 5 IEnMin= 5 EnMin= -474.673508692950     IErMin= 5 ErrMin= 1.79D-04
 ErrMax= 1.79D-04  0.00D+00 EMaxC= 1.00D-01 BMatC= 6.63D-06 BMatP= 5.67D-05
 IDIUse=3 WtCom= 9.98D-01 WtEn= 1.79D-03
 Coeff-Com:  0.224D-02-0.305D-01-0.736D-01 0.883D-01 0.101D+01
 Coeff-En:   0.000D+00 0.000D+00 0.000D+00 0.000D+00 0.100D+01
 Coeff:      0.224D-02-0.304D-01-0.735D-01 0.881D-01 0.101D+01
 Gap=     0.628 Goal=   None    Shift=    0.000
 RMSDP=3.06D-05 MaxDP=4.72D-04 DE=-6.02D-05 OVMax= 7.57D-04

 Cycle   6  Pass 1  IDiag  1:
 E= -474.673517172362     Delta-E=       -0.000008479412 Rises=F Damp=F
 DIIS: error= 3.15D-05 at cycle   6 NSaved=   6.
 NSaved= 6 IEnMin= 6 EnMin= -474.673517172362     IErMin= 6 ErrMin= 3.15D-05
 ErrMax= 3.15D-05  0.00D+00 EMaxC= 1.00D-01 BMatC= 2.01D-07 BMatP= 6.63D-06
 IDIUse=1 WtCom= 1.00D+00 WtEn= 0.00D+00
 Coeff-Com: -0.236D-04 0.228D-02 0.505D-02-0.448D-01-0.102D+00 0.114D+01
 Coeff:     -0.236D-04 0.228D-02 0.505D-02-0.448D-01-0.102D+00 0.114D+01
 Gap=     0.628 Goal=   None    Shift=    0.000
 RMSDP=7.28D-06 MaxDP=7.81D-05 DE=-8.48D-06 OVMax= 1.99D-04

 Cycle   7  Pass 1  IDiag  1:
 E= -474.673517527899     Delta-E=       -0.000000355537 Rises=F Damp=F
 DIIS: error= 1.20D-05 at cycle   7 NSaved=   7.
 NSaved= 7 IEnMin= 7 EnMin= -474.673517527899     IErMin= 7 ErrMin= 1.20D-05
 ErrMax= 1.20D-05  0.00D+00 EMaxC= 1.00D-01 BMatC= 2.63D-08 BMatP= 2.01D-07
 IDIUse=1 WtCom= 1.00D+00 WtEn= 0.00D+00
 Coeff-Com: -0.142D-03 0.250D-02 0.627D-02-0.180D-01-0.884D-01 0.221D+00
 Coeff-Com:  0.877D+00
 Coeff:     -0.142D-03 0.250D-02 0.627D-02-0.180D-01-0.884D-01 0.221D+00
 Coeff:      0.877D+00
 Gap=     0.628 Goal=   None    Shift=    0.000
 RMSDP=1.80D-06 MaxDP=2.65D-05 DE=-3.56D-07 OVMax= 4.67D-05

 Cycle   8  Pass 1  IDiag  1:
 E= -474.673517556282     Delta-E=       -0.000000028384 Rises=F Damp=F
 DIIS: error= 4.24D-06 at cycle   8 NSaved=   8.
 NSaved= 8 IEnMin= 8 EnMin= -474.673517556282     IErMin= 8 ErrMin= 4.24D-06
 ErrMax= 4.24D-06  0.00D+00 EMaxC= 1.00D-01 BMatC= 2.26D-09 BMatP= 2.63D-08
 IDIUse=1 WtCom= 1.00D+00 WtEn= 0.00D+00
 Coeff-Com: -0.139D-04 0.556D-04 0.297D-03 0.239D-02 0.252D-02-0.101D+00
 Coeff-Com:  0.109D+00 0.987D+00
 Coeff:     -0.139D-04 0.556D-04 0.297D-03 0.239D-02 0.252D-02-0.101D+00
 Coeff:      0.109D+00 0.987D+00
 Gap=     0.628 Goal=   None    Shift=    0.000
 RMSDP=6.34D-07 MaxDP=1.24D-05 DE=-2.84D-08 OVMax= 1.58D-05

 Cycle   9  Pass 1  IDiag  1:
 E= -474.673517559134     Delta-E=       -0.000000002852 Rises=F Damp=F
 DIIS: error= 8.01D-07 at cycle   9 NSaved=   9.
 NSaved= 9 IEnMin= 9 EnMin= -474.673517559134     IErMin= 9 ErrMin= 8.01D-07
 ErrMax= 8.01D-07  0.00D+00 EMaxC= 1.00D-01 BMatC= 9.59D-11 BMatP= 2.26D-09
 IDIUse=1 WtCom= 1.00D+00 WtEn= 0.00D+00
 Coeff-Com:  0.803D-05-0.143D-03-0.408D-03 0.739D-03 0.501D-02-0.108D-02
 Coeff-Com: -0.684D-01-0.945D-01 0.116D+01
 Coeff:      0.803D-05-0.143D-03-0.408D-03 0.739D-03 0.501D-02-0.108D-02
 Coeff:     -0.684D-01-0.945D-01 0.116D+01
 Gap=     0.628 Goal=   None    Shift=    0.000
 RMSDP=1.98D-07 MaxDP=5.53D-06 DE=-2.85D-09 OVMax= 5.08D-06

 Cycle  10  Pass 1  IDiag  1:
 E= -474.673517559330     Delta-E=       -0.000000000196 Rises=F Damp=F
 DIIS: error= 2.35D-07 at cycle  10 NSaved=  10.
 NSaved=10 IEnMin=10 EnMin= -474.673517559330     IErMin=10 ErrMin= 2.35D-07
 ErrMax= 2.35D-07  0.00D+00 EMaxC= 1.00D-01 BMatC= 5.78D-12 BMatP= 9.59D-11
 IDIUse=1 WtCom= 1.00D+00 WtEn= 0.00D+00
 Coeff-Com:  0.140D-05-0.863D-05-0.409D-04-0.123D-03 0.137D-03 0.551D-02
 Coeff-Com: -0.909D-02-0.589D-01 0.253D-01 0.104D+01
 Coeff:      0.140D-05-0.863D-05-0.409D-04-0.123D-03 0.137D-03 0.551D-02
 Coeff:     -0.909D-02-0.589D-01 0.253D-01 0.104D+01
 Gap=     0.628 Goal=   None    Shift=    0.000
 RMSDP=5.11D-08 MaxDP=1.42D-06 DE=-1.96D-10 OVMax= 1.55D-06

 Cycle  11  Pass 1  IDiag  1:
 E= -474.673517559343     Delta-E=       -0.000000000013 Rises=F Damp=F
 DIIS: error= 5.10D-08 at cycle  11 NSaved=  11.
 NSaved=11 IEnMin=11 EnMin= -474.673517559343     IErMin=11 ErrMin= 5.10D-08
 ErrMax= 5.10D-08  0.00D+00 EMaxC= 1.00D-01 BMatC= 5.57D-13 BMatP= 5.78D-12
 IDIUse=1 WtCom= 1.00D+00 WtEn= 0.00D+00
 Coeff-Com: -0.527D-06 0.997D-05 0.260D-04-0.529D-04-0.343D-03 0.265D-03
 Coeff-Com:  0.462D-02 0.473D-02-0.904D-01 0.845D-01 0.997D+00
 Coeff:     -0.527D-06 0.997D-05 0.260D-04-0.529D-04-0.343D-03 0.265D-03
 Coeff:      0.462D-02 0.473D-02-0.904D-01 0.845D-01 0.997D+00
 Gap=     0.628 Goal=   None    Shift=    0.000
 RMSDP=1.50D-08 MaxDP=2.44D-07 DE=-1.28D-11 OVMax= 3.24D-07

 Cycle  12  Pass 1  IDiag  1:
 E= -474.673517559338     Delta-E=        0.000000000005 Rises=F Damp=F
 DIIS: error= 1.52D-08 at cycle  12 NSaved=  12.
 NSaved=12 IEnMin=11 EnMin= -474.673517559343     IErMin=12 ErrMin= 1.52D-08
 ErrMax= 1.52D-08  0.00D+00 EMaxC= 1.00D-01 BMatC= 6.39D-14 BMatP= 5.57D-13
 IDIUse=1 WtCom= 1.00D+00 WtEn= 0.00D+00
 Coeff-Com: -0.215D-06 0.251D-05 0.825D-05 0.323D-05-0.764D-04-0.505D-03
 Coeff-Com:  0.178D-02 0.695D-02-0.226D-01-0.731D-01 0.183D+00 0.905D+00
 Coeff:     -0.215D-06 0.251D-05 0.825D-05 0.323D-05-0.764D-04-0.505D-03
 Coeff:      0.178D-02 0.695D-02-0.226D-01-0.731D-01 0.183D+00 0.905D+00
 Gap=     0.628 Goal=   None    Shift=    0.000
 RMSDP=4.10D-09 MaxDP=7.32D-08 DE= 5.12D-12 OVMax= 8.21D-08

 SCF Done:  E(RHF) =  -474.673517559     A.U. after   12 cycles
            NFock= 12  Conv=0.41D-08     -V/T= 2.0030
 KE= 4.732577288428D+02 PE=-1.672431892014D+03 EE= 4.532568049584D+02
 Leave Link  502 at Thu Apr  2 15:07:41 2026, MaxMem=  1073741824 cpu:               2.0 elap:               0.6
 (Enter /Users/yarger/Applications/g16/l601.exe)
 Copying SCF densities to generalized density rwf, IOpCl= 0 IROHF=0.

 **********************************************************************

            Population analysis using the SCF density.

 **********************************************************************

 Orbital symmetries:
       Occupied  (A') (A") (A') (A') (A') (A') (A') (A') (A") (A')
                 (A') (A') (A') (A") (A') (A") (A') (A') (A") (A')
                 (A") (A') (A") (A") (A')
       Virtual   (A') (A') (A') (A") (A") (A') (A') (A') (A') (A")
                 (A') (A') (A") (A') (A") (A') (A') (A') (A") (A")
                 (A') (A") (A') (A') (A') (A") (A') (A') (A") (A')
                 (A') (A') (A') (A") (A') (A') (A") (A") (A') (A')
                 (A') (A") (A') (A') (A") (A') (A") (A') (A") (A")
                 (A') (A') (A') (A") (A') (A") (A') (A') (A") (A')
                 (A") (A") (A') (A") (A') (A') (A') (A") (A") (A")
                 (A') (A') (A') (A") (A') (A') (A") (A') (A") (A')
                 (A') (A") (A') (A') (A") (A') (A') (A') (A') (A')
                 (A") (A') (A')
 The electronic state is 1-A'.
 Alpha  occ. eigenvalues --  -26.37705 -26.36904 -26.36902 -26.33574 -11.53621
 Alpha  occ. eigenvalues --  -11.35697  -1.74267  -1.65678  -1.65055  -1.64385
 Alpha  occ. eigenvalues --   -1.07544  -0.94272  -0.84138  -0.84061  -0.82176
 Alpha  occ. eigenvalues --   -0.75577  -0.74217  -0.71683  -0.71540  -0.68675
 Alpha  occ. eigenvalues --   -0.67923  -0.67882  -0.66650  -0.57378  -0.55524
 Alpha virt. eigenvalues --    0.07259   0.09499   0.09958   0.10127   0.12999
 Alpha virt. eigenvalues --    0.13298   0.13787   0.19653   0.27674   0.28460
 Alpha virt. eigenvalues --    0.30734   0.34516   0.34990   0.35669   0.38189
 Alpha virt. eigenvalues --    0.38281   0.39783   0.40897   0.41007   0.41427
 Alpha virt. eigenvalues --    0.42987   0.43311   0.44393   0.45960   0.46958
 Alpha virt. eigenvalues --    0.47903   0.49290   0.50659   0.55779   0.57758
 Alpha virt. eigenvalues --    0.58588   0.80787   0.92750   0.93138   0.97856
 Alpha virt. eigenvalues --    1.00051   1.00360   1.16944   1.27096   1.40661
 Alpha virt. eigenvalues --    1.45902   1.46469   1.58962   1.82495   1.82740
 Alpha virt. eigenvalues --    1.84843   1.85322   1.88485   1.88885   1.89665
 Alpha virt. eigenvalues --    1.90089   1.93445   1.93897   1.94072   1.95266
 Alpha virt. eigenvalues --    1.95524   1.97315   2.02640   2.07379   2.09035
 Alpha virt. eigenvalues --    2.09438   2.09614   2.11160   2.16372   2.20239
 Alpha virt. eigenvalues --    2.22416   2.29192   2.29267   2.31762   2.35843
 Alpha virt. eigenvalues --    2.37888   2.40707   2.48850   2.49757   2.52531
 Alpha virt. eigenvalues --    2.63570   2.69827   2.74335   2.83781   2.86523
 Alpha virt. eigenvalues --    3.08931   3.11703   3.17457   3.45202   3.46973
 Alpha virt. eigenvalues --    3.57522   3.67440   4.70553   5.00084   5.76604
 Alpha virt. eigenvalues --    5.80670   6.00749   6.57618
          Condensed to atoms (all electrons):
               1          2          3          4          5          6
     1  C    4.890716   0.410762   0.430745  -0.067902  -0.067902  -0.063052
     2  H    0.410762   0.476962  -0.043754  -0.007236   0.009161   0.001728
     3  C    0.430745  -0.043754   4.067978   0.172659   0.172659   0.147293
     4  F   -0.067902  -0.007236   0.172659   9.320321  -0.029179  -0.015228
     5  F   -0.067902   0.009161   0.172659  -0.029179   9.320321  -0.015228
     6  F   -0.063052   0.001728   0.147293  -0.015228  -0.015228   9.329036
     7  F    0.106019  -0.038630  -0.055828   0.010967   0.010967   0.004714
     8  H    0.410762  -0.031508  -0.043754   0.009161  -0.007236   0.001728
               7          8
     1  C    0.106019   0.410762
     2  H   -0.038630  -0.031508
     3  C   -0.055828  -0.043754
     4  F    0.010967   0.009161
     5  F    0.010967  -0.007236
     6  F    0.004714   0.001728
     7  F    9.369192  -0.038630
     8  H   -0.038630   0.476962
 Mulliken charges:
               1
     1  C   -0.050148
     2  H    0.222515
     3  C    1.152001
     4  F   -0.393563
     5  F   -0.393563
     6  F   -0.390991
     7  F   -0.368768
     8  H    0.222515
 Sum of Mulliken charges =  -0.00000
 Mulliken charges with hydrogens summed into heavy atoms:
               1
     1  C    0.394883
     3  C    1.152001
     4  F   -0.393563
     5  F   -0.393563
     6  F   -0.390991
     7  F   -0.368768
 Electronic spatial extent (au):  <R**2>=            479.2759
 Charge=             -0.0000 electrons
 Dipole moment (field-independent basis, Debye):
    X=              2.3421    Y=             -0.2945    Z=              0.0000  Tot=              2.3605
 Quadrupole moment (field-independent basis, Debye-Ang):
   XX=            -30.5281   YY=            -36.0122   ZZ=            -32.2576
   XY=             -2.4546   XZ=              0.0000   YZ=             -0.0000
 Traceless Quadrupole moment (field-independent basis, Debye-Ang):
   XX=              2.4045   YY=             -3.0795   ZZ=              0.6750
   XY=             -2.4546   XZ=              0.0000   YZ=             -0.0000
 Octapole moment (field-independent basis, Debye-Ang**2):
  XXX=             -2.3396  YYY=              8.8042  ZZZ=             -0.0000  XYY=             -1.5650
  XXY=             -2.3684  XXZ=              0.0000  XZZ=              1.5427  YZZ=             -0.8524
  YYZ=              0.0000  XYZ=             -0.0000
 Hexadecapole moment (field-independent basis, Debye-Ang**3):
 XXXX=           -112.8768 YYYY=           -266.2596 ZZZZ=           -100.1880 XXXY=              6.0065
 XXXZ=              0.0000 YYYX=              4.6335 YYYZ=             -0.0000 ZZZX=              0.0000
 ZZZY=             -0.0000 XXYY=            -59.0541 XXZZ=            -34.3646 YYZZ=            -57.5914
 XXYZ=              0.0000 YYXZ=              0.0000 ZZXY=              2.2478
 N-N= 2.712438406540D+02 E-N=-1.672431892343D+03  KE= 4.732577288428D+02
 Symmetry A'   KE= 3.573922258314D+02
 Symmetry A"   KE= 1.158655030113D+02
 No NMR shielding tensors so no spin-rotation constants.
 Leave Link  601 at Thu Apr  2 15:07:42 2026, MaxMem=  1073741824 cpu:               0.3 elap:               0.1
 (Enter /Users/yarger/Applications/g16/l701.exe)
 ... and contract with generalized density number  0.
 Compute integral first derivatives.
 Leave Link  701 at Thu Apr  2 15:07:42 2026, MaxMem=  1073741824 cpu:               0.3 elap:               0.1
 (Enter /Users/yarger/Applications/g16/l702.exe)
 L702 exits ... SP integral derivatives will be done elsewhere.
 Leave Link  702 at Thu Apr  2 15:07:42 2026, MaxMem=  1073741824 cpu:               0.0 elap:               0.0
 (Enter /Users/yarger/Applications/g16/l703.exe)
 Integral derivatives from FoFJK, PRISM(SPDF).
 Compute integral first derivatives, UseDBF=F ICtDFT=           0.
 Calling FoFJK, ICntrl=      2127 FMM=F ISym2X=1 I1Cent= 0 IOpClX= 0 NMat=1 NMatS=1 NMatT=0.
 FoFJK:  IHMeth= 1 ICntrl=    2127 DoSepK=F KAlg= 0 I1Cent=           0 FoldK=F
 IRaf=         0 NMat=       1 IRICut=       1 DoRegI=T DoRafI=F ISym2E= 1 IDoP0=0 IntGTp=1.
 FoFCou: FMM=F IPFlag=           0 FMFlag=      100000 FMFlg1=         800
         NFxFlg=           0 DoJE=F BraDBF=F KetDBF=F FulRan=T
         wScrn=  0.000000 ICntrl=      2127 IOpCl=  0 I1Cent=           0 NGrid=           0
         NMat0=    1 NMatS0=      1 NMatT0=    0 NMatD0=    1 NMtDS0=    0 NMtDT0=    0
 Petite list used in FoFCou.
 Leave Link  703 at Thu Apr  2 15:07:42 2026, MaxMem=  1073741824 cpu:               1.2 elap:               0.3
 (Enter /Users/yarger/Applications/g16/l716.exe)
 Dipole        = 9.21434788D-01-1.15878837D-01 1.99840144D-15
 ***** Axes restored to original set *****
 -------------------------------------------------------------------
 Center     Atomic                   Forces (Hartrees/Bohr)
 Number     Number              X              Y              Z
 -------------------------------------------------------------------
      1        6           0.014861440   -0.008824670   -0.008067842
      2        1           0.004435631    0.006603945    0.001433359
      3        6          -0.009725891    0.002809540    0.010027367
      4        9          -0.017630288   -0.011669423   -0.028469859
      5        9           0.020256268    0.028941368   -0.003100999
      6        9          -0.007230551   -0.012039872    0.030071884
      7        9           0.000203115   -0.002128806    0.003104483
      8        1          -0.005169723   -0.003692082   -0.004998392
 -------------------------------------------------------------------
 Cartesian Forces:  Max     0.030071884 RMS     0.013429420
 Leave Link  716 at Thu Apr  2 15:07:42 2026, MaxMem=  1073741824 cpu:               0.1 elap:               0.0
 (Enter /Users/yarger/Applications/g16/l103.exe)

 GradGradGradGradGradGradGradGradGradGradGradGradGradGradGradGradGradGrad
 Berny optimization.
 FormGI is forming the generalized inverse of G from B-inverse, IUseBI=4.
 Internal  Forces:  Max     0.033687964 RMS     0.013057239
 Search for a local minimum.
 Step number   1 out of a maximum of   38
 All quantities printed in internal units (Hartrees-Bohrs-Radians)
 RMS Force = .13057D-01 SwitMx=.10000D-02 MixMth= 1
 Mixed Optimization -- RFO/linear search
 Second derivative matrix not updated -- first step.
 ITU=  0
     Eigenvalues ---    0.00237   0.05720   0.05976   0.08850   0.08850
     Eigenvalues ---    0.16000   0.16000   0.22461   0.25000   0.25000
     Eigenvalues ---    0.25000   0.28519   0.37230   0.37230   0.55021
     Eigenvalues ---    0.55021   0.55021   0.55021
 RFO step:  Lambda=-1.13066964D-02 EMin= 2.36824250D-03
 Linear search not attempted -- first point.
 Iteration  1 RMS(Cart)=  0.03756093 RMS(Int)=  0.00171162
 Iteration  2 RMS(Cart)=  0.00188704 RMS(Int)=  0.00068134
 Iteration  3 RMS(Cart)=  0.00000372 RMS(Int)=  0.00068133
 Iteration  4 RMS(Cart)=  0.00000001 RMS(Int)=  0.00068133
 ITry= 1 IFail=0 DXMaxC= 9.40D-02 DCOld= 1.00D+10 DXMaxT= 3.00D-01 DXLimC= 3.00D+00 Rises=F
 ClnCor:  largest displacement from symmetrization is 1.72D-09 for atom     5.
 Variable       Old X    -DE/DX   Delta X   Delta X   Delta X     New X
                                 (Linear)    (Quad)   (Total)
    R1        2.02201   0.00761   0.00000   0.01985   0.01985   2.04186
    R2        2.91018  -0.01770   0.00000  -0.05969  -0.05969   2.85049
    R3        2.55113   0.00322   0.00000   0.00574   0.00574   2.55687
    R4        2.02201   0.00761   0.00000   0.01985   0.01985   2.04186
    R5        2.55113  -0.03369   0.00000  -0.05999  -0.05999   2.49114
    R6        2.55113  -0.03369   0.00000  -0.05999  -0.05999   2.49114
    R7        2.55113  -0.03256   0.00000  -0.05798  -0.05798   2.49315
    A1        1.91063  -0.00148   0.00000  -0.00746  -0.00753   1.90311
    A2        1.91063   0.00166   0.00000   0.00290   0.00275   1.91338
    A3        1.91063   0.00295   0.00000   0.02632   0.02633   1.93697
    A4        1.91063  -0.00333   0.00000  -0.01719  -0.01734   1.89329
    A5        1.91063  -0.00148   0.00000  -0.00746  -0.00753   1.90311
    A6        1.91063   0.00166   0.00000   0.00290   0.00275   1.91338
    A7        1.91063   0.01563   0.00000   0.06189   0.06033   1.97096
    A8        1.91063   0.01563   0.00000   0.06189   0.06033   1.97096
    A9        1.91063   0.00518   0.00000   0.01572   0.01536   1.92599
   A10        1.91063  -0.01397   0.00000  -0.04522  -0.04767   1.86297
   A11        1.91063  -0.01124   0.00000  -0.04714  -0.04747   1.86316
   A12        1.91063  -0.01124   0.00000  -0.04714  -0.04747   1.86316
    D1        1.04720  -0.00192   0.00000  -0.02176  -0.02224   1.02496
    D2        3.14159   0.00012   0.00000  -0.00134  -0.00076   3.14083
    D3       -1.04720  -0.00090   0.00000  -0.01155  -0.01150  -1.05870
    D4       -1.04720  -0.00102   0.00000  -0.01021  -0.01074  -1.05794
    D5        1.04720   0.00102   0.00000   0.01021   0.01074   1.05794
    D6        3.14159   0.00000   0.00000   0.00000   0.00000   3.14159
    D7       -3.14159  -0.00012   0.00000   0.00134   0.00076  -3.14083
    D8       -1.04720   0.00192   0.00000   0.02176   0.02224  -1.02496
    D9        1.04720   0.00090   0.00000   0.01155   0.01150   1.05870
         Item               Value     Threshold  Converged?
 Maximum Force            0.033688     0.000015     NO 
 RMS     Force            0.013057     0.000010     NO 
 Maximum Displacement     0.094004     0.000060     NO 
 RMS     Displacement     0.037452     0.000040     NO 
 Predicted change in Energy=-5.839822D-03
 Lowest energy point so far.  Saving SCF results.
 GradGradGradGradGradGradGradGradGradGradGradGradGradGradGradGradGradGrad

 Leave Link  103 at Thu Apr  2 15:07:42 2026, MaxMem=  1073741824 cpu:               0.0 elap:               0.0
 (Enter /Users/yarger/Applications/g16/l202.exe)
                          Input orientation:                          
 ---------------------------------------------------------------------
 Center     Atomic      Atomic             Coordinates (Angstroms)
 Number     Number       Type             X           Y           Z
 ---------------------------------------------------------------------
      1          6           0       -1.504270    1.416023    1.452513
      2          1           0       -1.167010    2.442536    1.448560
      3          6           0       -0.334415    0.512540    1.151727
      4          9           0        0.651050    0.642893    2.017554
      5          9           0       -0.661790   -0.764347    1.138476
      6          9           0        0.165198    0.789357   -0.037540
      7          9           0       -1.986005    1.100586    2.676907
      8          1           0       -2.271936    1.258161    0.708701
 ---------------------------------------------------------------------
                    Distance matrix (angstroms):
                    1          2          3          4          5
     1  C    0.000000
     2  H    1.080504   0.000000
     3  C    1.508415   2.122784   0.000000
     4  F    2.358475   2.620651   1.318252   0.000000
     5  F    2.358475   3.261211   1.318252   2.115810   0.000000
     6  F    2.323809   2.591577   1.319316   2.116817   2.116817
     7  F    1.353037   1.995098   2.323731   2.756499   2.756499
     8  H    1.080504   1.780729   2.122784   3.261211   2.620651
                    6          7          8
     6  F    0.000000
     7  F    3.477464   0.000000
     8  H    2.591577   1.995098   0.000000
 Stoichiometry    C2H2F4
 Framework group  CS[SG(C2F2),X(H2F2)]
 Deg. of freedom    11
 Full point group                 CS      NOp   2
 RotChk:  IX=2 Diff= 1.38D+00
 Largest Abelian subgroup         CS      NOp   2
 Largest concise Abelian subgroup CS      NOp   2
                         Standard orientation:                         
 ---------------------------------------------------------------------
 Center     Atomic      Atomic             Coordinates (Angstroms)
 Number     Number       Type             X           Y           Z
 ---------------------------------------------------------------------
      1          6           0        1.165156    0.237667    0.000000
      2          1           0        1.502550    0.748455   -0.890365
      3          6           0       -0.342587    0.192639   -0.000000
      4          9           0       -0.838126   -0.418153   -1.057905
      5          9           0       -0.838126   -0.418153    1.057905
      6          9           0       -0.838126    1.415355    0.000000
      7          9           0        1.632100   -1.032243    0.000000
      8          1           0        1.502550    0.748455    0.890365
 ---------------------------------------------------------------------
 Rotational constants (GHZ):           5.5510610           2.8534522           2.8090931
 Leave Link  202 at Thu Apr  2 15:07:42 2026, MaxMem=  1073741824 cpu:               0.0 elap:               0.0
 (Enter /Users/yarger/Applications/g16/l301.exe)
 Standard basis: 6-31+G(d) (6D, 7F)
 Ernie: Thresh=  0.10000D-02 Tol=  0.10000D-05 Strict=F.
 There are    77 symmetry adapted cartesian basis functions of A'  symmetry.
 There are    41 symmetry adapted cartesian basis functions of A"  symmetry.
 There are    77 symmetry adapted basis functions of A'  symmetry.
 There are    41 symmetry adapted basis functions of A"  symmetry.
   118 basis functions,   200 primitive gaussians,   118 cartesian basis functions
    25 alpha electrons       25 beta electrons
       nuclear repulsion energy       275.9416166862 Hartrees.
 IExCor=    0 DFT=F Ex=HF Corr=None ExCW=0 ScaHFX=  1.000000
 ScaDFX=  1.000000  1.000000  1.000000  1.000000 ScalE2=  1.000000  1.000000
 IRadAn=      5 IRanWt=     -1 IRanGd=            0 ICorTp=0 IEmpDi=  4
 NAtoms=    8 NActive=    8 NUniq=    6 SFac= 1.78D+00 NAtFMM=   60 NAOKFM=F Big=F
 Integral buffers will be    131072 words long.
 Raffenetti 1 integral format.
 Two-electron integral symmetry is turned on.
 Leave Link  301 at Thu Apr  2 15:07:42 2026, MaxMem=  1073741824 cpu:               0.1 elap:               0.0
 (Enter /Users/yarger/Applications/g16/l302.exe)
 NPDir=0 NMtPBC=     1 NCelOv=     1 NCel=       1 NClECP=     1 NCelD=      1
         NCelK=      1 NCelE2=     1 NClLst=     1 CellRange=     0.0.
 One-electron integrals computed using PRISM.
 One-electron integral symmetry used in STVInt
 NBasis=   118 RedAO= T EigKep=  1.88D-04  NBF=    77    41
 NBsUse=   118 1.00D-06 EigRej= -1.00D+00 NBFU=    77    41
 Leave Link  302 at Thu Apr  2 15:07:42 2026, MaxMem=  1073741824 cpu:               0.3 elap:               0.1
 (Enter /Users/yarger/Applications/g16/l303.exe)
 DipDrv:  MaxL=1.
 Leave Link  303 at Thu Apr  2 15:07:42 2026, MaxMem=  1073741824 cpu:               0.1 elap:               0.0
 (Enter /Users/yarger/Applications/g16/l401.exe)
 Initial guess from the checkpoint file:  "1112Tetrafluoroethane_Opt_Freq_HF_631pd_Gaussian16.chk"
 B after Tr=     0.000000    0.000000    0.000000
         Rot=    0.873421   -0.000000   -0.000000   -0.486966 Ang= -58.28 deg.
 Guess basis will be translated and rotated to current coordinates.
 JPrj=2 DoOrth=T DoCkMO=T.
 Initial guess orbital symmetries:
       Occupied  (A') (A") (A') (A') (A') (A') (A') (A') (A") (A')
                 (A') (A') (A') (A") (A') (A") (A') (A') (A") (A')
                 (A") (A') (A") (A") (A')
       Virtual   (A') (A') (A') (A") (A") (A') (A') (A') (A') (A")
                 (A') (A') (A") (A') (A") (A') (A') (A') (A") (A")
                 (A') (A") (A') (A') (A') (A") (A') (A') (A") (A')
                 (A') (A') (A') (A") (A') (A') (A") (A") (A') (A')
                 (A') (A") (A') (A') (A") (A') (A") (A') (A") (A")
                 (A') (A') (A') (A") (A') (A") (A') (A') (A") (A')
                 (A") (A") (A') (A") (A') (A') (A') (A") (A") (A")
                 (A') (A') (A') (A") (A') (A') (A") (A') (A") (A')
                 (A') (A") (A') (A') (A") (A') (A') (A') (A') (A')
                 (A") (A') (A')
 The electronic state of the initial guess is 1-A'.
 Generating alternative initial guess.
 ExpMin= 4.38D-02 ExpMax= 7.00D+03 ExpMxC= 1.05D+03 IAcc=2 IRadAn=         4 AccDes= 0.00D+00
 Harris functional with IExCor=  205 and IRadAn=       4 diagonalized for initial guess.
 HarFok:  IExCor=  205 AccDes= 0.00D+00 IRadAn=         4 IDoV= 1 UseB2=F ITyADJ=14
 ICtDFT=  3500011 ScaDFX=  1.000000  1.000000  1.000000  1.000000
 FoFCou: FMM=F IPFlag=           0 FMFlag=      100000 FMFlg1=           0
         NFxFlg=           0 DoJE=T BraDBF=F KetDBF=T FulRan=T
         wScrn=  0.000000 ICntrl=       500 IOpCl=  0 I1Cent=   200000004 NGrid=           0
         NMat0=    1 NMatS0=      1 NMatT0=    0 NMatD0=    1 NMtDS0=    0 NMtDT0=    0
 Petite list used in FoFCou.
 Harris En= -474.633830361229    
 Leave Link  401 at Thu Apr  2 15:07:43 2026, MaxMem=  1073741824 cpu:               0.7 elap:               0.2
 (Enter /Users/yarger/Applications/g16/l502.exe)
 Keep R1 ints in memory in symmetry-blocked form, NReq=37119245.
 FoFCou: FMM=F IPFlag=           0 FMFlag=           0 FMFlg1=           0
         NFxFlg=           0 DoJE=F BraDBF=F KetDBF=F FulRan=T
         wScrn=  0.000000 ICntrl=       600 IOpCl=  0 I1Cent=           0 NGrid=           0
         NMat0=    1 NMatS0=   7021 NMatT0=    0 NMatD0=    1 NMtDS0=    0 NMtDT0=    0
 Petite list used in FoFCou.
 Closed shell SCF:
 Using DIIS extrapolation, IDIIS=  1040.
 NGot=  1073741824 LenX=  1061244307 LenY=  1061229942
 Requested convergence on RMS density matrix=1.00D-08 within 128 cycles.
 Requested convergence on MAX density matrix=1.00D-06.
 Requested convergence on             energy=1.00D-06.
 No special actions if energy rises.

 Cycle   1  Pass 1  IDiag  1:
 E= -474.673015756196    
 DIIS: error= 6.20D-03 at cycle   1 NSaved=   1.
 NSaved= 1 IEnMin= 1 EnMin= -474.673015756196     IErMin= 1 ErrMin= 6.20D-03
 ErrMax= 6.20D-03  0.00D+00 EMaxC= 1.00D-01 BMatC= 3.94D-03 BMatP= 3.94D-03
 IDIUse=3 WtCom= 9.38D-01 WtEn= 6.20D-02
 Coeff-Com:  0.100D+01
 Coeff-En:   0.100D+01
 Coeff:      0.100D+01
 Gap=     0.641 Goal=   None    Shift=    0.000
 GapD=    0.641 DampG=2.000 DampE=1.000 DampFc=2.0000 IDamp=-1.
 RMSDP=6.78D-04 MaxDP=8.84D-03              OVMax= 1.11D-02

 Cycle   2  Pass 1  IDiag  1:
 E= -474.677136307128     Delta-E=       -0.004120550931 Rises=F Damp=F
 DIIS: error= 1.81D-03 at cycle   2 NSaved=   2.
 NSaved= 2 IEnMin= 2 EnMin= -474.677136307128     IErMin= 2 ErrMin= 1.81D-03
 ErrMax= 1.81D-03  0.00D+00 EMaxC= 1.00D-01 BMatC= 2.64D-04 BMatP= 3.94D-03
 IDIUse=3 WtCom= 9.82D-01 WtEn= 1.81D-02
 Coeff-Com: -0.118D+00 0.112D+01
 Coeff-En:   0.000D+00 0.100D+01
 Coeff:     -0.116D+00 0.112D+01
 Gap=     0.632 Goal=   None    Shift=    0.000
 RMSDP=2.06D-04 MaxDP=3.28D-03 DE=-4.12D-03 OVMax= 5.29D-03

 Cycle   3  Pass 1  IDiag  1:
 E= -474.677576683390     Delta-E=       -0.000440376262 Rises=F Damp=F
 DIIS: error= 5.97D-04 at cycle   3 NSaved=   3.
 NSaved= 3 IEnMin= 3 EnMin= -474.677576683390     IErMin= 3 ErrMin= 5.97D-04
 ErrMax= 5.97D-04  0.00D+00 EMaxC= 1.00D-01 BMatC= 4.15D-05 BMatP= 2.64D-04
 IDIUse=3 WtCom= 9.94D-01 WtEn= 5.97D-03
 Coeff-Com: -0.770D-01 0.133D+00 0.944D+00
 Coeff-En:   0.000D+00 0.000D+00 0.100D+01
 Coeff:     -0.766D-01 0.132D+00 0.944D+00
 Gap=     0.634 Goal=   None    Shift=    0.000
 RMSDP=7.11D-05 MaxDP=1.03D-03 DE=-4.40D-04 OVMax= 2.04D-03

 Cycle   4  Pass 1  IDiag  1:
 E= -474.677636302812     Delta-E=       -0.000059619422 Rises=F Damp=F
 DIIS: error= 1.81D-04 at cycle   4 NSaved=   4.
 NSaved= 4 IEnMin= 4 EnMin= -474.677636302812     IErMin= 4 ErrMin= 1.81D-04
 ErrMax= 1.81D-04  0.00D+00 EMaxC= 1.00D-01 BMatC= 4.56D-06 BMatP= 4.15D-05
 IDIUse=3 WtCom= 9.98D-01 WtEn= 1.81D-03
 Coeff-Com:  0.107D-01-0.116D+00 0.220D-01 0.108D+01
 Coeff-En:   0.000D+00 0.000D+00 0.000D+00 0.100D+01
 Coeff:      0.107D-01-0.116D+00 0.220D-01 0.108D+01
 Gap=     0.634 Goal=   None    Shift=    0.000
 RMSDP=3.13D-05 MaxDP=6.11D-04 DE=-5.96D-05 OVMax= 9.22D-04

 Cycle   5  Pass 1  IDiag  1:
 E= -474.677643905908     Delta-E=       -0.000007603096 Rises=F Damp=F
 DIIS: error= 4.26D-05 at cycle   5 NSaved=   5.
 NSaved= 5 IEnMin= 5 EnMin= -474.677643905908     IErMin= 5 ErrMin= 4.26D-05
 ErrMax= 4.26D-05  0.00D+00 EMaxC= 1.00D-01 BMatC= 4.94D-07 BMatP= 4.56D-06
 IDIUse=1 WtCom= 1.00D+00 WtEn= 0.00D+00
 Coeff-Com:  0.101D-01-0.433D-01-0.826D-01 0.257D+00 0.859D+00
 Coeff:      0.101D-01-0.433D-01-0.826D-01 0.257D+00 0.859D+00
 Gap=     0.634 Goal=   None    Shift=    0.000
 RMSDP=8.28D-06 MaxDP=1.68D-04 DE=-7.60D-06 OVMax= 2.08D-04

 Cycle   6  Pass 1  IDiag  1:
 E= -474.677644459675     Delta-E=       -0.000000553767 Rises=F Damp=F
 DIIS: error= 6.94D-06 at cycle   6 NSaved=   6.
 NSaved= 6 IEnMin= 6 EnMin= -474.677644459675     IErMin= 6 ErrMin= 6.94D-06
 ErrMax= 6.94D-06  0.00D+00 EMaxC= 1.00D-01 BMatC= 1.61D-08 BMatP= 4.94D-07
 IDIUse=1 WtCom= 1.00D+00 WtEn= 0.00D+00
 Coeff-Com: -0.154D-02 0.115D-01 0.643D-02-0.956D-01-0.661D-01 0.115D+01
 Coeff:     -0.154D-02 0.115D-01 0.643D-02-0.956D-01-0.661D-01 0.115D+01
 Gap=     0.634 Goal=   None    Shift=    0.000
 RMSDP=2.33D-06 MaxDP=3.01D-05 DE=-5.54D-07 OVMax= 4.09D-05

 Cycle   7  Pass 1  IDiag  1:
 E= -474.677644485180     Delta-E=       -0.000000025505 Rises=F Damp=F
 DIIS: error= 1.66D-06 at cycle   7 NSaved=   7.
 NSaved= 7 IEnMin= 7 EnMin= -474.677644485180     IErMin= 7 ErrMin= 1.66D-06
 ErrMax= 1.66D-06  0.00D+00 EMaxC= 1.00D-01 BMatC= 6.87D-10 BMatP= 1.61D-08
 IDIUse=1 WtCom= 1.00D+00 WtEn= 0.00D+00
 Coeff-Com: -0.381D-03 0.203D-02 0.279D-02-0.144D-01-0.301D-01 0.693D-01
 Coeff-Com:  0.971D+00
 Coeff:     -0.381D-03 0.203D-02 0.279D-02-0.144D-01-0.301D-01 0.693D-01
 Coeff:      0.971D+00
 Gap=     0.634 Goal=   None    Shift=    0.000
 RMSDP=3.19D-07 MaxDP=4.83D-06 DE=-2.55D-08 OVMax= 7.33D-06

 Cycle   8  Pass 1  IDiag  1:
 E= -474.677644486093     Delta-E=       -0.000000000913 Rises=F Damp=F
 DIIS: error= 7.29D-07 at cycle   8 NSaved=   8.
 NSaved= 8 IEnMin= 8 EnMin= -474.677644486093     IErMin= 8 ErrMin= 7.29D-07
 ErrMax= 7.29D-07  0.00D+00 EMaxC= 1.00D-01 BMatC= 1.06D-10 BMatP= 6.87D-10
 IDIUse=1 WtCom= 1.00D+00 WtEn= 0.00D+00
 Coeff-Com:  0.915D-04-0.813D-03-0.124D-03 0.690D-02 0.159D-02-0.102D+00
 Coeff-Com:  0.195D+00 0.899D+00
 Coeff:      0.915D-04-0.813D-03-0.124D-03 0.690D-02 0.159D-02-0.102D+00
 Coeff:      0.195D+00 0.899D+00
 Gap=     0.634 Goal=   None    Shift=    0.000
 RMSDP=1.00D-07 MaxDP=1.99D-06 DE=-9.13D-10 OVMax= 2.97D-06

 Cycle   9  Pass 1  IDiag  1:
 E= -474.677644486217     Delta-E=       -0.000000000124 Rises=F Damp=F
 DIIS: error= 1.64D-07 at cycle   9 NSaved=   9.
 NSaved= 9 IEnMin= 9 EnMin= -474.677644486217     IErMin= 9 ErrMin= 1.64D-07
 ErrMax= 1.64D-07  0.00D+00 EMaxC= 1.00D-01 BMatC= 7.04D-12 BMatP= 1.06D-10
 IDIUse=1 WtCom= 1.00D+00 WtEn= 0.00D+00
 Coeff-Com:  0.313D-04-0.168D-03-0.195D-03 0.124D-02 0.236D-02-0.761D-02
 Coeff-Com: -0.759D-01 0.198D-01 0.106D+01
 Coeff:      0.313D-04-0.168D-03-0.195D-03 0.124D-02 0.236D-02-0.761D-02
 Coeff:     -0.759D-01 0.198D-01 0.106D+01
 Gap=     0.634 Goal=   None    Shift=    0.000
 RMSDP=3.78D-08 MaxDP=6.18D-07 DE=-1.24D-10 OVMax= 9.40D-07

 Cycle  10  Pass 1  IDiag  1:
 E= -474.677644486230     Delta-E=       -0.000000000013 Rises=F Damp=F
 DIIS: error= 7.47D-08 at cycle  10 NSaved=  10.
 NSaved=10 IEnMin=10 EnMin= -474.677644486230     IErMin=10 ErrMin= 7.47D-08
 ErrMax= 7.47D-08  0.00D+00 EMaxC= 1.00D-01 BMatC= 6.24D-13 BMatP= 7.04D-12
 IDIUse=1 WtCom= 1.00D+00 WtEn= 0.00D+00
 Coeff-Com: -0.788D-05 0.736D-04 0.372D-05-0.619D-03-0.114D-03 0.100D-01
 Coeff-Com: -0.234D-01-0.882D-01 0.369D-01 0.107D+01
 Coeff:     -0.788D-05 0.736D-04 0.372D-05-0.619D-03-0.114D-03 0.100D-01
 Coeff:     -0.234D-01-0.882D-01 0.369D-01 0.107D+01
 Gap=     0.634 Goal=   None    Shift=    0.000
 RMSDP=1.40D-08 MaxDP=2.78D-07 DE=-1.34D-11 OVMax= 3.45D-07

 Cycle  11  Pass 1  IDiag  1:
 E= -474.677644486229     Delta-E=        0.000000000001 Rises=F Damp=F
 DIIS: error= 1.40D-08 at cycle  11 NSaved=  11.
 NSaved=11 IEnMin=10 EnMin= -474.677644486230     IErMin=11 ErrMin= 1.40D-08
 ErrMax= 1.40D-08  0.00D+00 EMaxC= 1.00D-01 BMatC= 3.34D-14 BMatP= 6.24D-13
 IDIUse=1 WtCom= 1.00D+00 WtEn= 0.00D+00
 Coeff-Com: -0.210D-05 0.110D-04 0.112D-04-0.845D-04-0.161D-03 0.457D-03
 Coeff-Com:  0.620D-02-0.450D-04-0.777D-01-0.199D-01 0.109D+01
 Coeff:     -0.210D-05 0.110D-04 0.112D-04-0.845D-04-0.161D-03 0.457D-03
 Coeff:      0.620D-02-0.450D-04-0.777D-01-0.199D-01 0.109D+01
 Gap=     0.634 Goal=   None    Shift=    0.000
 RMSDP=4.47D-09 MaxDP=7.63D-08 DE= 9.09D-13 OVMax= 8.50D-08

 SCF Done:  E(RHF) =  -474.677644486     A.U. after   11 cycles
            NFock= 11  Conv=0.45D-08     -V/T= 2.0023
 KE= 4.735862453843D+02 PE=-1.682090398876D+03 EE= 4.578848923193D+02
 Leave Link  502 at Thu Apr  2 15:07:43 2026, MaxMem=  1073741824 cpu:               2.0 elap:               0.6
 (Enter /Users/yarger/Applications/g16/l701.exe)
 ... and contract with generalized density number  0.
 Compute integral first derivatives.
 Leave Link  701 at Thu Apr  2 15:07:43 2026, MaxMem=  1073741824 cpu:               0.3 elap:               0.1
 (Enter /Users/yarger/Applications/g16/l702.exe)
 L702 exits ... SP integral derivatives will be done elsewhere.
 Leave Link  702 at Thu Apr  2 15:07:43 2026, MaxMem=  1073741824 cpu:               0.1 elap:               0.0
 (Enter /Users/yarger/Applications/g16/l703.exe)
 Integral derivatives from FoFJK, PRISM(SPDF).
 Compute integral first derivatives, UseDBF=F ICtDFT=           0.
 Calling FoFJK, ICntrl=      2127 FMM=F ISym2X=1 I1Cent= 0 IOpClX= 0 NMat=1 NMatS=1 NMatT=0.
 FoFJK:  IHMeth= 1 ICntrl=    2127 DoSepK=F KAlg= 0 I1Cent=           0 FoldK=F
 IRaf=         0 NMat=       1 IRICut=       1 DoRegI=T DoRafI=F ISym2E= 1 IDoP0=0 IntGTp=1.
 FoFCou: FMM=F IPFlag=           0 FMFlag=      100000 FMFlg1=         800
         NFxFlg=           0 DoJE=F BraDBF=F KetDBF=F FulRan=T
         wScrn=  0.000000 ICntrl=      2127 IOpCl=  0 I1Cent=           0 NGrid=           0
         NMat0=    1 NMatS0=      1 NMatT0=    0 NMatD0=    1 NMtDS0=    0 NMtDT0=    0
 Petite list used in FoFCou.
 Leave Link  703 at Thu Apr  2 15:07:44 2026, MaxMem=  1073741824 cpu:               1.2 elap:               0.3
 (Enter /Users/yarger/Applications/g16/l716.exe)
 Dipole        = 6.54850021D-01 7.18117202D-01-8.88178420D-16
 ***** Axes restored to original set *****
 -------------------------------------------------------------------
 Center     Atomic                   Forces (Hartrees/Bohr)
 Number     Number              X              Y              Z
 -------------------------------------------------------------------
      1        6           0.002259102   -0.000373840   -0.002775358
      2        1          -0.000853446   -0.000418754    0.000313705
      3        6           0.012215685   -0.010651804   -0.001191700
      4        9          -0.001386231    0.005086912    0.006212013
      5        9          -0.007720408   -0.001702725    0.001970644
      6        9          -0.002196314    0.007062031   -0.008024952
      7        9          -0.002305997    0.000515405    0.002618773
      8        1          -0.000012392    0.000482775    0.000876875
 -------------------------------------------------------------------
 Cartesian Forces:  Max     0.012215685 RMS     0.004758178
 Leave Link  716 at Thu Apr  2 15:07:44 2026, MaxMem=  1073741824 cpu:               0.1 elap:               0.0
 (Enter /Users/yarger/Applications/g16/l103.exe)

 GradGradGradGradGradGradGradGradGradGradGradGradGradGradGradGradGradGrad
 Berny optimization.
 Using GEDIIS/GDIIS optimizer.
 FormGI is forming the generalized inverse of G from B-inverse, IUseBI=4.
 Internal  Forces:  Max     0.009243366 RMS     0.004547126
 Search for a local minimum.
 Step number   2 out of a maximum of   38
 All quantities printed in internal units (Hartrees-Bohrs-Radians)
 RMS Force = .45471D-02 SwitMx=.10000D-02 MixMth= 1
 Mixed Optimization -- RFO/linear search
 Update second derivatives using D2CorX and points    1    2
 DE= -4.13D-03 DEPred=-5.84D-03 R= 7.07D-01
 TightC=F SS=  1.41D+00  RLast= 1.78D-01 DXNew= 5.0454D-01 5.3537D-01
 Trust test= 7.07D-01 RLast= 1.78D-01 DXMaxT set to 5.05D-01
 ITU=  1  0
 Use linear search instead of GDIIS.
     Eigenvalues ---    0.00237   0.05895   0.06023   0.07884   0.08328
     Eigenvalues ---    0.16000   0.16033   0.22587   0.24681   0.25000
     Eigenvalues ---    0.27437   0.33123   0.37230   0.37515   0.53636
     Eigenvalues ---    0.55021   0.55021   0.59985
 RFO step:  Lambda=-5.73809077D-04 EMin= 2.36824250D-03
 Quartic linear search produced a step of -0.22057.
 Iteration  1 RMS(Cart)=  0.01471863 RMS(Int)=  0.00027051
 Iteration  2 RMS(Cart)=  0.00025633 RMS(Int)=  0.00011518
 Iteration  3 RMS(Cart)=  0.00000007 RMS(Int)=  0.00011518
 ITry= 1 IFail=0 DXMaxC= 3.35D-02 DCOld= 1.00D+10 DXMaxT= 5.05D-01 DXLimC= 3.00D+00 Rises=F
 ClnCor:  largest displacement from symmetrization is 1.62D-08 for atom     5.
 Variable       Old X    -DE/DX   Delta X   Delta X   Delta X     New X
                                 (Linear)    (Quad)   (Total)
    R1        2.04186  -0.00067  -0.00438   0.00453   0.00015   2.04201
    R2        2.85049   0.00104   0.01317  -0.01545  -0.00229   2.84820
    R3        2.55687   0.00307  -0.00127   0.00601   0.00474   2.56161
    R4        2.04186  -0.00067  -0.00438   0.00453   0.00015   2.04201
    R5        2.49114   0.00355   0.01323  -0.01237   0.00086   2.49200
    R6        2.49114   0.00355   0.01323  -0.01237   0.00086   2.49200
    R7        2.49315   0.00788   0.01279  -0.00565   0.00714   2.50028
    A1        1.90311   0.00043   0.00166   0.00038   0.00205   1.90516
    A2        1.91338  -0.00152  -0.00061  -0.00569  -0.00628   1.90711
    A3        1.93697  -0.00066  -0.00581   0.00632   0.00051   1.93747
    A4        1.89329   0.00296   0.00382   0.00435   0.00820   1.90149
    A5        1.90311   0.00043   0.00166   0.00038   0.00205   1.90516
    A6        1.91338  -0.00152  -0.00061  -0.00569  -0.00628   1.90711
    A7        1.97096  -0.00826  -0.01331  -0.00725  -0.02046   1.95050
    A8        1.97096  -0.00826  -0.01331  -0.00725  -0.02046   1.95050
    A9        1.92599  -0.00873  -0.00339  -0.02265  -0.02624   1.89975
   A10        1.86297   0.00906   0.01051   0.01275   0.02361   1.88658
   A11        1.86316   0.00924   0.01047   0.01381   0.02409   1.88725
   A12        1.86316   0.00924   0.01047   0.01381   0.02409   1.88725
    D1        1.02496   0.00036   0.00491  -0.00707  -0.00204   1.02292
    D2        3.14083  -0.00008   0.00017  -0.00113  -0.00111   3.13972
    D3       -1.05870   0.00014   0.00254  -0.00410  -0.00157  -1.06027
    D4       -1.05794   0.00022   0.00237  -0.00297  -0.00046  -1.05840
    D5        1.05794  -0.00022  -0.00237   0.00297   0.00046   1.05840
    D6       -3.14159  -0.00000  -0.00000   0.00000  -0.00000   3.14159
    D7       -3.14083   0.00008  -0.00017   0.00113   0.00111  -3.13972
    D8       -1.02496  -0.00036  -0.00491   0.00707   0.00204  -1.02292
    D9        1.05870  -0.00014  -0.00254   0.00410   0.00157   1.06027
         Item               Value     Threshold  Converged?
 Maximum Force            0.009243     0.000015     NO 
 RMS     Force            0.004547     0.000010     NO 
 Maximum Displacement     0.033505     0.000060     NO 
 RMS     Displacement     0.014846     0.000040     NO 
 Predicted change in Energy=-6.967966D-04
 Lowest energy point so far.  Saving SCF results.
 GradGradGradGradGradGradGradGradGradGradGradGradGradGradGradGradGradGrad

 Leave Link  103 at Thu Apr  2 15:07:44 2026, MaxMem=  1073741824 cpu:               0.0 elap:               0.0
 (Enter /Users/yarger/Applications/g16/l202.exe)
                          Input orientation:                          
 ---------------------------------------------------------------------
 Center     Atomic      Atomic             Coordinates (Angstroms)
 Number     Number       Type             X           Y           Z
 ---------------------------------------------------------------------
      1          6           0       -1.494424    1.408448    1.449936
      2          1           0       -1.158607    2.435524    1.447769
      3          6           0       -0.325617    0.505277    1.150214
      4          9           0        0.645700    0.654815    2.029515
      5          9           0       -0.679027   -0.765167    1.142477
      6          9           0        0.151985    0.807087   -0.046190
      7          9           0       -1.985382    1.100913    2.675452
      8          1           0       -2.263808    1.250853    0.707726
 ---------------------------------------------------------------------
                    Distance matrix (angstroms):
                    1          2          3          4          5
     1  C    0.000000
     2  H    1.080585   0.000000
     3  C    1.507203   2.123267   0.000000
     4  F    2.341795   2.600938   1.318707   0.000000
     5  F    2.341795   3.250788   1.318707   2.134968   0.000000
     6  F    2.304493   2.569313   1.323092   2.139040   2.139040
     7  F    1.355547   1.992976   2.331514   2.745693   2.745693
     8  H    1.080585   1.781173   2.123267   3.250788   2.600938
                    6          7          8
     6  F    0.000000
     7  F    3.473040   0.000000
     8  H    2.569313   1.992976   0.000000
 Stoichiometry    C2H2F4
 Framework group  CS[SG(C2F2),X(H2F2)]
 Deg. of freedom    11
 Full point group                 CS      NOp   2
 RotChk:  IX=2 Diff= 3.72D-03
 Largest Abelian subgroup         CS      NOp   2
 Largest concise Abelian subgroup CS      NOp   2
                         Standard orientation:                         
 ---------------------------------------------------------------------
 Center     Atomic      Atomic             Coordinates (Angstroms)
 Number     Number       Type             X           Y           Z
 ---------------------------------------------------------------------
      1          6           0        1.146935    0.239696    0.000000
      2          1           0        1.484846    0.749926   -0.890587
      3          6           0       -0.359443    0.189820   -0.000000
      4          9           0       -0.828076   -0.426499   -1.067484
      5          9           0       -0.828076   -0.426499    1.067484
      6          9           0       -0.828076    1.427139   -0.000000
      7          9           0        1.629269   -1.027136    0.000000
      8          1           0        1.484846    0.749926    0.890587
 ---------------------------------------------------------------------
 Rotational constants (GHZ):           5.4781388           2.8623587           2.8230260
 Leave Link  202 at Thu Apr  2 15:07:44 2026, MaxMem=  1073741824 cpu:               0.0 elap:               0.0
 (Enter /Users/yarger/Applications/g16/l301.exe)
 Standard basis: 6-31+G(d) (6D, 7F)
 Ernie: Thresh=  0.10000D-02 Tol=  0.10000D-05 Strict=F.
 There are    77 symmetry adapted cartesian basis functions of A'  symmetry.
 There are    41 symmetry adapted cartesian basis functions of A"  symmetry.
 There are    77 symmetry adapted basis functions of A'  symmetry.
 There are    41 symmetry adapted basis functions of A"  symmetry.
   118 basis functions,   200 primitive gaussians,   118 cartesian basis functions
    25 alpha electrons       25 beta electrons
       nuclear repulsion energy       275.6787338420 Hartrees.
 IExCor=    0 DFT=F Ex=HF Corr=None ExCW=0 ScaHFX=  1.000000
 ScaDFX=  1.000000  1.000000  1.000000  1.000000 ScalE2=  1.000000  1.000000
 IRadAn=      5 IRanWt=     -1 IRanGd=            0 ICorTp=0 IEmpDi=  4
 NAtoms=    8 NActive=    8 NUniq=    6 SFac= 1.78D+00 NAtFMM=   60 NAOKFM=F Big=F
 Integral buffers will be    131072 words long.
 Raffenetti 1 integral format.
 Two-electron integral symmetry is turned on.
 Leave Link  301 at Thu Apr  2 15:07:44 2026, MaxMem=  1073741824 cpu:               0.1 elap:               0.0
 (Enter /Users/yarger/Applications/g16/l302.exe)
 NPDir=0 NMtPBC=     1 NCelOv=     1 NCel=       1 NClECP=     1 NCelD=      1
         NCelK=      1 NCelE2=     1 NClLst=     1 CellRange=     0.0.
 One-electron integrals computed using PRISM.
 One-electron integral symmetry used in STVInt
 NBasis=   118 RedAO= T EigKep=  1.88D-04  NBF=    77    41
 NBsUse=   118 1.00D-06 EigRej= -1.00D+00 NBFU=    77    41
 Leave Link  302 at Thu Apr  2 15:07:44 2026, MaxMem=  1073741824 cpu:               0.3 elap:               0.1
 (Enter /Users/yarger/Applications/g16/l303.exe)
 DipDrv:  MaxL=1.
 Leave Link  303 at Thu Apr  2 15:07:44 2026, MaxMem=  1073741824 cpu:               0.1 elap:               0.0
 (Enter /Users/yarger/Applications/g16/l401.exe)
 Initial guess from the checkpoint file:  "1112Tetrafluoroethane_Opt_Freq_HF_631pd_Gaussian16.chk"
 B after Tr=     0.000000    0.000000   -0.000000
         Rot=    1.000000    0.000000    0.000000   -0.000733 Ang=  -0.08 deg.
 Guess basis will be translated and rotated to current coordinates.
 JPrj=2 DoOrth=T DoCkMO=T.
 Initial guess orbital symmetries:
       Occupied  (A') (A") (A') (A') (A') (A') (A') (A') (A") (A')
                 (A') (A') (A") (A') (A') (A") (A') (A') (A") (A')
                 (A') (A") (A") (A") (A')
       Virtual   (A') (A') (A') (A") (A") (A') (A') (A') (A') (A")
                 (A') (A') (A") (A') (A") (A') (A') (A") (A") (A')
                 (A") (A') (A') (A') (A') (A") (A') (A') (A") (A')
                 (A') (A') (A') (A") (A') (A') (A") (A") (A') (A')
                 (A') (A") (A') (A') (A") (A') (A") (A') (A") (A')
                 (A") (A') (A") (A') (A') (A") (A') (A') (A") (A')
                 (A") (A") (A') (A") (A') (A') (A") (A') (A') (A")
                 (A') (A") (A") (A') (A') (A") (A') (A') (A") (A')
                 (A") (A') (A') (A') (A") (A') (A') (A') (A') (A')
                 (A") (A') (A')
 The electronic state of the initial guess is 1-A'.
 Generating alternative initial guess.
 ExpMin= 4.38D-02 ExpMax= 7.00D+03 ExpMxC= 1.05D+03 IAcc=2 IRadAn=         4 AccDes= 0.00D+00
 Harris functional with IExCor=  205 and IRadAn=       4 diagonalized for initial guess.
 HarFok:  IExCor=  205 AccDes= 0.00D+00 IRadAn=         4 IDoV= 1 UseB2=F ITyADJ=14
 ICtDFT=  3500011 ScaDFX=  1.000000  1.000000  1.000000  1.000000
 FoFCou: FMM=F IPFlag=           0 FMFlag=      100000 FMFlg1=           0
         NFxFlg=           0 DoJE=T BraDBF=F KetDBF=T FulRan=T
         wScrn=  0.000000 ICntrl=       500 IOpCl=  0 I1Cent=   200000004 NGrid=           0
         NMat0=    1 NMatS0=      1 NMatT0=    0 NMatD0=    1 NMtDS0=    0 NMtDT0=    0
 Petite list used in FoFCou.
 Harris En= -474.635245546466    
 Leave Link  401 at Thu Apr  2 15:07:44 2026, MaxMem=  1073741824 cpu:               0.6 elap:               0.2
 (Enter /Users/yarger/Applications/g16/l502.exe)
 Keep R1 ints in memory in symmetry-blocked form, NReq=37119245.
 FoFCou: FMM=F IPFlag=           0 FMFlag=           0 FMFlg1=           0
         NFxFlg=           0 DoJE=F BraDBF=F KetDBF=F FulRan=T
         wScrn=  0.000000 ICntrl=       600 IOpCl=  0 I1Cent=           0 NGrid=           0
         NMat0=    1 NMatS0=   7021 NMatT0=    0 NMatD0=    1 NMtDS0=    0 NMtDT0=    0
 Petite list used in FoFCou.
 Closed shell SCF:
 Using DIIS extrapolation, IDIIS=  1040.
 NGot=  1073741824 LenX=  1061244307 LenY=  1061229942
 Requested convergence on RMS density matrix=1.00D-08 within 128 cycles.
 Requested convergence on MAX density matrix=1.00D-06.
 Requested convergence on             energy=1.00D-06.
 No special actions if energy rises.

 Cycle   1  Pass 1  IDiag  1:
 E= -474.677524201067    
 DIIS: error= 1.45D-03 at cycle   1 NSaved=   1.
 NSaved= 1 IEnMin= 1 EnMin= -474.677524201067     IErMin= 1 ErrMin= 1.45D-03
 ErrMax= 1.45D-03  0.00D+00 EMaxC= 1.00D-01 BMatC= 5.49D-04 BMatP= 5.49D-04
 IDIUse=3 WtCom= 9.85D-01 WtEn= 1.45D-02
 Coeff-Com:  0.100D+01
 Coeff-En:   0.100D+01
 Coeff:      0.100D+01
 Gap=     0.631 Goal=   None    Shift=    0.000
 GapD=    0.631 DampG=2.000 DampE=1.000 DampFc=2.0000 IDamp=-1.
 RMSDP=2.54D-04 MaxDP=3.78D-03              OVMax= 4.94D-03

 Cycle   2  Pass 1  IDiag  1:
 E= -474.678162206317     Delta-E=       -0.000638005250 Rises=F Damp=F
 DIIS: error= 4.27D-04 at cycle   2 NSaved=   2.
 NSaved= 2 IEnMin= 2 EnMin= -474.678162206317     IErMin= 2 ErrMin= 4.27D-04
 ErrMax= 4.27D-04  0.00D+00 EMaxC= 1.00D-01 BMatC= 3.91D-05 BMatP= 5.49D-04
 IDIUse=3 WtCom= 9.96D-01 WtEn= 4.27D-03
 Coeff-Com: -0.232D+00 0.123D+01
 Coeff-En:   0.000D+00 0.100D+01
 Coeff:     -0.231D+00 0.123D+01
 Gap=     0.632 Goal=   None    Shift=    0.000
 RMSDP=8.21D-05 MaxDP=1.36D-03 DE=-6.38D-04 OVMax= 2.39D-03

 Cycle   3  Pass 1  IDiag  1:
 E= -474.678239734127     Delta-E=       -0.000077527810 Rises=F Damp=F
 DIIS: error= 1.63D-04 at cycle   3 NSaved=   3.
 NSaved= 3 IEnMin= 3 EnMin= -474.678239734127     IErMin= 3 ErrMin= 1.63D-04
 ErrMax= 1.63D-04  0.00D+00 EMaxC= 1.00D-01 BMatC= 3.51D-06 BMatP= 3.91D-05
 IDIUse=3 WtCom= 9.98D-01 WtEn= 1.63D-03
 Coeff-Com: -0.174D-01-0.107D+00 0.112D+01
 Coeff-En:   0.000D+00 0.000D+00 0.100D+01
 Coeff:     -0.173D-01-0.107D+00 0.112D+01
 Gap=     0.632 Goal=   None    Shift=    0.000
 RMSDP=2.59D-05 MaxDP=4.86D-04 DE=-7.75D-05 OVMax= 6.94D-04

 Cycle   4  Pass 1  IDiag  1:
 E= -474.678246200713     Delta-E=       -0.000006466586 Rises=F Damp=F
 DIIS: error= 6.30D-05 at cycle   4 NSaved=   4.
 NSaved= 4 IEnMin= 4 EnMin= -474.678246200713     IErMin= 4 ErrMin= 6.30D-05
 ErrMax= 6.30D-05  0.00D+00 EMaxC= 1.00D-01 BMatC= 7.11D-07 BMatP= 3.51D-06
 IDIUse=1 WtCom= 1.00D+00 WtEn= 0.00D+00
 Coeff-Com:  0.288D-01-0.208D+00 0.304D+00 0.876D+00
 Coeff:      0.288D-01-0.208D+00 0.304D+00 0.876D+00
 Gap=     0.632 Goal=   None    Shift=    0.000
 RMSDP=9.41D-06 MaxDP=1.74D-04 DE=-6.47D-06 OVMax= 2.46D-04

 Cycle   5  Pass 1  IDiag  1:
 E= -474.678247031051     Delta-E=       -0.000000830337 Rises=F Damp=F
 DIIS: error= 1.02D-05 at cycle   5 NSaved=   5.
 NSaved= 5 IEnMin= 5 EnMin= -474.678247031051     IErMin= 5 ErrMin= 1.02D-05
 ErrMax= 1.02D-05  0.00D+00 EMaxC= 1.00D-01 BMatC= 1.76D-08 BMatP= 7.11D-07
 IDIUse=1 WtCom= 1.00D+00 WtEn= 0.00D+00
 Coeff-Com:  0.784D-03 0.798D-02-0.635D-01-0.938D-02 0.106D+01
 Coeff:      0.784D-03 0.798D-02-0.635D-01-0.938D-02 0.106D+01
 Gap=     0.632 Goal=   None    Shift=    0.000
 RMSDP=2.23D-06 MaxDP=4.46D-05 DE=-8.30D-07 OVMax= 4.83D-05

 Cycle   6  Pass 1  IDiag  1:
 E= -474.678247058076     Delta-E=       -0.000000027025 Rises=F Damp=F
 DIIS: error= 2.62D-06 at cycle   6 NSaved=   6.
 NSaved= 6 IEnMin= 6 EnMin= -474.678247058076     IErMin= 6 ErrMin= 2.62D-06
 ErrMax= 2.62D-06  0.00D+00 EMaxC= 1.00D-01 BMatC= 1.40D-09 BMatP= 1.76D-08
 IDIUse=1 WtCom= 1.00D+00 WtEn= 0.00D+00
 Coeff-Com: -0.172D-02 0.143D-01-0.278D-01-0.556D-01 0.121D+00 0.950D+00
 Coeff:     -0.172D-02 0.143D-01-0.278D-01-0.556D-01 0.121D+00 0.950D+00
 Gap=     0.632 Goal=   None    Shift=    0.000
 RMSDP=5.90D-07 MaxDP=1.07D-05 DE=-2.70D-08 OVMax= 1.27D-05

 Cycle   7  Pass 1  IDiag  1:
 E= -474.678247059936     Delta-E=       -0.000000001860 Rises=F Damp=F
 DIIS: error= 7.79D-07 at cycle   7 NSaved=   7.
 NSaved= 7 IEnMin= 7 EnMin= -474.678247059936     IErMin= 7 ErrMin= 7.79D-07
 ErrMax= 7.79D-07  0.00D+00 EMaxC= 1.00D-01 BMatC= 9.22D-11 BMatP= 1.40D-09
 IDIUse=1 WtCom= 1.00D+00 WtEn= 0.00D+00
 Coeff-Com: -0.392D-04-0.350D-03 0.314D-02-0.559D-03-0.600D-01 0.187D-01
 Coeff-Com:  0.104D+01
 Coeff:     -0.392D-04-0.350D-03 0.314D-02-0.559D-03-0.600D-01 0.187D-01
 Coeff:      0.104D+01
 Gap=     0.632 Goal=   None    Shift=    0.000
 RMSDP=1.55D-07 MaxDP=2.49D-06 DE=-1.86D-09 OVMax= 4.06D-06

 Cycle   8  Pass 1  IDiag  1:
 E= -474.678247060077     Delta-E=       -0.000000000141 Rises=F Damp=F
 DIIS: error= 3.40D-07 at cycle   8 NSaved=   8.
 NSaved= 8 IEnMin= 8 EnMin= -474.678247060077     IErMin= 8 ErrMin= 3.40D-07
 ErrMax= 3.40D-07  0.00D+00 EMaxC= 1.00D-01 BMatC= 1.36D-11 BMatP= 9.22D-11
 IDIUse=1 WtCom= 1.00D+00 WtEn= 0.00D+00
 Coeff-Com:  0.146D-03-0.137D-02 0.322D-02 0.488D-02-0.240D-01-0.815D-01
 Coeff-Com:  0.240D+00 0.859D+00
 Coeff:      0.146D-03-0.137D-02 0.322D-02 0.488D-02-0.240D-01-0.815D-01
 Coeff:      0.240D+00 0.859D+00
 Gap=     0.632 Goal=   None    Shift=    0.000
 RMSDP=4.49D-08 MaxDP=8.47D-07 DE=-1.41D-10 OVMax= 1.47D-06

 Cycle   9  Pass 1  IDiag  1:
 E= -474.678247060091     Delta-E=       -0.000000000015 Rises=F Damp=F
 DIIS: error= 1.08D-07 at cycle   9 NSaved=   9.
 NSaved= 9 IEnMin= 9 EnMin= -474.678247060091     IErMin= 9 ErrMin= 1.08D-07
 ErrMax= 1.08D-07  0.00D+00 EMaxC= 1.00D-01 BMatC= 9.57D-13 BMatP= 1.36D-11
 IDIUse=1 WtCom= 1.00D+00 WtEn= 0.00D+00
 Coeff-Com: -0.139D-04 0.212D-03-0.731D-03-0.498D-03 0.913D-02 0.807D-02
 Coeff-Com: -0.139D+00-0.849D-01 0.121D+01
 Coeff:     -0.139D-04 0.212D-03-0.731D-03-0.498D-03 0.913D-02 0.807D-02
 Coeff:     -0.139D+00-0.849D-01 0.121D+01
 Gap=     0.632 Goal=   None    Shift=    0.000
 RMSDP=1.91D-08 MaxDP=4.20D-07 DE=-1.46D-11 OVMax= 6.91D-07

 Cycle  10  Pass 1  IDiag  1:
 E= -474.678247060098     Delta-E=       -0.000000000007 Rises=F Damp=F
 DIIS: error= 3.18D-08 at cycle  10 NSaved=  10.
 NSaved=10 IEnMin=10 EnMin= -474.678247060098     IErMin=10 ErrMin= 3.18D-08
 ErrMax= 3.18D-08  0.00D+00 EMaxC= 1.00D-01 BMatC= 4.88D-14 BMatP= 9.57D-13
 IDIUse=1 WtCom= 1.00D+00 WtEn= 0.00D+00
 Coeff-Com: -0.727D-05 0.514D-04-0.833D-04-0.252D-03-0.327D-04 0.429D-02
 Coeff-Com:  0.827D-02-0.397D-01-0.236D+00 0.126D+01
 Coeff:     -0.727D-05 0.514D-04-0.833D-04-0.252D-03-0.327D-04 0.429D-02
 Coeff:      0.827D-02-0.397D-01-0.236D+00 0.126D+01
 Gap=     0.632 Goal=   None    Shift=    0.000
 RMSDP=5.17D-09 MaxDP=1.20D-07 DE=-7.05D-12 OVMax= 1.78D-07

 SCF Done:  E(RHF) =  -474.678247060     A.U. after   10 cycles
            NFock= 10  Conv=0.52D-08     -V/T= 2.0024
 KE= 4.735552643615D+02 PE=-1.681514847975D+03 EE= 4.576026027116D+02
 Leave Link  502 at Thu Apr  2 15:07:45 2026, MaxMem=  1073741824 cpu:               2.0 elap:               0.5
 (Enter /Users/yarger/Applications/g16/l701.exe)
 ... and contract with generalized density number  0.
 Compute integral first derivatives.
 Leave Link  701 at Thu Apr  2 15:07:45 2026, MaxMem=  1073741824 cpu:               0.3 elap:               0.1
 (Enter /Users/yarger/Applications/g16/l702.exe)
 L702 exits ... SP integral derivatives will be done elsewhere.
 Leave Link  702 at Thu Apr  2 15:07:45 2026, MaxMem=  1073741824 cpu:               0.1 elap:               0.0
 (Enter /Users/yarger/Applications/g16/l703.exe)
 Integral derivatives from FoFJK, PRISM(SPDF).
 Compute integral first derivatives, UseDBF=F ICtDFT=           0.
 Calling FoFJK, ICntrl=      2127 FMM=F ISym2X=1 I1Cent= 0 IOpClX= 0 NMat=1 NMatS=1 NMatT=0.
 FoFJK:  IHMeth= 1 ICntrl=    2127 DoSepK=F KAlg= 0 I1Cent=           0 FoldK=F
 IRaf=         0 NMat=       1 IRICut=       1 DoRegI=T DoRafI=F ISym2E= 1 IDoP0=0 IntGTp=1.
 FoFCou: FMM=F IPFlag=           0 FMFlag=      100000 FMFlg1=         800
         NFxFlg=           0 DoJE=F BraDBF=F KetDBF=F FulRan=T
         wScrn=  0.000000 ICntrl=      2127 IOpCl=  0 I1Cent=           0 NGrid=           0
         NMat0=    1 NMatS0=      1 NMatT0=    0 NMatD0=    1 NMtDS0=    0 NMtDT0=    0
 Petite list used in FoFCou.
 Leave Link  703 at Thu Apr  2 15:07:45 2026, MaxMem=  1073741824 cpu:               1.2 elap:               0.3
 (Enter /Users/yarger/Applications/g16/l716.exe)
 Dipole        = 5.77890656D-01 7.13834149D-01-1.77635684D-15
 ***** Axes restored to original set *****
 -------------------------------------------------------------------
 Center     Atomic                   Forces (Hartrees/Bohr)
 Number     Number              X              Y              Z
 -------------------------------------------------------------------
      1        6          -0.001339677    0.001767983   -0.000829498
      2        1          -0.000685266   -0.000571555   -0.000141734
      3        6          -0.000293386   -0.000484495    0.001213737
      4        9           0.000501579   -0.000726852   -0.000381465
      5        9           0.000911972   -0.000286950   -0.000106665
      6        9           0.001486083   -0.000280278   -0.001770684
      7        9          -0.000968537    0.000004087    0.001439897
      8        1           0.000387232    0.000578061    0.000576411
 -------------------------------------------------------------------
 Cartesian Forces:  Max     0.001770684 RMS     0.000897212
 Leave Link  716 at Thu Apr  2 15:07:45 2026, MaxMem=  1073741824 cpu:               0.1 elap:               0.0
 (Enter /Users/yarger/Applications/g16/l103.exe)

 GradGradGradGradGradGradGradGradGradGradGradGradGradGradGradGradGradGrad
 Berny optimization.
 Using GEDIIS/GDIIS optimizer.
 FormGI is forming the generalized inverse of G from B-inverse, IUseBI=4.
 Internal  Forces:  Max     0.003294706 RMS     0.001031811
 Search for a local minimum.
 Step number   3 out of a maximum of   38
 All quantities printed in internal units (Hartrees-Bohrs-Radians)
 RMS Force = .10318D-02 SwitMx=.10000D-02 MixMth= 1
 Mixed Optimization -- RFO/linear search
 Update second derivatives using D2CorX and points    1    2    3
 DE= -6.03D-04 DEPred=-6.97D-04 R= 8.65D-01
 TightC=F SS=  1.41D+00  RLast= 5.91D-02 DXNew= 8.4853D-01 1.7734D-01
 Trust test= 8.65D-01 RLast= 5.91D-02 DXMaxT set to 5.05D-01
 ITU=  1  1  0
 Use linear search instead of GDIIS.
     Eigenvalues ---    0.00237   0.05842   0.05996   0.08218   0.08722
     Eigenvalues ---    0.15980   0.16000   0.22164   0.24776   0.25000
     Eigenvalues ---    0.29052   0.37230   0.37320   0.39418   0.53595
     Eigenvalues ---    0.55021   0.55022   0.59532
 RFO step:  Lambda=-6.75030619D-05 EMin= 2.36824250D-03
 Quartic linear search produced a step of -0.09444.
 Iteration  1 RMS(Cart)=  0.00570714 RMS(Int)=  0.00001047
 Iteration  2 RMS(Cart)=  0.00000461 RMS(Int)=  0.00000928
 Iteration  3 RMS(Cart)=  0.00000000 RMS(Int)=  0.00000928
 ITry= 1 IFail=0 DXMaxC= 1.15D-02 DCOld= 1.00D+10 DXMaxT= 5.05D-01 DXLimC= 3.00D+00 Rises=F
 ClnCor:  largest displacement from symmetrization is 6.66D-10 for atom     5.
 Variable       Old X    -DE/DX   Delta X   Delta X   Delta X     New X
                                 (Linear)    (Quad)   (Total)
    R1        2.04201  -0.00076  -0.00001  -0.00186  -0.00188   2.04013
    R2        2.84820   0.00329   0.00022   0.01009   0.01031   2.85851
    R3        2.56161   0.00165  -0.00045   0.00324   0.00279   2.56441
    R4        2.04201  -0.00076  -0.00001  -0.00186  -0.00188   2.04013
    R5        2.49200   0.00003  -0.00008   0.00053   0.00045   2.49244
    R6        2.49200   0.00003  -0.00008   0.00053   0.00045   2.49244
    R7        2.50028   0.00207  -0.00067   0.00462   0.00395   2.50423
    A1        1.90516   0.00035  -0.00019   0.00218   0.00198   1.90714
    A2        1.90711  -0.00049   0.00059  -0.00229  -0.00171   1.90540
    A3        1.93747  -0.00058  -0.00005  -0.00474  -0.00479   1.93269
    A4        1.90149   0.00088  -0.00077   0.00518   0.00440   1.90589
    A5        1.90516   0.00035  -0.00019   0.00218   0.00198   1.90714
    A6        1.90711  -0.00049   0.00059  -0.00229  -0.00171   1.90540
    A7        1.95050   0.00108   0.00193   0.00009   0.00204   1.95254
    A8        1.95050   0.00108   0.00193   0.00009   0.00204   1.95254
    A9        1.89975   0.00139   0.00248   0.00125   0.00375   1.90350
   A10        1.88658  -0.00129  -0.00223  -0.00141  -0.00362   1.88295
   A11        1.88725  -0.00121  -0.00227  -0.00001  -0.00227   1.88498
   A12        1.88725  -0.00121  -0.00227  -0.00001  -0.00227   1.88498
    D1        1.02292   0.00020   0.00019   0.00240   0.00260   1.02552
    D2        3.13972   0.00007   0.00011   0.00071   0.00082   3.14054
    D3       -1.06027   0.00013   0.00015   0.00156   0.00171  -1.05856
    D4       -1.05840   0.00007   0.00004   0.00085   0.00089  -1.05751
    D5        1.05840  -0.00007  -0.00004  -0.00085  -0.00089   1.05751
    D6        3.14159   0.00000   0.00000  -0.00000   0.00000  -3.14159
    D7       -3.13972  -0.00007  -0.00011  -0.00071  -0.00082  -3.14054
    D8       -1.02292  -0.00020  -0.00019  -0.00240  -0.00260  -1.02552
    D9        1.06027  -0.00013  -0.00015  -0.00156  -0.00171   1.05856
         Item               Value     Threshold  Converged?
 Maximum Force            0.003295     0.000015     NO 
 RMS     Force            0.001032     0.000010     NO 
 Maximum Displacement     0.011499     0.000060     NO 
 RMS     Displacement     0.005707     0.000040     NO 
 Predicted change in Energy=-4.044331D-05
 Lowest energy point so far.  Saving SCF results.
 GradGradGradGradGradGradGradGradGradGradGradGradGradGradGradGradGradGrad

 Leave Link  103 at Thu Apr  2 15:07:45 2026, MaxMem=  1073741824 cpu:               0.0 elap:               0.0
 (Enter /Users/yarger/Applications/g16/l202.exe)
                          Input orientation:                          
 ---------------------------------------------------------------------
 Center     Atomic      Atomic             Coordinates (Angstroms)
 Number     Number       Type             X           Y           Z
 ---------------------------------------------------------------------
      1          6           0       -1.496772    1.409757    1.451346
      2          1           0       -1.164031    2.436787    1.448346
      3          6           0       -0.323557    0.503993    1.149194
      4          9           0        0.649469    0.650783    2.027423
      5          9           0       -0.673754   -0.767586    1.141392
      6          9           0        0.157328    0.803692   -0.048736
      7          9           0       -1.991467    1.105167    2.677730
      8          1           0       -2.266395    1.255157    0.710202
 ---------------------------------------------------------------------
                    Distance matrix (angstroms):
                    1          2          3          4          5
     1  C    0.000000
     2  H    1.079590   0.000000
     3  C    1.512659   2.128751   0.000000
     4  F    2.348245   2.610349   1.318944   0.000000
     5  F    2.348245   3.256163   1.318944   2.132543   0.000000
     6  F    2.313787   2.579582   1.325182   2.139163   2.139163
     7  F    1.357025   1.992297   2.340888   2.757518   2.757518
     8  H    1.079590   1.776601   2.128751   3.256163   2.610349
                    6          7          8
     6  F    0.000000
     7  F    3.484512   0.000000
     8  H    2.579582   1.992297   0.000000
 Stoichiometry    C2H2F4
 Framework group  CS[SG(C2F2),X(H2F2)]
 Deg. of freedom    11
 Full point group                 CS      NOp   2
 RotChk:  IX=2 Diff= 7.31D-04
 Largest Abelian subgroup         CS      NOp   2
 Largest concise Abelian subgroup CS      NOp   2
                         Standard orientation:                         
 ---------------------------------------------------------------------
 Center     Atomic      Atomic             Coordinates (Angstroms)
 Number     Number       Type             X           Y           Z
 ---------------------------------------------------------------------
      1          6           0        1.151623    0.238100   -0.000000
      2          1           0        1.491977    0.748587   -0.888301
      3          6           0       -0.360282    0.190340    0.000000
      4          9           0       -0.832414   -0.425913   -1.066272
      5          9           0       -0.832414   -0.425913    1.066272
      6          9           0       -0.832414    1.428563   -0.000000
      7          9           0        1.638131   -1.028717   -0.000000
      8          1           0        1.491977    0.748587    0.888301
 ---------------------------------------------------------------------
 Rotational constants (GHZ):           5.4792890           2.8453649           2.8034805
 Leave Link  202 at Thu Apr  2 15:07:45 2026, MaxMem=  1073741824 cpu:               0.0 elap:               0.0
 (Enter /Users/yarger/Applications/g16/l301.exe)
 Standard basis: 6-31+G(d) (6D, 7F)
 Ernie: Thresh=  0.10000D-02 Tol=  0.10000D-05 Strict=F.
 There are    77 symmetry adapted cartesian basis functions of A'  symmetry.
 There are    41 symmetry adapted cartesian basis functions of A"  symmetry.
 There are    77 symmetry adapted basis functions of A'  symmetry.
 There are    41 symmetry adapted basis functions of A"  symmetry.
   118 basis functions,   200 primitive gaussians,   118 cartesian basis functions
    25 alpha electrons       25 beta electrons
       nuclear repulsion energy       275.2157749196 Hartrees.
 IExCor=    0 DFT=F Ex=HF Corr=None ExCW=0 ScaHFX=  1.000000
 ScaDFX=  1.000000  1.000000  1.000000  1.000000 ScalE2=  1.000000  1.000000
 IRadAn=      5 IRanWt=     -1 IRanGd=            0 ICorTp=0 IEmpDi=  4
 NAtoms=    8 NActive=    8 NUniq=    6 SFac= 1.78D+00 NAtFMM=   60 NAOKFM=F Big=F
 Integral buffers will be    131072 words long.
 Raffenetti 1 integral format.
 Two-electron integral symmetry is turned on.
 Leave Link  301 at Thu Apr  2 15:07:45 2026, MaxMem=  1073741824 cpu:               0.1 elap:               0.0
 (Enter /Users/yarger/Applications/g16/l302.exe)
 NPDir=0 NMtPBC=     1 NCelOv=     1 NCel=       1 NClECP=     1 NCelD=      1
         NCelK=      1 NCelE2=     1 NClLst=     1 CellRange=     0.0.
 One-electron integrals computed using PRISM.
 One-electron integral symmetry used in STVInt
 NBasis=   118 RedAO= T EigKep=  1.91D-04  NBF=    77    41
 NBsUse=   118 1.00D-06 EigRej= -1.00D+00 NBFU=    77    41
 Leave Link  302 at Thu Apr  2 15:07:46 2026, MaxMem=  1073741824 cpu:               0.3 elap:               0.1
 (Enter /Users/yarger/Applications/g16/l303.exe)
 DipDrv:  MaxL=1.
 Leave Link  303 at Thu Apr  2 15:07:46 2026, MaxMem=  1073741824 cpu:               0.1 elap:               0.0
 (Enter /Users/yarger/Applications/g16/l401.exe)
 Initial guess from the checkpoint file:  "1112Tetrafluoroethane_Opt_Freq_HF_631pd_Gaussian16.chk"
 B after Tr=    -0.000000   -0.000000   -0.000000
         Rot=    1.000000   -0.000000   -0.000000   -0.000165 Ang=  -0.02 deg.
 Guess basis will be translated and rotated to current coordinates.
 JPrj=2 DoOrth=T DoCkMO=T.
 Initial guess orbital symmetries:
       Occupied  (A') (A") (A') (A') (A') (A') (A') (A') (A") (A')
                 (A') (A') (A") (A') (A') (A") (A') (A") (A') (A')
                 (A") (A') (A") (A") (A')
       Virtual   (A') (A') (A') (A") (A") (A') (A') (A') (A') (A")
                 (A') (A') (A") (A') (A") (A') (A') (A") (A") (A')
                 (A") (A') (A') (A') (A') (A") (A') (A') (A") (A')
                 (A') (A') (A') (A") (A') (A') (A") (A") (A') (A')
                 (A') (A") (A') (A') (A") (A') (A") (A') (A") (A')
                 (A") (A') (A") (A') (A') (A") (A') (A') (A") (A')
                 (A") (A") (A') (A") (A') (A') (A") (A') (A") (A')
                 (A") (A') (A") (A') (A') (A') (A") (A') (A") (A')
                 (A") (A') (A') (A') (A") (A') (A') (A') (A') (A')
                 (A") (A') (A')
 The electronic state of the initial guess is 1-A'.
 Leave Link  401 at Thu Apr  2 15:07:46 2026, MaxMem=  1073741824 cpu:               0.2 elap:               0.1
 (Enter /Users/yarger/Applications/g16/l502.exe)
 Keep R1 ints in memory in symmetry-blocked form, NReq=37119245.
 FoFCou: FMM=F IPFlag=           0 FMFlag=           0 FMFlg1=           0
         NFxFlg=           0 DoJE=F BraDBF=F KetDBF=F FulRan=T
         wScrn=  0.000000 ICntrl=       600 IOpCl=  0 I1Cent=           0 NGrid=           0
         NMat0=    1 NMatS0=   7021 NMatT0=    0 NMatD0=    1 NMtDS0=    0 NMtDT0=    0
 Petite list used in FoFCou.
 Closed shell SCF:
 Using DIIS extrapolation, IDIIS=  1040.
 NGot=  1073741824 LenX=  1061244307 LenY=  1061229942
 Requested convergence on RMS density matrix=1.00D-08 within 128 cycles.
 Requested convergence on MAX density matrix=1.00D-06.
 Requested convergence on             energy=1.00D-06.
 No special actions if energy rises.

 Cycle   1  Pass 1  IDiag  1:
 E= -474.678254561971    
 DIIS: error= 2.54D-04 at cycle   1 NSaved=   1.
 NSaved= 1 IEnMin= 1 EnMin= -474.678254561971     IErMin= 1 ErrMin= 2.54D-04
 ErrMax= 2.54D-04  0.00D+00 EMaxC= 1.00D-01 BMatC= 1.93D-05 BMatP= 1.93D-05
 IDIUse=3 WtCom= 9.97D-01 WtEn= 2.54D-03
 Coeff-Com:  0.100D+01
 Coeff-En:   0.100D+01
 Coeff:      0.100D+01
 Gap=     0.632 Goal=   None    Shift=    0.000
 RMSDP=6.03D-05 MaxDP=1.08D-03              OVMax= 8.28D-04

 Cycle   2  Pass 1  IDiag  1:
 E= -474.678275828415     Delta-E=       -0.000021266443 Rises=F Damp=F
 DIIS: error= 7.97D-05 at cycle   2 NSaved=   2.
 NSaved= 2 IEnMin= 2 EnMin= -474.678275828415     IErMin= 2 ErrMin= 7.97D-05
 ErrMax= 7.97D-05  0.00D+00 EMaxC= 1.00D-01 BMatC= 1.11D-06 BMatP= 1.93D-05
 IDIUse=1 WtCom= 1.00D+00 WtEn= 0.00D+00
 Coeff-Com: -0.143D+00 0.114D+01
 Coeff:     -0.143D+00 0.114D+01
 Gap=     0.632 Goal=   None    Shift=    0.000
 RMSDP=1.49D-05 MaxDP=2.66D-04 DE=-2.13D-05 OVMax= 3.14D-04

 Cycle   3  Pass 1  IDiag  1:
 E= -474.678277714508     Delta-E=       -0.000001886094 Rises=F Damp=F
 DIIS: error= 2.35D-05 at cycle   3 NSaved=   3.
 NSaved= 3 IEnMin= 3 EnMin= -474.678277714508     IErMin= 3 ErrMin= 2.35D-05
 ErrMax= 2.35D-05  0.00D+00 EMaxC= 1.00D-01 BMatC= 1.29D-07 BMatP= 1.11D-06
 IDIUse=1 WtCom= 1.00D+00 WtEn= 0.00D+00
 Coeff-Com: -0.519D-01 0.826D-01 0.969D+00
 Coeff:     -0.519D-01 0.826D-01 0.969D+00
 Gap=     0.632 Goal=   None    Shift=    0.000
 RMSDP=4.36D-06 MaxDP=7.50D-05 DE=-1.89D-06 OVMax= 1.00D-04

 Cycle   4  Pass 1  IDiag  1:
 E= -474.678277908373     Delta-E=       -0.000000193865 Rises=F Damp=F
 DIIS: error= 8.67D-06 at cycle   4 NSaved=   4.
 NSaved= 4 IEnMin= 4 EnMin= -474.678277908373     IErMin= 4 ErrMin= 8.67D-06
 ErrMax= 8.67D-06  0.00D+00 EMaxC= 1.00D-01 BMatC= 1.73D-08 BMatP= 1.29D-07
 IDIUse=1 WtCom= 1.00D+00 WtEn= 0.00D+00
 Coeff-Com:  0.117D-01-0.120D+00 0.689D-01 0.104D+01
 Coeff:      0.117D-01-0.120D+00 0.689D-01 0.104D+01
 Gap=     0.632 Goal=   None    Shift=    0.000
 RMSDP=1.92D-06 MaxDP=3.83D-05 DE=-1.94D-07 OVMax= 4.79D-05

 Cycle   5  Pass 1  IDiag  1:
 E= -474.678277937412     Delta-E=       -0.000000029038 Rises=F Damp=F
 DIIS: error= 2.93D-06 at cycle   5 NSaved=   5.
 NSaved= 5 IEnMin= 5 EnMin= -474.678277937412     IErMin= 5 ErrMin= 2.93D-06
 ErrMax= 2.93D-06  0.00D+00 EMaxC= 1.00D-01 BMatC= 1.74D-09 BMatP= 1.73D-08
 IDIUse=1 WtCom= 1.00D+00 WtEn= 0.00D+00
 Coeff-Com:  0.655D-02-0.272D-01-0.768D-01 0.156D+00 0.942D+00
 Coeff:      0.655D-02-0.272D-01-0.768D-01 0.156D+00 0.942D+00
 Gap=     0.632 Goal=   None    Shift=    0.000
 RMSDP=5.52D-07 MaxDP=9.47D-06 DE=-2.90D-08 OVMax= 1.31D-05

 Cycle   6  Pass 1  IDiag  1:
 E= -474.678277939819     Delta-E=       -0.000000002407 Rises=F Damp=F
 DIIS: error= 9.66D-07 at cycle   6 NSaved=   6.
 NSaved= 6 IEnMin= 6 EnMin= -474.678277939819     IErMin= 6 ErrMin= 9.66D-07
 ErrMax= 9.66D-07  0.00D+00 EMaxC= 1.00D-01 BMatC= 1.15D-10 BMatP= 1.74D-09
 IDIUse=1 WtCom= 1.00D+00 WtEn= 0.00D+00
 Coeff-Com: -0.912D-03 0.109D-01-0.990D-02-0.975D-01 0.426D-01 0.105D+01
 Coeff:     -0.912D-03 0.109D-01-0.990D-02-0.975D-01 0.426D-01 0.105D+01
 Gap=     0.632 Goal=   None    Shift=    0.000
 RMSDP=1.78D-07 MaxDP=3.45D-06 DE=-2.41D-09 OVMax= 5.86D-06

 Cycle   7  Pass 1  IDiag  1:
 E= -474.678277940015     Delta-E=       -0.000000000196 Rises=F Damp=F
 DIIS: error= 2.68D-07 at cycle   7 NSaved=   7.
 NSaved= 7 IEnMin= 7 EnMin= -474.678277940015     IErMin= 7 ErrMin= 2.68D-07
 ErrMax= 2.68D-07  0.00D+00 EMaxC= 1.00D-01 BMatC= 4.91D-12 BMatP= 1.15D-10
 IDIUse=1 WtCom= 1.00D+00 WtEn= 0.00D+00
 Coeff-Com: -0.137D-03-0.366D-03 0.491D-02 0.695D-02-0.516D-01-0.146D+00
 Coeff-Com:  0.119D+01
 Coeff:     -0.137D-03-0.366D-03 0.491D-02 0.695D-02-0.516D-01-0.146D+00
 Coeff:      0.119D+01
 Gap=     0.632 Goal=   None    Shift=    0.000
 RMSDP=3.89D-08 MaxDP=7.48D-07 DE=-1.96D-10 OVMax= 1.65D-06

 Cycle   8  Pass 1  IDiag  1:
 E= -474.678277940023     Delta-E=       -0.000000000008 Rises=F Damp=F
 DIIS: error= 8.86D-08 at cycle   8 NSaved=   8.
 NSaved= 8 IEnMin= 8 EnMin= -474.678277940023     IErMin= 8 ErrMin= 8.86D-08
 ErrMax= 8.86D-08  0.00D+00 EMaxC= 1.00D-01 BMatC= 5.59D-13 BMatP= 4.91D-12
 IDIUse=1 WtCom= 1.00D+00 WtEn= 0.00D+00
 Coeff-Com:  0.452D-04-0.778D-03 0.140D-02 0.695D-02-0.109D-01-0.838D-01
 Coeff-Com:  0.180D+00 0.908D+00
 Coeff:      0.452D-04-0.778D-03 0.140D-02 0.695D-02-0.109D-01-0.838D-01
 Coeff:      0.180D+00 0.908D+00
 Gap=     0.632 Goal=   None    Shift=    0.000
 RMSDP=9.77D-09 MaxDP=1.82D-07 DE=-8.41D-12 OVMax= 4.51D-07

 SCF Done:  E(RHF) =  -474.678277940     A.U. after    8 cycles
            NFock=  8  Conv=0.98D-08     -V/T= 2.0024
 KE= 4.735345494747D+02 PE=-1.680575830729D+03 EE= 4.571472283949D+02
 Leave Link  502 at Thu Apr  2 15:07:46 2026, MaxMem=  1073741824 cpu:               1.9 elap:               0.5
 (Enter /Users/yarger/Applications/g16/l701.exe)
 ... and contract with generalized density number  0.
 Compute integral first derivatives.
 Leave Link  701 at Thu Apr  2 15:07:46 2026, MaxMem=  1073741824 cpu:               0.3 elap:               0.1
 (Enter /Users/yarger/Applications/g16/l702.exe)
 L702 exits ... SP integral derivatives will be done elsewhere.
 Leave Link  702 at Thu Apr  2 15:07:46 2026, MaxMem=  1073741824 cpu:               0.1 elap:               0.0
 (Enter /Users/yarger/Applications/g16/l703.exe)
 Integral derivatives from FoFJK, PRISM(SPDF).
 Compute integral first derivatives, UseDBF=F ICtDFT=           0.
 Calling FoFJK, ICntrl=      2127 FMM=F ISym2X=1 I1Cent= 0 IOpClX= 0 NMat=1 NMatS=1 NMatT=0.
 FoFJK:  IHMeth= 1 ICntrl=    2127 DoSepK=F KAlg= 0 I1Cent=           0 FoldK=F
 IRaf=         0 NMat=       1 IRICut=       1 DoRegI=T DoRafI=F ISym2E= 1 IDoP0=0 IntGTp=1.
 FoFCou: FMM=F IPFlag=           0 FMFlag=      100000 FMFlg1=         800
         NFxFlg=           0 DoJE=F BraDBF=F KetDBF=F FulRan=T
         wScrn=  0.000000 ICntrl=      2127 IOpCl=  0 I1Cent=           0 NGrid=           0
         NMat0=    1 NMatS0=      1 NMatT0=    0 NMatD0=    1 NMtDS0=    0 NMtDT0=    0
 Petite list used in FoFCou.
 Leave Link  703 at Thu Apr  2 15:07:47 2026, MaxMem=  1073741824 cpu:               1.2 elap:               0.3
 (Enter /Users/yarger/Applications/g16/l716.exe)
 Dipole        = 5.84645008D-01 7.13046658D-01 0.00000000D+00
 ***** Axes restored to original set *****
 -------------------------------------------------------------------
 Center     Atomic                   Forces (Hartrees/Bohr)
 Number     Number              X              Y              Z
 -------------------------------------------------------------------
      1        6           0.000217904    0.000182128   -0.000616977
      2        1           0.000159129   -0.000083199   -0.000007305
      3        6          -0.000444213   -0.000180369    0.000952137
      4        9          -0.000148582    0.000125689   -0.000309539
      5        9           0.000021686    0.000308200   -0.000195527
      6        9          -0.000181115    0.000068444    0.000160916
      7        9           0.000266157   -0.000283999    0.000057142
      8        1           0.000109034   -0.000136895   -0.000040848
 -------------------------------------------------------------------
 Cartesian Forces:  Max     0.000952137 RMS     0.000299155
 Leave Link  716 at Thu Apr  2 15:07:47 2026, MaxMem=  1073741824 cpu:               0.1 elap:               0.0
 (Enter /Users/yarger/Applications/g16/l103.exe)

 GradGradGradGradGradGradGradGradGradGradGradGradGradGradGradGradGradGrad
 Berny optimization.
 Using GEDIIS/GDIIS optimizer.
 FormGI is forming the generalized inverse of G from B-inverse, IUseBI=4.
 Internal  Forces:  Max     0.000897658 RMS     0.000270564
 Search for a local minimum.
 Step number   4 out of a maximum of   38
 All quantities printed in internal units (Hartrees-Bohrs-Radians)
 RMS Force = .27056D-03 SwitMx=.10000D-02 MixMth= 2
 Mixed Optimization -- En-DIIS/RFO-DIIS
 Update second derivatives using D2CorX and points    1    2    3    4
 DE= -3.09D-05 DEPred=-4.04D-05 R= 7.64D-01
 TightC=F SS=  1.41D+00  RLast= 1.62D-02 DXNew= 8.4853D-01 4.8476D-02
 Trust test= 7.64D-01 RLast= 1.62D-02 DXMaxT set to 5.05D-01
 ITU=  1  1  1  0
 Use linear search instead of GDIIS.
     Eigenvalues ---    0.00237   0.05801   0.05994   0.08262   0.08668
     Eigenvalues ---    0.16000   0.16359   0.22852   0.24616   0.25000
     Eigenvalues ---    0.32679   0.36953   0.37230   0.42249   0.50317
     Eigenvalues ---    0.55021   0.55049   0.60183
 RFO step:  Lambda=-2.94483299D-06 EMin= 2.36824250D-03
 Quartic linear search produced a step of -0.18941.
 Iteration  1 RMS(Cart)=  0.00130012 RMS(Int)=  0.00000089
 Iteration  2 RMS(Cart)=  0.00000091 RMS(Int)=  0.00000047
 ITry= 1 IFail=0 DXMaxC= 2.67D-03 DCOld= 1.00D+10 DXMaxT= 5.05D-01 DXLimC= 3.00D+00 Rises=F
 ClnCor:  largest displacement from symmetrization is 3.11D-11 for atom     8.
 Variable       Old X    -DE/DX   Delta X   Delta X   Delta X     New X
                                 (Linear)    (Quad)   (Total)
    R1        2.04013  -0.00003   0.00036  -0.00051  -0.00016   2.03997
    R2        2.85851  -0.00090  -0.00195  -0.00002  -0.00197   2.85654
    R3        2.56441   0.00002  -0.00053   0.00072   0.00019   2.56460
    R4        2.04013  -0.00003   0.00036  -0.00051  -0.00016   2.03997
    R5        2.49244  -0.00030  -0.00008  -0.00035  -0.00044   2.49200
    R6        2.49244  -0.00030  -0.00008  -0.00035  -0.00044   2.49200
    R7        2.50423  -0.00020  -0.00075   0.00067  -0.00008   2.50415
    A1        1.90714  -0.00010  -0.00037  -0.00005  -0.00043   1.90671
    A2        1.90540   0.00033   0.00032   0.00063   0.00096   1.90636
    A3        1.93269   0.00019   0.00091   0.00027   0.00117   1.93386
    A4        1.90589  -0.00068  -0.00083  -0.00146  -0.00229   1.90360
    A5        1.90714  -0.00010  -0.00037  -0.00005  -0.00043   1.90671
    A6        1.90540   0.00033   0.00032   0.00063   0.00096   1.90636
    A7        1.95254   0.00006  -0.00039   0.00095   0.00056   1.95310
    A8        1.95254   0.00006  -0.00039   0.00095   0.00056   1.95310
    A9        1.90350  -0.00035  -0.00071  -0.00082  -0.00153   1.90197
   A10        1.88295   0.00014   0.00069   0.00063   0.00132   1.88427
   A11        1.88498   0.00005   0.00043  -0.00092  -0.00049   1.88449
   A12        1.88498   0.00005   0.00043  -0.00092  -0.00049   1.88449
    D1        1.02552  -0.00019  -0.00049  -0.00121  -0.00171   1.02381
    D2        3.14054   0.00008  -0.00016   0.00096   0.00080   3.14134
    D3       -1.05856  -0.00006  -0.00032  -0.00013  -0.00045  -1.05902
    D4       -1.05751  -0.00013  -0.00017  -0.00108  -0.00125  -1.05876
    D5        1.05751   0.00013   0.00017   0.00108   0.00125   1.05876
    D6        3.14159   0.00000   0.00000   0.00000   0.00000   3.14159
    D7       -3.14054  -0.00008   0.00016  -0.00096  -0.00080  -3.14134
    D8       -1.02552   0.00019   0.00049   0.00121   0.00171  -1.02381
    D9        1.05856   0.00006   0.00032   0.00013   0.00045   1.05902
         Item               Value     Threshold  Converged?
 Maximum Force            0.000898     0.000015     NO 
 RMS     Force            0.000271     0.000010     NO 
 Maximum Displacement     0.002667     0.000060     NO 
 RMS     Displacement     0.001301     0.000040     NO 
 Predicted change in Energy=-3.220144D-06
 Lowest energy point so far.  Saving SCF results.
 GradGradGradGradGradGradGradGradGradGradGradGradGradGradGradGradGradGrad

 Leave Link  103 at Thu Apr  2 15:07:47 2026, MaxMem=  1073741824 cpu:               0.0 elap:               0.0
 (Enter /Users/yarger/Applications/g16/l202.exe)
                          Input orientation:                          
 ---------------------------------------------------------------------
 Center     Atomic      Atomic             Coordinates (Angstroms)
 Number     Number       Type             X           Y           Z
 ---------------------------------------------------------------------
      1          6           0       -1.496588    1.409886    1.450866
      2          1           0       -1.162944    2.436535    1.447827
      3          6           0       -0.324350    0.504109    1.150192
      4          9           0        0.649033    0.651589    2.027560
      5          9           0       -0.674591   -0.767210    1.141261
      6          9           0        0.155986    0.804346   -0.047779
      7          9           0       -1.990056    1.103975    2.677530
      8          1           0       -2.265669    1.254518    0.709441
 ---------------------------------------------------------------------
                    Distance matrix (angstroms):
                    1          2          3          4          5
     1  C    0.000000
     2  H    1.079507   0.000000
     3  C    1.511614   2.127462   0.000000
     4  F    2.347612   2.608713   1.318712   0.000000
     5  F    2.347612   3.255219   1.318712   2.133190   0.000000
     6  F    2.311626   2.576907   1.325141   2.138565   2.138565
     7  F    1.357128   1.992988   2.338199   2.755341   2.755341
     8  H    1.079507   1.777183   2.127462   3.255219   2.608713
                    6          7          8
     6  F    0.000000
     7  F    3.481749   0.000000
     8  H    2.576907   1.992988   0.000000
 Stoichiometry    C2H2F4
 Framework group  CS[SG(C2F2),X(H2F2)]
 Deg. of freedom    11
 Full point group                 CS      NOp   2
 RotChk:  IX=2 Diff= 6.14D-04
 Largest Abelian subgroup         CS      NOp   2
 Largest concise Abelian subgroup CS      NOp   2
                         Standard orientation:                         
 ---------------------------------------------------------------------
 Center     Atomic      Atomic             Coordinates (Angstroms)
 Number     Number       Type             X           Y           Z
 ---------------------------------------------------------------------
      1          6           0        1.151031    0.239216    0.000000
      2          1           0        1.490228    0.749790   -0.888591
      3          6           0       -0.359762    0.189404   -0.000000
      4          9           0       -0.831700   -0.425943   -1.066595
      5          9           0       -0.831700   -0.425943    1.066595
      6          9           0       -0.831700    1.427658    0.000000
      7          9           0        1.636425   -1.028139    0.000000
      8          1           0        1.490228    0.749790    0.888591
 ---------------------------------------------------------------------
 Rotational constants (GHZ):           5.4787487           2.8489698           2.8076877
 Leave Link  202 at Thu Apr  2 15:07:47 2026, MaxMem=  1073741824 cpu:               0.0 elap:               0.0
 (Enter /Users/yarger/Applications/g16/l301.exe)
 Standard basis: 6-31+G(d) (6D, 7F)
 Ernie: Thresh=  0.10000D-02 Tol=  0.10000D-05 Strict=F.
 There are    77 symmetry adapted cartesian basis functions of A'  symmetry.
 There are    41 symmetry adapted cartesian basis functions of A"  symmetry.
 There are    77 symmetry adapted basis functions of A'  symmetry.
 There are    41 symmetry adapted basis functions of A"  symmetry.
   118 basis functions,   200 primitive gaussians,   118 cartesian basis functions
    25 alpha electrons       25 beta electrons
       nuclear repulsion energy       275.3102061910 Hartrees.
 IExCor=    0 DFT=F Ex=HF Corr=None ExCW=0 ScaHFX=  1.000000
 ScaDFX=  1.000000  1.000000  1.000000  1.000000 ScalE2=  1.000000  1.000000
 IRadAn=      5 IRanWt=     -1 IRanGd=            0 ICorTp=0 IEmpDi=  4
 NAtoms=    8 NActive=    8 NUniq=    6 SFac= 1.78D+00 NAtFMM=   60 NAOKFM=F Big=F
 Integral buffers will be    131072 words long.
 Raffenetti 1 integral format.
 Two-electron integral symmetry is turned on.
 Leave Link  301 at Thu Apr  2 15:07:47 2026, MaxMem=  1073741824 cpu:               0.1 elap:               0.0
 (Enter /Users/yarger/Applications/g16/l302.exe)
 NPDir=0 NMtPBC=     1 NCelOv=     1 NCel=       1 NClECP=     1 NCelD=      1
         NCelK=      1 NCelE2=     1 NClLst=     1 CellRange=     0.0.
 One-electron integrals computed using PRISM.
 One-electron integral symmetry used in STVInt
 NBasis=   118 RedAO= T EigKep=  1.91D-04  NBF=    77    41
 NBsUse=   118 1.00D-06 EigRej= -1.00D+00 NBFU=    77    41
 Leave Link  302 at Thu Apr  2 15:07:47 2026, MaxMem=  1073741824 cpu:               0.3 elap:               0.1
 (Enter /Users/yarger/Applications/g16/l303.exe)
 DipDrv:  MaxL=1.
 Leave Link  303 at Thu Apr  2 15:07:47 2026, MaxMem=  1073741824 cpu:               0.1 elap:               0.0
 (Enter /Users/yarger/Applications/g16/l401.exe)
 Initial guess from the checkpoint file:  "1112Tetrafluoroethane_Opt_Freq_HF_631pd_Gaussian16.chk"
 B after Tr=     0.000000    0.000000    0.000000
         Rot=    1.000000   -0.000000   -0.000000   -0.000070 Ang=  -0.01 deg.
 Guess basis will be translated and rotated to current coordinates.
 JPrj=2 DoOrth=T DoCkMO=T.
 Initial guess orbital symmetries:
       Occupied  (A') (A") (A') (A') (A') (A') (A') (A') (A") (A')
                 (A') (A') (A") (A') (A') (A") (A') (A") (A') (A')
                 (A") (A') (A") (A") (A')
       Virtual   (A') (A') (A') (A") (A") (A') (A') (A') (A') (A")
                 (A') (A') (A") (A') (A") (A') (A') (A") (A') (A")
                 (A") (A') (A') (A') (A') (A") (A') (A') (A") (A')
                 (A') (A') (A') (A") (A') (A') (A") (A") (A') (A')
                 (A') (A") (A') (A') (A") (A') (A") (A') (A") (A')
                 (A") (A') (A") (A') (A') (A") (A') (A') (A") (A')
                 (A") (A") (A') (A") (A') (A') (A") (A') (A") (A')
                 (A') (A") (A') (A") (A') (A') (A") (A') (A") (A')
                 (A") (A') (A') (A') (A") (A') (A') (A') (A') (A')
                 (A") (A') (A')
 The electronic state of the initial guess is 1-A'.
 Leave Link  401 at Thu Apr  2 15:07:47 2026, MaxMem=  1073741824 cpu:               0.2 elap:               0.1
 (Enter /Users/yarger/Applications/g16/l502.exe)
 Keep R1 ints in memory in symmetry-blocked form, NReq=37119245.
 FoFCou: FMM=F IPFlag=           0 FMFlag=           0 FMFlg1=           0
         NFxFlg=           0 DoJE=F BraDBF=F KetDBF=F FulRan=T
         wScrn=  0.000000 ICntrl=       600 IOpCl=  0 I1Cent=           0 NGrid=           0
         NMat0=    1 NMatS0=   7021 NMatT0=    0 NMatD0=    1 NMtDS0=    0 NMtDT0=    0
 Petite list used in FoFCou.
 Closed shell SCF:
 Using DIIS extrapolation, IDIIS=  1040.
 NGot=  1073741824 LenX=  1061244307 LenY=  1061229942
 Requested convergence on RMS density matrix=1.00D-08 within 128 cycles.
 Requested convergence on MAX density matrix=1.00D-06.
 Requested convergence on             energy=1.00D-06.
 No special actions if energy rises.

 Cycle   1  Pass 1  IDiag  1:
 E= -474.678279529157    
 DIIS: error= 7.08D-05 at cycle   1 NSaved=   1.
 NSaved= 1 IEnMin= 1 EnMin= -474.678279529157     IErMin= 1 ErrMin= 7.08D-05
 ErrMax= 7.08D-05  0.00D+00 EMaxC= 1.00D-01 BMatC= 1.30D-06 BMatP= 1.30D-06
 IDIUse=1 WtCom= 1.00D+00 WtEn= 0.00D+00
 Coeff-Com:  0.100D+01
 Coeff:      0.100D+01
 Gap=     0.632 Goal=   None    Shift=    0.000
 RMSDP=1.47D-05 MaxDP=2.69D-04              OVMax= 2.75D-04

 Cycle   2  Pass 1  IDiag  1:
 E= -474.678281017206     Delta-E=       -0.000001488049 Rises=F Damp=F
 DIIS: error= 2.67D-05 at cycle   2 NSaved=   2.
 NSaved= 2 IEnMin= 2 EnMin= -474.678281017206     IErMin= 2 ErrMin= 2.67D-05
 ErrMax= 2.67D-05  0.00D+00 EMaxC= 1.00D-01 BMatC= 8.40D-08 BMatP= 1.30D-06
 IDIUse=1 WtCom= 1.00D+00 WtEn= 0.00D+00
 Coeff-Com: -0.142D+00 0.114D+01
 Coeff:     -0.142D+00 0.114D+01
 Gap=     0.632 Goal=   None    Shift=    0.000
 RMSDP=4.03D-06 MaxDP=6.23D-05 DE=-1.49D-06 OVMax= 9.94D-05

 Cycle   3  Pass 1  IDiag  1:
 E= -474.678281161846     Delta-E=       -0.000000144639 Rises=F Damp=F
 DIIS: error= 9.78D-06 at cycle   3 NSaved=   3.
 NSaved= 3 IEnMin= 3 EnMin= -474.678281161846     IErMin= 3 ErrMin= 9.78D-06
 ErrMax= 9.78D-06  0.00D+00 EMaxC= 1.00D-01 BMatC= 1.23D-08 BMatP= 8.40D-08
 IDIUse=1 WtCom= 1.00D+00 WtEn= 0.00D+00
 Coeff-Com: -0.625D-01 0.132D+00 0.931D+00
 Coeff:     -0.625D-01 0.132D+00 0.931D+00
 Gap=     0.632 Goal=   None    Shift=    0.000
 RMSDP=1.33D-06 MaxDP=2.52D-05 DE=-1.45D-07 OVMax= 3.68D-05

 Cycle   4  Pass 1  IDiag  1:
 E= -474.678281179842     Delta-E=       -0.000000017996 Rises=F Damp=F
 DIIS: error= 4.15D-06 at cycle   4 NSaved=   4.
 NSaved= 4 IEnMin= 4 EnMin= -474.678281179842     IErMin= 4 ErrMin= 4.15D-06
 ErrMax= 4.15D-06  0.00D+00 EMaxC= 1.00D-01 BMatC= 2.04D-09 BMatP= 1.23D-08
 IDIUse=1 WtCom= 1.00D+00 WtEn= 0.00D+00
 Coeff-Com:  0.154D-01-0.155D+00 0.956D-01 0.104D+01
 Coeff:      0.154D-01-0.155D+00 0.956D-01 0.104D+01
 Gap=     0.632 Goal=   None    Shift=    0.000
 RMSDP=6.49D-07 MaxDP=1.50D-05 DE=-1.80D-08 OVMax= 1.87D-05

 Cycle   5  Pass 1  IDiag  1:
 E= -474.678281183272     Delta-E=       -0.000000003431 Rises=F Damp=F
 DIIS: error= 1.09D-06 at cycle   5 NSaved=   5.
 NSaved= 5 IEnMin= 5 EnMin= -474.678281183272     IErMin= 5 ErrMin= 1.09D-06
 ErrMax= 1.09D-06  0.00D+00 EMaxC= 1.00D-01 BMatC= 1.58D-10 BMatP= 2.04D-09
 IDIUse=1 WtCom= 1.00D+00 WtEn= 0.00D+00
 Coeff-Com:  0.810D-02-0.352D-01-0.771D-01 0.129D+00 0.976D+00
 Coeff:      0.810D-02-0.352D-01-0.771D-01 0.129D+00 0.976D+00
 Gap=     0.632 Goal=   None    Shift=    0.000
 RMSDP=1.90D-07 MaxDP=3.67D-06 DE=-3.43D-09 OVMax= 5.81D-06

 Cycle   6  Pass 1  IDiag  1:
 E= -474.678281183533     Delta-E=       -0.000000000261 Rises=F Damp=F
 DIIS: error= 2.80D-07 at cycle   6 NSaved=   6.
 NSaved= 6 IEnMin= 6 EnMin= -474.678281183533     IErMin= 6 ErrMin= 2.80D-07
 ErrMax= 2.80D-07  0.00D+00 EMaxC= 1.00D-01 BMatC= 8.37D-12 BMatP= 1.58D-10
 IDIUse=1 WtCom= 1.00D+00 WtEn= 0.00D+00
 Coeff-Com: -0.139D-02 0.136D-01-0.728D-02-0.865D-01-0.263D-01 0.111D+01
 Coeff:     -0.139D-02 0.136D-01-0.728D-02-0.865D-01-0.263D-01 0.111D+01
 Gap=     0.632 Goal=   None    Shift=    0.000
 RMSDP=5.41D-08 MaxDP=9.31D-07 DE=-2.61D-10 OVMax= 1.67D-06

 Cycle   7  Pass 1  IDiag  1:
 E= -474.678281183556     Delta-E=       -0.000000000023 Rises=F Damp=F
 DIIS: error= 5.44D-08 at cycle   7 NSaved=   7.
 NSaved= 7 IEnMin= 7 EnMin= -474.678281183556     IErMin= 7 ErrMin= 5.44D-08
 ErrMax= 5.44D-08  0.00D+00 EMaxC= 1.00D-01 BMatC= 3.33D-13 BMatP= 8.37D-12
 IDIUse=1 WtCom= 1.00D+00 WtEn= 0.00D+00
 Coeff-Com: -0.120D-03-0.422D-03 0.419D-02 0.642D-02-0.365D-01-0.152D+00
 Coeff-Com:  0.118D+01
 Coeff:     -0.120D-03-0.422D-03 0.419D-02 0.642D-02-0.365D-01-0.152D+00
 Coeff:      0.118D+01
 Gap=     0.632 Goal=   None    Shift=    0.000
 RMSDP=1.06D-08 MaxDP=2.06D-07 DE=-2.27D-11 OVMax= 3.45D-07

 Cycle   8  Pass 1  IDiag  1:
 E= -474.678281183553     Delta-E=        0.000000000003 Rises=F Damp=F
 DIIS: error= 1.79D-08 at cycle   8 NSaved=   8.
 NSaved= 8 IEnMin= 7 EnMin= -474.678281183556     IErMin= 8 ErrMin= 1.79D-08
 ErrMax= 1.79D-08  0.00D+00 EMaxC= 1.00D-01 BMatC= 3.30D-14 BMatP= 3.33D-13
 IDIUse=1 WtCom= 1.00D+00 WtEn= 0.00D+00
 Coeff-Com:  0.686D-04-0.773D-03 0.722D-03 0.477D-02-0.976D-03-0.668D-01
 Coeff-Com:  0.863D-01 0.977D+00
 Coeff:      0.686D-04-0.773D-03 0.722D-03 0.477D-02-0.976D-03-0.668D-01
 Coeff:      0.863D-01 0.977D+00
 Gap=     0.632 Goal=   None    Shift=    0.000
 RMSDP=2.49D-09 MaxDP=5.45D-08 DE= 3.18D-12 OVMax= 8.72D-08

 SCF Done:  E(RHF) =  -474.678281184     A.U. after    8 cycles
            NFock=  8  Conv=0.25D-08     -V/T= 2.0024
 KE= 4.735389091373D+02 PE=-1.680768864089D+03 EE= 4.572414675768D+02
 Leave Link  502 at Thu Apr  2 15:07:48 2026, MaxMem=  1073741824 cpu:               1.9 elap:               0.5
 (Enter /Users/yarger/Applications/g16/l701.exe)
 ... and contract with generalized density number  0.
 Compute integral first derivatives.
 Leave Link  701 at Thu Apr  2 15:07:48 2026, MaxMem=  1073741824 cpu:               0.3 elap:               0.1
 (Enter /Users/yarger/Applications/g16/l702.exe)
 L702 exits ... SP integral derivatives will be done elsewhere.
 Leave Link  702 at Thu Apr  2 15:07:48 2026, MaxMem=  1073741824 cpu:               0.1 elap:               0.0
 (Enter /Users/yarger/Applications/g16/l703.exe)
 Integral derivatives from FoFJK, PRISM(SPDF).
 Compute integral first derivatives, UseDBF=F ICtDFT=           0.
 Calling FoFJK, ICntrl=      2127 FMM=F ISym2X=1 I1Cent= 0 IOpClX= 0 NMat=1 NMatS=1 NMatT=0.
 FoFJK:  IHMeth= 1 ICntrl=    2127 DoSepK=F KAlg= 0 I1Cent=           0 FoldK=F
 IRaf=         0 NMat=       1 IRICut=       1 DoRegI=T DoRafI=F ISym2E= 1 IDoP0=0 IntGTp=1.
 FoFCou: FMM=F IPFlag=           0 FMFlag=      100000 FMFlg1=         800
         NFxFlg=           0 DoJE=F BraDBF=F KetDBF=F FulRan=T
         wScrn=  0.000000 ICntrl=      2127 IOpCl=  0 I1Cent=           0 NGrid=           0
         NMat0=    1 NMatS0=      1 NMatT0=    0 NMatD0=    1 NMtDS0=    0 NMtDT0=    0
 Petite list used in FoFCou.
 Leave Link  703 at Thu Apr  2 15:07:48 2026, MaxMem=  1073741824 cpu:               1.2 elap:               0.3
 (Enter /Users/yarger/Applications/g16/l716.exe)
 Dipole        = 5.84666014D-01 7.12258044D-01 2.22044605D-16
 ***** Axes restored to original set *****
 -------------------------------------------------------------------
 Center     Atomic                   Forces (Hartrees/Bohr)
 Number     Number              X              Y              Z
 -------------------------------------------------------------------
      1        6           0.000132253   -0.000046097   -0.000123718
      2        1           0.000013741    0.000003476    0.000039049
      3        6          -0.000097104   -0.000038672    0.000206925
      4        9          -0.000127285   -0.000068174   -0.000069394
      5        9           0.000062777    0.000135554    0.000057871
      6        9           0.000076475    0.000050397   -0.000194887
      7        9          -0.000041014   -0.000003961    0.000067592
      8        1          -0.000019843   -0.000032522    0.000016562
 -------------------------------------------------------------------
 Cartesian Forces:  Max     0.000206925 RMS     0.000090388
 Leave Link  716 at Thu Apr  2 15:07:48 2026, MaxMem=  1073741824 cpu:               0.1 elap:               0.0
 (Enter /Users/yarger/Applications/g16/l103.exe)

 GradGradGradGradGradGradGradGradGradGradGradGradGradGradGradGradGradGrad
 Berny optimization.
 Using GEDIIS/GDIIS optimizer.
 FormGI is forming the generalized inverse of G from B-inverse, IUseBI=4.
 Internal  Forces:  Max     0.000215324 RMS     0.000065721
 Search for a local minimum.
 Step number   5 out of a maximum of   38
 All quantities printed in internal units (Hartrees-Bohrs-Radians)
 RMS Force = .65721D-04 SwitMx=.10000D-02 MixMth= 2
 Mixed Optimization -- En-DIIS/RFO-DIIS
 Swapping is turned off.
 Update second derivatives using D2CorX and points    1    2    3    4    5
 DE= -3.24D-06 DEPred=-3.22D-06 R= 1.01D+00
 TightC=F SS=  1.41D+00  RLast= 5.39D-03 DXNew= 8.4853D-01 1.6163D-02
 Trust test= 1.01D+00 RLast= 5.39D-03 DXMaxT set to 5.05D-01
 ITU=  1  1  1  1  0
     Eigenvalues ---    0.00237   0.05818   0.05904   0.08684   0.09028
     Eigenvalues ---    0.16000   0.16356   0.23829   0.24712   0.25000
     Eigenvalues ---    0.29995   0.36748   0.37230   0.39777   0.49818
     Eigenvalues ---    0.55021   0.55274   0.61380
 En-DIIS/RFO-DIIS/Sim-DIIS IScMMF=       -3 using points:     5    4
 RFO step:  Lambda=-3.69065874D-07.
 NNeg= 0 NGDIIS= 2 SimSw=  2.50D-01 Rises=F DC= -3.24D-06 SmlDif=  1.00D-05
 NRisDI= 0 DoIntr=F SqrtH=F CThrHd= 10.0 CDAdj=  3.0
 RMS Error=  0.2647582151D-03 NUsed= 2 OKEnD=F EnDIS=F
 InvSVX:  RCond= 3.27D-05 Info=           0 Equed=N FErr=  1.03D-15 BErr=  8.12D-17
 DidBck=F Rises=F RFO-DIIS coefs:    0.98446    0.01554
 Iteration  1 RMS(Cart)=  0.00025743 RMS(Int)=  0.00000003
 Iteration  2 RMS(Cart)=  0.00000003 RMS(Int)=  0.00000001
 ITry= 1 IFail=0 DXMaxC= 6.78D-04 DCOld= 1.00D+10 DXMaxT= 5.05D-01 DXLimC= 3.00D+00 Rises=F
 ClnCor:  largest displacement from symmetrization is 2.94D-11 for atom     8.
 Variable       Old X    -DE/DX   Delta X   Delta X   Delta X     New X
                                 (Linear)    (Quad)   (Total)
    R1        2.03997   0.00001   0.00000  -0.00001  -0.00001   2.03997
    R2        2.85654  -0.00011   0.00003  -0.00050  -0.00047   2.85606
    R3        2.56460   0.00008  -0.00000   0.00021   0.00021   2.56481
    R4        2.03997   0.00001   0.00000  -0.00001  -0.00001   2.03997
    R5        2.49200  -0.00015   0.00001  -0.00034  -0.00033   2.49167
    R6        2.49200  -0.00015   0.00001  -0.00034  -0.00033   2.49167
    R7        2.50415   0.00022   0.00000   0.00043   0.00043   2.50458
    A1        1.90671  -0.00000   0.00001   0.00001   0.00002   1.90672
    A2        1.90636  -0.00002  -0.00001  -0.00018  -0.00019   1.90617
    A3        1.93386   0.00003  -0.00002   0.00044   0.00042   1.93428
    A4        1.90360   0.00003   0.00004  -0.00011  -0.00007   1.90353
    A5        1.90671  -0.00000   0.00001   0.00001   0.00002   1.90672
    A6        1.90636  -0.00002  -0.00001  -0.00018  -0.00019   1.90617
    A7        1.95310   0.00001  -0.00001   0.00001   0.00000   1.95310
    A8        1.95310   0.00001  -0.00001   0.00001   0.00000   1.95310
    A9        1.90197   0.00001   0.00002   0.00003   0.00005   1.90202
   A10        1.88427  -0.00005  -0.00002  -0.00037  -0.00039   1.88388
   A11        1.88449   0.00001   0.00001   0.00017   0.00018   1.88467
   A12        1.88449   0.00001   0.00001   0.00017   0.00018   1.88467
    D1        1.02381   0.00002   0.00003  -0.00004  -0.00001   1.02380
    D2        3.14134  -0.00004  -0.00001  -0.00051  -0.00052   3.14082
    D3       -1.05902  -0.00001   0.00001  -0.00027  -0.00027  -1.05928
    D4       -1.05876   0.00003   0.00002   0.00024   0.00025  -1.05851
    D5        1.05876  -0.00003  -0.00002  -0.00024  -0.00025   1.05851
    D6        3.14159  -0.00000   0.00000  -0.00000  -0.00000   3.14159
    D7       -3.14134   0.00004   0.00001   0.00051   0.00052  -3.14082
    D8       -1.02381  -0.00002  -0.00003   0.00004   0.00001  -1.02380
    D9        1.05902   0.00001  -0.00001   0.00027   0.00027   1.05928
         Item               Value     Threshold  Converged?
 Maximum Force            0.000215     0.000015     NO 
 RMS     Force            0.000066     0.000010     NO 
 Maximum Displacement     0.000678     0.000060     NO 
 RMS     Displacement     0.000257     0.000040     NO 
 Predicted change in Energy=-1.845326D-07
 Lowest energy point so far.  Saving SCF results.
 GradGradGradGradGradGradGradGradGradGradGradGradGradGradGradGradGradGrad

 Leave Link  103 at Thu Apr  2 15:07:48 2026, MaxMem=  1073741824 cpu:               0.0 elap:               0.0
 (Enter /Users/yarger/Applications/g16/l202.exe)
                          Input orientation:                          
 ---------------------------------------------------------------------
 Center     Atomic      Atomic             Coordinates (Angstroms)
 Number     Number       Type             X           Y           Z
 ---------------------------------------------------------------------
      1          6           0       -1.496480    1.409868    1.450734
      2          1           0       -1.162787    2.436498    1.447954
      3          6           0       -0.324440    0.504224    1.150144
      4          9           0        0.648675    0.651464    2.027586
      5          9           0       -0.674583   -0.766943    1.141532
      6          9           0        0.156049    0.804439   -0.048021
      7          9           0       -1.989943    1.103885    2.677505
      8          1           0       -2.265669    1.254314    0.709464
 ---------------------------------------------------------------------
                    Distance matrix (angstroms):
                    1          2          3          4          5
     1  C    0.000000
     2  H    1.079504   0.000000
     3  C    1.511364   2.127252   0.000000
     4  F    2.347259   2.608393   1.318536   0.000000
     5  F    2.347259   3.254884   1.318536   2.132600   0.000000
     6  F    2.311636   2.576992   1.325367   2.138744   2.138744
     7  F    1.357239   1.992948   2.338017   2.754883   2.754883
     8  H    1.079504   1.777434   2.127252   3.254884   2.608393
                    6          7          8
     6  F    0.000000
     7  F    3.481873   0.000000
     8  H    2.576992   1.992948   0.000000
 Stoichiometry    C2H2F4
 Framework group  CS[SG(C2F2),X(H2F2)]
 Deg. of freedom    11
 Full point group                 CS      NOp   2
 RotChk:  IX=2 Diff= 2.00D-04
 Largest Abelian subgroup         CS      NOp   2
 Largest concise Abelian subgroup CS      NOp   2
                         Standard orientation:                         
 ---------------------------------------------------------------------
 Center     Atomic      Atomic             Coordinates (Angstroms)
 Number     Number       Type             X           Y           Z
 ---------------------------------------------------------------------
      1          6           0        1.150903    0.239147    0.000000
      2          1           0        1.490183    0.749440   -0.888717
      3          6           0       -0.359646    0.189517   -0.000000
      4          9           0       -0.831584   -0.425964   -1.066300
      5          9           0       -0.831584   -0.425964    1.066300
      6          9           0       -0.831584    1.428013   -0.000000
      7          9           0        1.636097   -1.028404    0.000000
      8          1           0        1.490183    0.749440    0.888717
 ---------------------------------------------------------------------
 Rotational constants (GHZ):           5.4797484           2.8495614           2.8077925
 Leave Link  202 at Thu Apr  2 15:07:48 2026, MaxMem=  1073741824 cpu:               0.0 elap:               0.0
 (Enter /Users/yarger/Applications/g16/l301.exe)
 Standard basis: 6-31+G(d) (6D, 7F)
 Ernie: Thresh=  0.10000D-02 Tol=  0.10000D-05 Strict=F.
 There are    77 symmetry adapted cartesian basis functions of A'  symmetry.
 There are    41 symmetry adapted cartesian basis functions of A"  symmetry.
 There are    77 symmetry adapted basis functions of A'  symmetry.
 There are    41 symmetry adapted basis functions of A"  symmetry.
   118 basis functions,   200 primitive gaussians,   118 cartesian basis functions
    25 alpha electrons       25 beta electrons
       nuclear repulsion energy       275.3251587443 Hartrees.
 IExCor=    0 DFT=F Ex=HF Corr=None ExCW=0 ScaHFX=  1.000000
 ScaDFX=  1.000000  1.000000  1.000000  1.000000 ScalE2=  1.000000  1.000000
 IRadAn=      5 IRanWt=     -1 IRanGd=            0 ICorTp=0 IEmpDi=  4
 NAtoms=    8 NActive=    8 NUniq=    6 SFac= 1.78D+00 NAtFMM=   60 NAOKFM=F Big=F
 Integral buffers will be    131072 words long.
 Raffenetti 1 integral format.
 Two-electron integral symmetry is turned on.
 Leave Link  301 at Thu Apr  2 15:07:48 2026, MaxMem=  1073741824 cpu:               0.1 elap:               0.0
 (Enter /Users/yarger/Applications/g16/l302.exe)
 NPDir=0 NMtPBC=     1 NCelOv=     1 NCel=       1 NClECP=     1 NCelD=      1
         NCelK=      1 NCelE2=     1 NClLst=     1 CellRange=     0.0.
 One-electron integrals computed using PRISM.
 One-electron integral symmetry used in STVInt
 NBasis=   118 RedAO= T EigKep=  1.90D-04  NBF=    77    41
 NBsUse=   118 1.00D-06 EigRej= -1.00D+00 NBFU=    77    41
 Leave Link  302 at Thu Apr  2 15:07:48 2026, MaxMem=  1073741824 cpu:               0.3 elap:               0.1
 (Enter /Users/yarger/Applications/g16/l303.exe)
 DipDrv:  MaxL=1.
 Leave Link  303 at Thu Apr  2 15:07:48 2026, MaxMem=  1073741824 cpu:               0.1 elap:               0.0
 (Enter /Users/yarger/Applications/g16/l401.exe)
 Initial guess from the checkpoint file:  "1112Tetrafluoroethane_Opt_Freq_HF_631pd_Gaussian16.chk"
 B after Tr=    -0.000000   -0.000000   -0.000000
         Rot=    1.000000   -0.000000    0.000000    0.000065 Ang=   0.01 deg.
 Guess basis will be translated and rotated to current coordinates.
 JPrj=2 DoOrth=T DoCkMO=T.
 Initial guess orbital symmetries:
       Occupied  (A') (A") (A') (A') (A') (A') (A') (A') (A") (A')
                 (A') (A') (A") (A') (A') (A") (A') (A") (A') (A')
                 (A") (A') (A") (A") (A')
       Virtual   (A') (A') (A') (A") (A") (A') (A') (A') (A') (A")
                 (A') (A') (A") (A') (A") (A') (A') (A") (A') (A")
                 (A") (A') (A') (A') (A') (A") (A') (A') (A") (A')
                 (A') (A') (A') (A") (A') (A') (A") (A") (A') (A')
                 (A') (A") (A') (A') (A") (A') (A") (A') (A") (A')
                 (A") (A') (A") (A') (A') (A") (A') (A') (A") (A')
                 (A") (A") (A') (A") (A') (A') (A") (A') (A") (A')
                 (A') (A") (A') (A") (A') (A') (A") (A') (A") (A')
                 (A") (A') (A') (A') (A") (A') (A') (A') (A') (A')
                 (A") (A') (A')
 The electronic state of the initial guess is 1-A'.
 Leave Link  401 at Thu Apr  2 15:07:49 2026, MaxMem=  1073741824 cpu:               0.2 elap:               0.1
 (Enter /Users/yarger/Applications/g16/l502.exe)
 Keep R1 ints in memory in symmetry-blocked form, NReq=37119245.
 FoFCou: FMM=F IPFlag=           0 FMFlag=           0 FMFlg1=           0
         NFxFlg=           0 DoJE=F BraDBF=F KetDBF=F FulRan=T
         wScrn=  0.000000 ICntrl=       600 IOpCl=  0 I1Cent=           0 NGrid=           0
         NMat0=    1 NMatS0=   7021 NMatT0=    0 NMatD0=    1 NMtDS0=    0 NMtDT0=    0
 Petite list used in FoFCou.
 Closed shell SCF:
 Using DIIS extrapolation, IDIIS=  1040.
 NGot=  1073741824 LenX=  1061244307 LenY=  1061229942
 Requested convergence on RMS density matrix=1.00D-08 within 128 cycles.
 Requested convergence on MAX density matrix=1.00D-06.
 Requested convergence on             energy=1.00D-06.
 No special actions if energy rises.

 Cycle   1  Pass 1  IDiag  1:
 E= -474.678281171724    
 DIIS: error= 2.99D-05 at cycle   1 NSaved=   1.
 NSaved= 1 IEnMin= 1 EnMin= -474.678281171724     IErMin= 1 ErrMin= 2.99D-05
 ErrMax= 2.99D-05  0.00D+00 EMaxC= 1.00D-01 BMatC= 1.29D-07 BMatP= 1.29D-07
 IDIUse=1 WtCom= 1.00D+00 WtEn= 0.00D+00
 Coeff-Com:  0.100D+01
 Coeff:      0.100D+01
 Gap=     0.632 Goal=   None    Shift=    0.000
 RMSDP=4.07D-06 MaxDP=5.95D-05              OVMax= 7.02D-05

 Cycle   2  Pass 1  IDiag  1:
 E= -474.678281310833     Delta-E=       -0.000000139109 Rises=F Damp=F
 DIIS: error= 7.01D-06 at cycle   2 NSaved=   2.
 NSaved= 2 IEnMin= 2 EnMin= -474.678281310833     IErMin= 2 ErrMin= 7.01D-06
 ErrMax= 7.01D-06  0.00D+00 EMaxC= 1.00D-01 BMatC= 8.03D-09 BMatP= 1.29D-07
 IDIUse=1 WtCom= 1.00D+00 WtEn= 0.00D+00
 Coeff-Com: -0.150D+00 0.115D+01
 Coeff:     -0.150D+00 0.115D+01
 Gap=     0.632 Goal=   None    Shift=    0.000
 RMSDP=1.08D-06 MaxDP=1.39D-05 DE=-1.39D-07 OVMax= 3.35D-05

 Cycle   3  Pass 1  IDiag  1:
 E= -474.678281323605     Delta-E=       -0.000000012772 Rises=F Damp=F
 DIIS: error= 2.68D-06 at cycle   3 NSaved=   3.
 NSaved= 3 IEnMin= 3 EnMin= -474.678281323605     IErMin= 3 ErrMin= 2.68D-06
 ErrMax= 2.68D-06  0.00D+00 EMaxC= 1.00D-01 BMatC= 1.44D-09 BMatP= 8.03D-09
 IDIUse=1 WtCom= 1.00D+00 WtEn= 0.00D+00
 Coeff-Com: -0.819D-01 0.271D+00 0.810D+00
 Coeff:     -0.819D-01 0.271D+00 0.810D+00
 Gap=     0.632 Goal=   None    Shift=    0.000
 RMSDP=3.10D-07 MaxDP=5.59D-06 DE=-1.28D-08 OVMax= 8.21D-06

 Cycle   4  Pass 1  IDiag  1:
 E= -474.678281325082     Delta-E=       -0.000000001476 Rises=F Damp=F
 DIIS: error= 8.50D-07 at cycle   4 NSaved=   4.
 NSaved= 4 IEnMin= 4 EnMin= -474.678281325082     IErMin= 4 ErrMin= 8.50D-07
 ErrMax= 8.50D-07  0.00D+00 EMaxC= 1.00D-01 BMatC= 1.36D-10 BMatP= 1.44D-09
 IDIUse=1 WtCom= 1.00D+00 WtEn= 0.00D+00
 Coeff-Com:  0.159D-01-0.139D+00 0.282D-01 0.110D+01
 Coeff:      0.159D-01-0.139D+00 0.282D-01 0.110D+01
 Gap=     0.632 Goal=   None    Shift=    0.000
 RMSDP=1.73D-07 MaxDP=3.35D-06 DE=-1.48D-09 OVMax= 5.52D-06

 Cycle   5  Pass 1  IDiag  1:
 E= -474.678281325311     Delta-E=       -0.000000000229 Rises=F Damp=F
 DIIS: error= 2.41D-07 at cycle   5 NSaved=   5.
 NSaved= 5 IEnMin= 5 EnMin= -474.678281325311     IErMin= 5 ErrMin= 2.41D-07
 ErrMax= 2.41D-07  0.00D+00 EMaxC= 1.00D-01 BMatC= 6.75D-12 BMatP= 1.36D-10
 IDIUse=1 WtCom= 1.00D+00 WtEn= 0.00D+00
 Coeff-Com:  0.536D-02-0.189D-01-0.549D-01 0.951D-02 0.106D+01
 Coeff:      0.536D-02-0.189D-01-0.549D-01 0.951D-02 0.106D+01
 Gap=     0.632 Goal=   None    Shift=    0.000
 RMSDP=4.06D-08 MaxDP=8.15D-07 DE=-2.29D-10 OVMax= 1.17D-06

 Cycle   6  Pass 1  IDiag  1:
 E= -474.678281325325     Delta-E=       -0.000000000014 Rises=F Damp=F
 DIIS: error= 4.70D-08 at cycle   6 NSaved=   6.
 NSaved= 6 IEnMin= 6 EnMin= -474.678281325325     IErMin= 6 ErrMin= 4.70D-08
 ErrMax= 4.70D-08  0.00D+00 EMaxC= 1.00D-01 BMatC= 4.44D-13 BMatP= 6.75D-12
 IDIUse=1 WtCom= 1.00D+00 WtEn= 0.00D+00
 Coeff-Com: -0.907D-03 0.897D-02-0.479D-02-0.684D-01 0.280D-01 0.104D+01
 Coeff:     -0.907D-03 0.897D-02-0.479D-02-0.684D-01 0.280D-01 0.104D+01
 Gap=     0.632 Goal=   None    Shift=    0.000
 RMSDP=8.80D-09 MaxDP=1.50D-07 DE=-1.40D-11 OVMax= 2.25D-07

 SCF Done:  E(RHF) =  -474.678281325     A.U. after    6 cycles
            NFock=  6  Conv=0.88D-08     -V/T= 2.0024
 KE= 4.735396438624D+02 PE=-1.680799356787D+03 EE= 4.572562728549D+02
 Leave Link  502 at Thu Apr  2 15:07:49 2026, MaxMem=  1073741824 cpu:               1.9 elap:               0.5
 (Enter /Users/yarger/Applications/g16/l701.exe)
 ... and contract with generalized density number  0.
 Compute integral first derivatives.
 Leave Link  701 at Thu Apr  2 15:07:49 2026, MaxMem=  1073741824 cpu:               0.3 elap:               0.1
 (Enter /Users/yarger/Applications/g16/l702.exe)
 L702 exits ... SP integral derivatives will be done elsewhere.
 Leave Link  702 at Thu Apr  2 15:07:49 2026, MaxMem=  1073741824 cpu:               0.0 elap:               0.0
 (Enter /Users/yarger/Applications/g16/l703.exe)
 Integral derivatives from FoFJK, PRISM(SPDF).
 Compute integral first derivatives, UseDBF=F ICtDFT=           0.
 Calling FoFJK, ICntrl=      2127 FMM=F ISym2X=1 I1Cent= 0 IOpClX= 0 NMat=1 NMatS=1 NMatT=0.
 FoFJK:  IHMeth= 1 ICntrl=    2127 DoSepK=F KAlg= 0 I1Cent=           0 FoldK=F
 IRaf=         0 NMat=       1 IRICut=       1 DoRegI=T DoRafI=F ISym2E= 1 IDoP0=0 IntGTp=1.
 FoFCou: FMM=F IPFlag=           0 FMFlag=      100000 FMFlg1=         800
         NFxFlg=           0 DoJE=F BraDBF=F KetDBF=F FulRan=T
         wScrn=  0.000000 ICntrl=      2127 IOpCl=  0 I1Cent=           0 NGrid=           0
         NMat0=    1 NMatS0=      1 NMatT0=    0 NMatD0=    1 NMtDS0=    0 NMtDT0=    0
 Petite list used in FoFCou.
 Leave Link  703 at Thu Apr  2 15:07:50 2026, MaxMem=  1073741824 cpu:               1.2 elap:               0.3
 (Enter /Users/yarger/Applications/g16/l716.exe)
 Dipole        = 5.84619216D-01 7.12001864D-01 1.33226763D-15
 ***** Axes restored to original set *****
 -------------------------------------------------------------------
 Center     Atomic                   Forces (Hartrees/Bohr)
 Number     Number              X              Y              Z
 -------------------------------------------------------------------
      1        6          -0.000004797    0.000021440   -0.000027157
      2        1          -0.000011964    0.000008119    0.000003788
      3        6           0.000004178   -0.000042058    0.000061088
      4        9           0.000043476    0.000034166    0.000002695
      5        9          -0.000019591   -0.000033436   -0.000039535
      6        9           0.000011033    0.000000481   -0.000017247
      7        9          -0.000010928    0.000002571    0.000012206
      8        1          -0.000011406    0.000008717    0.000004162
 -------------------------------------------------------------------
 Cartesian Forces:  Max     0.000061088 RMS     0.000024160
 Leave Link  716 at Thu Apr  2 15:07:50 2026, MaxMem=  1073741824 cpu:               0.0 elap:               0.0
 (Enter /Users/yarger/Applications/g16/l103.exe)

 GradGradGradGradGradGradGradGradGradGradGradGradGradGradGradGradGradGrad
 Berny optimization.
 Using GEDIIS/GDIIS optimizer.
 FormGI is forming the generalized inverse of G from B-inverse, IUseBI=4.
 Internal  Forces:  Max     0.000053402 RMS     0.000019907
 Search for a local minimum.
 Step number   6 out of a maximum of   38
 All quantities printed in internal units (Hartrees-Bohrs-Radians)
 RMS Force = .19907D-04 SwitMx=.10000D-02 MixMth= 2
 Mixed Optimization -- En-DIIS/RFO-DIIS
 Swapping is turned off.
 Update second derivatives using D2CorX and points    1    2    3    4    5
                                                      6
 DE= -1.42D-07 DEPred=-1.85D-07 R= 7.68D-01
 Trust test= 7.68D-01 RLast= 1.40D-03 DXMaxT set to 5.05D-01
 ITU=  0  1  1  1  1  0
     Eigenvalues ---    0.00237   0.05538   0.05820   0.08682   0.10319
     Eigenvalues ---    0.16000   0.16473   0.24064   0.25000   0.25011
     Eigenvalues ---    0.31892   0.36961   0.37230   0.41329   0.46965
     Eigenvalues ---    0.55021   0.55687   0.61690
 En-DIIS/RFO-DIIS/Sim-DIIS IScMMF=       -3 using points:     6    5    4
 RFO step:  Lambda=-4.71361038D-08.
 NNeg= 0 NGDIIS= 3 SimSw=  2.50D-01 Rises=F DC= -1.42D-07 SmlDif=  1.00D-05
 NRisDI= 0 DoIntr=F SqrtH=F CThrHd= 10.0 CDAdj=  3.0
 RMS Error=  0.1108083626D-03 NUsed= 3 OKEnD=F EnDIS=F
 InvSVX:  RCond= 2.35D-06 Info=           0 Equed=N FErr=  1.70D-15 BErr=  9.95D-17
 DidBck=F Rises=F RFO-DIIS coefs:    0.84253    0.20941   -0.05195
 Iteration  1 RMS(Cart)=  0.00009993 RMS(Int)=  0.00000003
 Iteration  2 RMS(Cart)=  0.00000001 RMS(Int)=  0.00000003
 ITry= 1 IFail=0 DXMaxC= 2.43D-04 DCOld= 1.00D+10 DXMaxT= 5.05D-01 DXLimC= 3.00D+00 Rises=F
 ClnCor:  largest displacement from symmetrization is 5.28D-09 for atom     5.
 Variable       Old X    -DE/DX   Delta X   Delta X   Delta X     New X
                                 (Linear)    (Quad)   (Total)
    R1        2.03997   0.00000  -0.00001   0.00001   0.00001   2.03997
    R2        2.85606   0.00005  -0.00003   0.00014   0.00012   2.85618
    R3        2.56481   0.00001  -0.00002   0.00007   0.00004   2.56485
    R4        2.03997   0.00000  -0.00001   0.00001   0.00001   2.03997
    R5        2.49167   0.00004   0.00003  -0.00001   0.00002   2.49170
    R6        2.49167   0.00004   0.00003  -0.00001   0.00002   2.49170
    R7        2.50458   0.00002  -0.00007   0.00014   0.00007   2.50465
    A1        1.90672   0.00002  -0.00002   0.00011   0.00009   1.90681
    A2        1.90617  -0.00001   0.00008  -0.00017  -0.00009   1.90608
    A3        1.93428  -0.00001  -0.00000  -0.00002  -0.00003   1.93425
    A4        1.90353   0.00001  -0.00011   0.00013   0.00003   1.90355
    A5        1.90672   0.00002  -0.00002   0.00011   0.00009   1.90681
    A6        1.90617  -0.00001   0.00008  -0.00017  -0.00009   1.90608
    A7        1.95310   0.00000   0.00003   0.00002   0.00005   1.95315
    A8        1.95310   0.00000   0.00003   0.00002   0.00005   1.95315
    A9        1.90202  -0.00000  -0.00009  -0.00001  -0.00010   1.90193
   A10        1.88388   0.00003   0.00013   0.00008   0.00021   1.88408
   A11        1.88467  -0.00002  -0.00005  -0.00006  -0.00011   1.88456
   A12        1.88467  -0.00002  -0.00005  -0.00006  -0.00011   1.88456
    D1        1.02380  -0.00002  -0.00009  -0.00012  -0.00021   1.02359
    D2        3.14082   0.00002   0.00012   0.00001   0.00013   3.14095
    D3       -1.05928  -0.00000   0.00002  -0.00006  -0.00004  -1.05932
    D4       -1.05851  -0.00002  -0.00011  -0.00006  -0.00017  -1.05868
    D5        1.05851   0.00002   0.00011   0.00006   0.00017   1.05868
    D6        3.14159   0.00000   0.00000  -0.00000  -0.00000   3.14159
    D7       -3.14082  -0.00002  -0.00012  -0.00001  -0.00013  -3.14095
    D8       -1.02380   0.00002   0.00009   0.00012   0.00021  -1.02359
    D9        1.05928   0.00000  -0.00002   0.00006   0.00004   1.05932
         Item               Value     Threshold  Converged?
 Maximum Force            0.000053     0.000015     NO 
 RMS     Force            0.000020     0.000010     NO 
 Maximum Displacement     0.000243     0.000060     NO 
 RMS     Displacement     0.000100     0.000040     NO 
 Predicted change in Energy=-2.352808D-08
 Lowest energy point so far.  Saving SCF results.
 GradGradGradGradGradGradGradGradGradGradGradGradGradGradGradGradGradGrad

 Leave Link  103 at Thu Apr  2 15:07:50 2026, MaxMem=  1073741824 cpu:               0.0 elap:               0.0
 (Enter /Users/yarger/Applications/g16/l202.exe)
                          Input orientation:                          
 ---------------------------------------------------------------------
 Center     Atomic      Atomic             Coordinates (Angstroms)
 Number     Number       Type             X           Y           Z
 ---------------------------------------------------------------------
      1          6           0       -1.496483    1.409874    1.450728
      2          1           0       -1.162840    2.436524    1.447978
      3          6           0       -0.324407    0.504149    1.150213
      4          9           0        0.648803    0.651502    2.027549
      5          9           0       -0.674566   -0.767024    1.141420
      6          9           0        0.156067    0.804403   -0.047989
      7          9           0       -1.990040    1.103975    2.677507
      8          1           0       -2.265714    1.254347    0.709492
 ---------------------------------------------------------------------
                    Distance matrix (angstroms):
                    1          2          3          4          5
     1  C    0.000000
     2  H    1.079507   0.000000
     3  C    1.511426   2.127371   0.000000
     4  F    2.347361   2.608497   1.318549   0.000000
     5  F    2.347361   3.255013   1.318549   2.132779   0.000000
     6  F    2.311637   2.577062   1.325403   2.138698   2.138698
     7  F    1.357263   1.992911   2.338109   2.755117   2.755117
     8  H    1.079507   1.777424   2.127371   3.255013   2.608497
                    6          7          8
     6  F    0.000000
     7  F    3.481932   0.000000
     8  H    2.577062   1.992911   0.000000
 Stoichiometry    C2H2F4
 Framework group  CS[SG(C2F2),X(H2F2)]
 Deg. of freedom    11
 Full point group                 CS      NOp   2
 RotChk:  IX=2 Diff= 4.48D-05
 Largest Abelian subgroup         CS      NOp   2
 Largest concise Abelian subgroup CS      NOp   2
                         Standard orientation:                         
 ---------------------------------------------------------------------
 Center     Atomic      Atomic             Coordinates (Angstroms)
 Number     Number       Type             X           Y           Z
 ---------------------------------------------------------------------
      1          6           0        1.150916    0.239182   -0.000000
      2          1           0        1.490237    0.749464   -0.888712
      3          6           0       -0.359690    0.189404   -0.000000
      4          9           0       -0.831641   -0.425937   -1.066390
      5          9           0       -0.831641   -0.425937    1.066390
      6          9           0       -0.831641    1.427934   -0.000000
      7          9           0        1.636275   -1.028331    0.000000
      8          1           0        1.490237    0.749464    0.888712
 ---------------------------------------------------------------------
 Rotational constants (GHZ):           5.4794546           2.8492591           2.8076486
 Leave Link  202 at Thu Apr  2 15:07:50 2026, MaxMem=  1073741824 cpu:               0.0 elap:               0.0
 (Enter /Users/yarger/Applications/g16/l301.exe)
 Standard basis: 6-31+G(d) (6D, 7F)
 Ernie: Thresh=  0.10000D-02 Tol=  0.10000D-05 Strict=F.
 There are    77 symmetry adapted cartesian basis functions of A'  symmetry.
 There are    41 symmetry adapted cartesian basis functions of A"  symmetry.
 There are    77 symmetry adapted basis functions of A'  symmetry.
 There are    41 symmetry adapted basis functions of A"  symmetry.
   118 basis functions,   200 primitive gaussians,   118 cartesian basis functions
    25 alpha electrons       25 beta electrons
       nuclear repulsion energy       275.3175975601 Hartrees.
 IExCor=    0 DFT=F Ex=HF Corr=None ExCW=0 ScaHFX=  1.000000
 ScaDFX=  1.000000  1.000000  1.000000  1.000000 ScalE2=  1.000000  1.000000
 IRadAn=      5 IRanWt=     -1 IRanGd=            0 ICorTp=0 IEmpDi=  4
 NAtoms=    8 NActive=    8 NUniq=    6 SFac= 1.78D+00 NAtFMM=   60 NAOKFM=F Big=F
 Integral buffers will be    131072 words long.
 Raffenetti 1 integral format.
 Two-electron integral symmetry is turned on.
 Leave Link  301 at Thu Apr  2 15:07:50 2026, MaxMem=  1073741824 cpu:               0.1 elap:               0.0
 (Enter /Users/yarger/Applications/g16/l302.exe)
 NPDir=0 NMtPBC=     1 NCelOv=     1 NCel=       1 NClECP=     1 NCelD=      1
         NCelK=      1 NCelE2=     1 NClLst=     1 CellRange=     0.0.
 One-electron integrals computed using PRISM.
 One-electron integral symmetry used in STVInt
 NBasis=   118 RedAO= T EigKep=  1.91D-04  NBF=    77    41
 NBsUse=   118 1.00D-06 EigRej= -1.00D+00 NBFU=    77    41
 Leave Link  302 at Thu Apr  2 15:07:50 2026, MaxMem=  1073741824 cpu:               0.3 elap:               0.1
 (Enter /Users/yarger/Applications/g16/l303.exe)
 DipDrv:  MaxL=1.
 Leave Link  303 at Thu Apr  2 15:07:50 2026, MaxMem=  1073741824 cpu:               0.1 elap:               0.0
 (Enter /Users/yarger/Applications/g16/l401.exe)
 Initial guess from the checkpoint file:  "1112Tetrafluoroethane_Opt_Freq_HF_631pd_Gaussian16.chk"
 B after Tr=     0.000000    0.000000    0.000000
         Rot=    1.000000    0.000000    0.000000   -0.000021 Ang=  -0.00 deg.
 Guess basis will be translated and rotated to current coordinates.
 JPrj=2 DoOrth=T DoCkMO=T.
 Initial guess orbital symmetries:
       Occupied  (A') (A") (A') (A') (A') (A') (A') (A') (A") (A')
                 (A') (A') (A") (A') (A') (A") (A') (A") (A') (A')
                 (A") (A') (A") (A") (A')
       Virtual   (A') (A') (A') (A") (A") (A') (A') (A') (A') (A")
                 (A') (A') (A") (A') (A") (A') (A') (A") (A') (A")
                 (A") (A') (A') (A') (A') (A") (A') (A') (A") (A')
                 (A') (A') (A') (A") (A') (A') (A") (A") (A') (A')
                 (A') (A") (A') (A') (A") (A') (A") (A') (A") (A')
                 (A") (A') (A") (A') (A') (A") (A') (A') (A") (A')
                 (A") (A") (A') (A") (A') (A') (A") (A') (A") (A')
                 (A') (A") (A') (A") (A') (A') (A") (A') (A") (A')
                 (A") (A') (A') (A') (A") (A') (A') (A') (A') (A')
                 (A") (A') (A')
 The electronic state of the initial guess is 1-A'.
 Leave Link  401 at Thu Apr  2 15:07:50 2026, MaxMem=  1073741824 cpu:               0.2 elap:               0.1
 (Enter /Users/yarger/Applications/g16/l502.exe)
 Keep R1 ints in memory in symmetry-blocked form, NReq=37119245.
 FoFCou: FMM=F IPFlag=           0 FMFlag=           0 FMFlg1=           0
         NFxFlg=           0 DoJE=F BraDBF=F KetDBF=F FulRan=T
         wScrn=  0.000000 ICntrl=       600 IOpCl=  0 I1Cent=           0 NGrid=           0
         NMat0=    1 NMatS0=   7021 NMatT0=    0 NMatD0=    1 NMtDS0=    0 NMtDT0=    0
 Petite list used in FoFCou.
 Closed shell SCF:
 Using DIIS extrapolation, IDIIS=  1040.
 NGot=  1073741824 LenX=  1061244307 LenY=  1061229942
 Requested convergence on RMS density matrix=1.00D-08 within 128 cycles.
 Requested convergence on MAX density matrix=1.00D-06.
 Requested convergence on             energy=1.00D-06.
 No special actions if energy rises.

 Cycle   1  Pass 1  IDiag  1:
 E= -474.678281323319    
 DIIS: error= 1.10D-05 at cycle   1 NSaved=   1.
 NSaved= 1 IEnMin= 1 EnMin= -474.678281323319     IErMin= 1 ErrMin= 1.10D-05
 ErrMax= 1.10D-05  0.00D+00 EMaxC= 1.00D-01 BMatC= 1.82D-08 BMatP= 1.82D-08
 IDIUse=1 WtCom= 1.00D+00 WtEn= 0.00D+00
 Coeff-Com:  0.100D+01
 Coeff:      0.100D+01
 Gap=     0.632 Goal=   None    Shift=    0.000
 RMSDP=1.38D-06 MaxDP=1.69D-05              OVMax= 2.45D-05

 Cycle   2  Pass 1  IDiag  1:
 E= -474.678281344320     Delta-E=       -0.000000021001 Rises=F Damp=F
 DIIS: error= 2.81D-06 at cycle   2 NSaved=   2.
 NSaved= 2 IEnMin= 2 EnMin= -474.678281344320     IErMin= 2 ErrMin= 2.81D-06
 ErrMax= 2.81D-06  0.00D+00 EMaxC= 1.00D-01 BMatC= 1.27D-09 BMatP= 1.82D-08
 IDIUse=1 WtCom= 1.00D+00 WtEn= 0.00D+00
 Coeff-Com: -0.202D+00 0.120D+01
 Coeff:     -0.202D+00 0.120D+01
 Gap=     0.632 Goal=   None    Shift=    0.000
 RMSDP=4.33D-07 MaxDP=6.13D-06 DE=-2.10D-08 OVMax= 1.22D-05

 Cycle   3  Pass 1  IDiag  1:
 E= -474.678281346635     Delta-E=       -0.000000002315 Rises=F Damp=F
 DIIS: error= 8.83D-07 at cycle   3 NSaved=   3.
 NSaved= 3 IEnMin= 3 EnMin= -474.678281346635     IErMin= 3 ErrMin= 8.83D-07
 ErrMax= 8.83D-07  0.00D+00 EMaxC= 1.00D-01 BMatC= 1.51D-10 BMatP= 1.27D-09
 IDIUse=1 WtCom= 1.00D+00 WtEn= 0.00D+00
 Coeff-Com: -0.682D-01 0.151D+00 0.917D+00
 Coeff:     -0.682D-01 0.151D+00 0.917D+00
 Gap=     0.632 Goal=   None    Shift=    0.000
 RMSDP=1.29D-07 MaxDP=2.55D-06 DE=-2.31D-09 OVMax= 4.21D-06

 Cycle   4  Pass 1  IDiag  1:
 E= -474.678281346848     Delta-E=       -0.000000000213 Rises=F Damp=F
 DIIS: error= 4.34D-07 at cycle   4 NSaved=   4.
 NSaved= 4 IEnMin= 4 EnMin= -474.678281346848     IErMin= 4 ErrMin= 4.34D-07
 ErrMax= 4.34D-07  0.00D+00 EMaxC= 1.00D-01 BMatC= 2.33D-11 BMatP= 1.51D-10
 IDIUse=1 WtCom= 1.00D+00 WtEn= 0.00D+00
 Coeff-Com:  0.212D-01-0.165D+00 0.131D+00 0.101D+01
 Coeff:      0.212D-01-0.165D+00 0.131D+00 0.101D+01
 Gap=     0.632 Goal=   None    Shift=    0.000
 RMSDP=6.31D-08 MaxDP=1.28D-06 DE=-2.13D-10 OVMax= 1.78D-06

 Cycle   5  Pass 1  IDiag  1:
 E= -474.678281346876     Delta-E=       -0.000000000028 Rises=F Damp=F
 DIIS: error= 8.20D-08 at cycle   5 NSaved=   5.
 NSaved= 5 IEnMin= 5 EnMin= -474.678281346876     IErMin= 5 ErrMin= 8.20D-08
 ErrMax= 8.20D-08  0.00D+00 EMaxC= 1.00D-01 BMatC= 1.07D-12 BMatP= 2.33D-11
 IDIUse=1 WtCom= 1.00D+00 WtEn= 0.00D+00
 Coeff-Com:  0.605D-02-0.231D-01-0.438D-01 0.854D-01 0.975D+00
 Coeff:      0.605D-02-0.231D-01-0.438D-01 0.854D-01 0.975D+00
 Gap=     0.632 Goal=   None    Shift=    0.000
 RMSDP=1.40D-08 MaxDP=2.84D-07 DE=-2.75D-11 OVMax= 4.24D-07

 Cycle   6  Pass 1  IDiag  1:
 E= -474.678281346879     Delta-E=       -0.000000000003 Rises=F Damp=F
 DIIS: error= 3.06D-08 at cycle   6 NSaved=   6.
 NSaved= 6 IEnMin= 6 EnMin= -474.678281346879     IErMin= 6 ErrMin= 3.06D-08
 ErrMax= 3.06D-08  0.00D+00 EMaxC= 1.00D-01 BMatC= 9.20D-14 BMatP= 1.07D-12
 IDIUse=1 WtCom= 1.00D+00 WtEn= 0.00D+00
 Coeff-Com: -0.216D-02 0.168D-01-0.128D-01-0.984D-01-0.352D-01 0.113D+01
 Coeff:     -0.216D-02 0.168D-01-0.128D-01-0.984D-01-0.352D-01 0.113D+01
 Gap=     0.632 Goal=   None    Shift=    0.000
 RMSDP=5.62D-09 MaxDP=6.78D-08 DE=-3.18D-12 OVMax= 1.66D-07

 SCF Done:  E(RHF) =  -474.678281347     A.U. after    6 cycles
            NFock=  6  Conv=0.56D-08     -V/T= 2.0024
 KE= 4.735392712921D+02 PE=-1.680783979070D+03 EE= 4.572488288712D+02
 Leave Link  502 at Thu Apr  2 15:07:51 2026, MaxMem=  1073741824 cpu:               1.9 elap:               0.5
 (Enter /Users/yarger/Applications/g16/l701.exe)
 ... and contract with generalized density number  0.
 Compute integral first derivatives.
 Leave Link  701 at Thu Apr  2 15:07:51 2026, MaxMem=  1073741824 cpu:               0.3 elap:               0.1
 (Enter /Users/yarger/Applications/g16/l702.exe)
 L702 exits ... SP integral derivatives will be done elsewhere.
 Leave Link  702 at Thu Apr  2 15:07:51 2026, MaxMem=  1073741824 cpu:               0.1 elap:               0.0
 (Enter /Users/yarger/Applications/g16/l703.exe)
 Integral derivatives from FoFJK, PRISM(SPDF).
 Compute integral first derivatives, UseDBF=F ICtDFT=           0.
 Calling FoFJK, ICntrl=      2127 FMM=F ISym2X=1 I1Cent= 0 IOpClX= 0 NMat=1 NMatS=1 NMatT=0.
 FoFJK:  IHMeth= 1 ICntrl=    2127 DoSepK=F KAlg= 0 I1Cent=           0 FoldK=F
 IRaf=         0 NMat=       1 IRICut=       1 DoRegI=T DoRafI=F ISym2E= 1 IDoP0=0 IntGTp=1.
 FoFCou: FMM=F IPFlag=           0 FMFlag=      100000 FMFlg1=         800
         NFxFlg=           0 DoJE=F BraDBF=F KetDBF=F FulRan=T
         wScrn=  0.000000 ICntrl=      2127 IOpCl=  0 I1Cent=           0 NGrid=           0
         NMat0=    1 NMatS0=      1 NMatT0=    0 NMatD0=    1 NMtDS0=    0 NMtDT0=    0
 Petite list used in FoFCou.
 Leave Link  703 at Thu Apr  2 15:07:51 2026, MaxMem=  1073741824 cpu:               1.2 elap:               0.3
 (Enter /Users/yarger/Applications/g16/l716.exe)
 Dipole        = 5.84572473D-01 7.11802251D-01-6.66133815D-16
 ***** Axes restored to original set *****
 -------------------------------------------------------------------
 Center     Atomic                   Forces (Hartrees/Bohr)
 Number     Number              X              Y              Z
 -------------------------------------------------------------------
      1        6          -0.000007667    0.000004511    0.000004230
      2        1           0.000001451   -0.000000803   -0.000004417
      3        6           0.000000058    0.000002822   -0.000004605
      4        9           0.000001926   -0.000001993    0.000005056
      5        9          -0.000000519   -0.000004614    0.000003419
      6        9           0.000002608    0.000002212   -0.000007436
      7        9          -0.000001132   -0.000003285    0.000006950
      8        1           0.000003273    0.000001150   -0.000003197
 -------------------------------------------------------------------
 Cartesian Forces:  Max     0.000007667 RMS     0.000003897
 Leave Link  716 at Thu Apr  2 15:07:51 2026, MaxMem=  1073741824 cpu:               0.0 elap:               0.0
 (Enter /Users/yarger/Applications/g16/l103.exe)

 GradGradGradGradGradGradGradGradGradGradGradGradGradGradGradGradGradGrad
 Berny optimization.
 Using GEDIIS/GDIIS optimizer.
 FormGI is forming the generalized inverse of G from B-inverse, IUseBI=4.
 Internal  Forces:  Max     0.000008169 RMS     0.000003182
 Search for a local minimum.
 Step number   7 out of a maximum of   38
 All quantities printed in internal units (Hartrees-Bohrs-Radians)
 RMS Force = .31816D-05 SwitMx=.10000D-02 MixMth= 2
 Mixed Optimization -- En-DIIS/RFO-DIIS
 Swapping is turned off.
 Update second derivatives using D2CorX and points    1    2    3    4    5
                                                      6    7
 DE= -2.16D-08 DEPred=-2.35D-08 R= 9.16D-01
 Trust test= 9.16D-01 RLast= 5.60D-04 DXMaxT set to 5.05D-01
 ITU=  0  0  1  1  1  1  0
     Eigenvalues ---    0.00237   0.05819   0.05982   0.08684   0.11306
     Eigenvalues ---    0.16000   0.17122   0.24074   0.25000   0.25022
     Eigenvalues ---    0.31858   0.37230   0.37366   0.41851   0.45502
     Eigenvalues ---    0.55021   0.55439   0.59941
 En-DIIS/RFO-DIIS/Sim-DIIS IScMMF=       -3 using points:     7    6    5    4
 RFO step:  Lambda=-8.75406552D-10.
 NNeg= 0 NGDIIS= 4 SimSw=  2.50D-01 Rises=F DC= -2.16D-08 SmlDif=  1.00D-05
 NRisDI= 0 DoIntr=F SqrtH=F CThrHd= 10.0 CDAdj=  3.0
 RMS Error=  0.1831976465D-04 NUsed= 4 OKEnD=F EnDIS=F
 InvSVX:  RCond= 2.46D-08 Info=           0 Equed=N FErr=  1.80D-15 BErr=  1.04D-16
 DIIS inversion failure, remove point   4.
 InvSVX:  RCond= 4.87D-07 Info=           0 Equed=N FErr=  1.34D-15 BErr=  6.71D-17
 RFO-DIIS uses    3 points instead of    4
 DidBck=F Rises=F RFO-DIIS coefs:    0.86200    0.09264    0.04536    0.00000
 Iteration  1 RMS(Cart)=  0.00001298 RMS(Int)=  0.00000000
 Iteration  2 RMS(Cart)=  0.00000000 RMS(Int)=  0.00000000
 ITry= 1 IFail=0 DXMaxC= 3.16D-05 DCOld= 1.00D+10 DXMaxT= 5.05D-01 DXLimC= 3.00D+00 Rises=F
 ClnCor:  largest displacement from symmetrization is 6.22D-09 for atom     5.
 Variable       Old X    -DE/DX   Delta X   Delta X   Delta X     New X
                                 (Linear)    (Quad)   (Total)
    R1        2.03997  -0.00000  -0.00000   0.00000   0.00000   2.03997
    R2        2.85618   0.00000   0.00001   0.00001   0.00002   2.85620
    R3        2.56485   0.00001  -0.00002   0.00003   0.00001   2.56487
    R4        2.03997  -0.00000  -0.00000   0.00000   0.00000   2.03997
    R5        2.49170   0.00000   0.00001  -0.00000   0.00001   2.49171
    R6        2.49170   0.00000   0.00001  -0.00000   0.00001   2.49171
    R7        2.50465   0.00001  -0.00003   0.00004   0.00001   2.50466
    A1        1.90681  -0.00000  -0.00001  -0.00001  -0.00002   1.90679
    A2        1.90608   0.00000   0.00002   0.00001   0.00003   1.90611
    A3        1.93425   0.00000  -0.00002  -0.00000  -0.00002   1.93423
    A4        1.90355  -0.00000  -0.00000  -0.00000  -0.00000   1.90355
    A5        1.90681  -0.00000  -0.00001  -0.00001  -0.00002   1.90679
    A6        1.90608   0.00000   0.00002   0.00001   0.00003   1.90611
    A7        1.95315  -0.00000  -0.00001   0.00000  -0.00000   1.95315
    A8        1.95315  -0.00000  -0.00001   0.00000  -0.00000   1.95315
    A9        1.90193   0.00000   0.00001  -0.00000   0.00001   1.90193
   A10        1.88408  -0.00000  -0.00001  -0.00000  -0.00001   1.88407
   A11        1.88456   0.00000   0.00001   0.00000   0.00001   1.88457
   A12        1.88456   0.00000   0.00001   0.00000   0.00001   1.88457
    D1        1.02359   0.00000   0.00003   0.00001   0.00004   1.02363
    D2        3.14095  -0.00000   0.00001   0.00001   0.00001   3.14096
    D3       -1.05932   0.00000   0.00002   0.00001   0.00002  -1.05930
    D4       -1.05868   0.00000   0.00001   0.00000   0.00001  -1.05867
    D5        1.05868  -0.00000  -0.00001  -0.00000  -0.00001   1.05867
    D6        3.14159  -0.00000   0.00000  -0.00000   0.00000   3.14159
    D7       -3.14095   0.00000  -0.00001  -0.00001  -0.00001  -3.14096
    D8       -1.02359  -0.00000  -0.00003  -0.00001  -0.00004  -1.02363
    D9        1.05932  -0.00000  -0.00002  -0.00001  -0.00002   1.05930
         Item               Value     Threshold  Converged?
 Maximum Force            0.000008     0.000015     YES
 RMS     Force            0.000003     0.000010     YES
 Maximum Displacement     0.000032     0.000060     YES
 RMS     Displacement     0.000013     0.000040     YES
 Predicted change in Energy=-5.810154D-10
 Optimization completed.
    -- Stationary point found.
                           ----------------------------
                           !   Optimized Parameters   !
                           ! (Angstroms and Degrees)  !
 --------------------------                            --------------------------
 ! Name  Definition              Value          Derivative Info.                !
 --------------------------------------------------------------------------------
 ! R1    R(1,2)                  1.0795         -DE/DX =    0.0                 !
 ! R2    R(1,3)                  1.5114         -DE/DX =    0.0                 !
 ! R3    R(1,7)                  1.3573         -DE/DX =    0.0                 !
 ! R4    R(1,8)                  1.0795         -DE/DX =    0.0                 !
 ! R5    R(3,4)                  1.3185         -DE/DX =    0.0                 !
 ! R6    R(3,5)                  1.3185         -DE/DX =    0.0                 !
 ! R7    R(3,6)                  1.3254         -DE/DX =    0.0                 !
 ! A1    A(2,1,3)              109.2522         -DE/DX =    0.0                 !
 ! A2    A(2,1,7)              109.2104         -DE/DX =    0.0                 !
 ! A3    A(2,1,8)              110.8243         -DE/DX =    0.0                 !
 ! A4    A(3,1,7)              109.0656         -DE/DX =    0.0                 !
 ! A5    A(3,1,8)              109.2522         -DE/DX =    0.0                 !
 ! A6    A(7,1,8)              109.2104         -DE/DX =    0.0                 !
 ! A7    A(1,3,4)              111.9074         -DE/DX =    0.0                 !
 ! A8    A(1,3,5)              111.9074         -DE/DX =    0.0                 !
 ! A9    A(1,3,6)              108.9724         -DE/DX =    0.0                 !
 ! A10   A(4,3,5)              107.95           -DE/DX =    0.0                 !
 ! A11   A(4,3,6)              107.9773         -DE/DX =    0.0                 !
 ! A12   A(5,3,6)              107.9773         -DE/DX =    0.0                 !
 ! D1    D(2,1,3,4)             58.6476         -DE/DX =    0.0                 !
 ! D2    D(2,1,3,5)            179.9631         -DE/DX =    0.0                 !
 ! D3    D(2,1,3,6)            -60.6947         -DE/DX =    0.0                 !
 ! D4    D(7,1,3,4)            -60.6577         -DE/DX =    0.0                 !
 ! D5    D(7,1,3,5)             60.6577         -DE/DX =    0.0                 !
 ! D6    D(7,1,3,6)            180.0            -DE/DX =    0.0                 !
 ! D7    D(8,1,3,4)           -179.9631         -DE/DX =    0.0                 !
 ! D8    D(8,1,3,5)            -58.6476         -DE/DX =    0.0                 !
 ! D9    D(8,1,3,6)             60.6947         -DE/DX =    0.0                 !
 --------------------------------------------------------------------------------
 Lowest energy point so far.  Saving SCF results.
 Largest change from initial coordinates is atom    7       1.648 Angstoms.
 GradGradGradGradGradGradGradGradGradGradGradGradGradGradGradGradGradGrad

 Leave Link  103 at Thu Apr  2 15:07:51 2026, MaxMem=  1073741824 cpu:               0.0 elap:               0.0
 (Enter /Users/yarger/Applications/g16/l202.exe)
                          Input orientation:                          
 ---------------------------------------------------------------------
 Center     Atomic      Atomic             Coordinates (Angstroms)
 Number     Number       Type             X           Y           Z
 ---------------------------------------------------------------------
      1          6           0       -1.496483    1.409874    1.450728
      2          1           0       -1.162840    2.436524    1.447978
      3          6           0       -0.324407    0.504149    1.150213
      4          9           0        0.648803    0.651502    2.027549
      5          9           0       -0.674566   -0.767024    1.141420
      6          9           0        0.156067    0.804403   -0.047989
      7          9           0       -1.990040    1.103975    2.677507
      8          1           0       -2.265714    1.254347    0.709492
 ---------------------------------------------------------------------
                    Distance matrix (angstroms):
                    1          2          3          4          5
     1  C    0.000000
     2  H    1.079507   0.000000
     3  C    1.511426   2.127371   0.000000
     4  F    2.347361   2.608497   1.318549   0.000000
     5  F    2.347361   3.255013   1.318549   2.132779   0.000000
     6  F    2.311637   2.577062   1.325403   2.138698   2.138698
     7  F    1.357263   1.992911   2.338109   2.755117   2.755117
     8  H    1.079507   1.777424   2.127371   3.255013   2.608497
                    6          7          8
     6  F    0.000000
     7  F    3.481932   0.000000
     8  H    2.577062   1.992911   0.000000
 Stoichiometry    C2H2F4
 Framework group  CS[SG(C2F2),X(H2F2)]
 Deg. of freedom    11
 Full point group                 CS      NOp   2
 RotChk:  IX=2 Diff= 6.78D-16
 Largest Abelian subgroup         CS      NOp   2
 Largest concise Abelian subgroup CS      NOp   2
                         Standard orientation:                         
 ---------------------------------------------------------------------
 Center     Atomic      Atomic             Coordinates (Angstroms)
 Number     Number       Type             X           Y           Z
 ---------------------------------------------------------------------
      1          6           0        1.150916    0.239182   -0.000000
      2          1           0        1.490237    0.749464   -0.888712
      3          6           0       -0.359690    0.189404    0.000000
      4          9           0       -0.831641   -0.425937   -1.066390
      5          9           0       -0.831641   -0.425937    1.066390
      6          9           0       -0.831641    1.427934    0.000000
      7          9           0        1.636275   -1.028331   -0.000000
      8          1           0        1.490237    0.749464    0.888712
 ---------------------------------------------------------------------
 Rotational constants (GHZ):           5.4794546           2.8492591           2.8076486
 Leave Link  202 at Thu Apr  2 15:07:51 2026, MaxMem=  1073741824 cpu:               0.0 elap:               0.0
 (Enter /Users/yarger/Applications/g16/l601.exe)
 Copying SCF densities to generalized density rwf, IOpCl= 0 IROHF=0.

 **********************************************************************

            Population analysis using the SCF density.

 **********************************************************************

 Orbital symmetries:
       Occupied  (A') (A") (A') (A') (A') (A') (A') (A') (A") (A')
                 (A') (A') (A") (A') (A') (A") (A') (A") (A') (A')
                 (A") (A') (A") (A") (A')
       Virtual   (A') (A') (A') (A") (A") (A') (A') (A') (A') (A")
                 (A') (A') (A") (A') (A") (A') (A') (A") (A') (A")
                 (A") (A') (A') (A') (A') (A") (A') (A') (A") (A')
                 (A') (A') (A') (A") (A') (A') (A") (A") (A') (A')
                 (A') (A") (A') (A') (A") (A') (A") (A') (A") (A')
                 (A") (A') (A") (A') (A') (A") (A') (A') (A") (A')
                 (A") (A") (A') (A") (A') (A') (A") (A') (A") (A')
                 (A') (A") (A') (A") (A') (A') (A") (A') (A") (A')
                 (A") (A') (A') (A') (A") (A') (A') (A') (A') (A')
                 (A") (A') (A')
 The electronic state is 1-A'.
 Alpha  occ. eigenvalues --  -26.37041 -26.36631 -26.36629 -26.33428 -11.52526
 Alpha  occ. eigenvalues --  -11.35628  -1.76295  -1.66123  -1.65857  -1.64110
 Alpha  occ. eigenvalues --   -1.08154  -0.94771  -0.85143  -0.85099  -0.82891
 Alpha  occ. eigenvalues --   -0.75498  -0.74309  -0.71859  -0.71783  -0.68461
 Alpha  occ. eigenvalues --   -0.67801  -0.67724  -0.66248  -0.57440  -0.55901
 Alpha virt. eigenvalues --    0.07286   0.09558   0.09974   0.10072   0.12991
 Alpha virt. eigenvalues --    0.13284   0.13741   0.19661   0.27869   0.28759
 Alpha virt. eigenvalues --    0.30596   0.34776   0.35084   0.36369   0.38263
 Alpha virt. eigenvalues --    0.38913   0.41003   0.41155   0.41917   0.41921
 Alpha virt. eigenvalues --    0.43487   0.43573   0.44822   0.46510   0.46917
 Alpha virt. eigenvalues --    0.48681   0.50266   0.54480   0.56199   0.58386
 Alpha virt. eigenvalues --    0.59103   0.81108   0.92876   0.93654   0.98872
 Alpha virt. eigenvalues --    1.00525   1.01667   1.16531   1.25922   1.40439
 Alpha virt. eigenvalues --    1.46053   1.46578   1.58510   1.81429   1.81640
 Alpha virt. eigenvalues --    1.85093   1.85646   1.88477   1.89030   1.89829
 Alpha virt. eigenvalues --    1.89919   1.92316   1.93381   1.93844   1.95193
 Alpha virt. eigenvalues --    1.96208   1.97693   2.02886   2.07657   2.09485
 Alpha virt. eigenvalues --    2.09614   2.10251   2.12079   2.16443   2.20548
 Alpha virt. eigenvalues --    2.24186   2.32520   2.35056   2.39124   2.39636
 Alpha virt. eigenvalues --    2.42339   2.42431   2.49670   2.49890   2.53653
 Alpha virt. eigenvalues --    2.68569   2.69987   2.75138   2.87147   2.87675
 Alpha virt. eigenvalues --    3.13628   3.18028   3.21007   3.47058   3.51323
 Alpha virt. eigenvalues --    3.60019   3.68766   4.71058   5.01440   5.78124
 Alpha virt. eigenvalues --    5.88196   6.05180   6.70624
          Condensed to atoms (all electrons):
               1          2          3          4          5          6
     1  C    4.912399   0.409799   0.422096  -0.068256  -0.068256  -0.070243
     2  H    0.409799   0.473651  -0.042913  -0.008362   0.009809   0.001361
     3  C    0.422096  -0.042913   4.063623   0.176334   0.176334   0.143542
     4  F   -0.068256  -0.008362   0.176334   9.327585  -0.037097  -0.018076
     5  F   -0.068256   0.009809   0.176334  -0.037097   9.327585  -0.018076
     6  F   -0.070243   0.001361   0.143542  -0.018076  -0.018076   9.351144
     7  F    0.103613  -0.038092  -0.056284   0.011128   0.011128   0.005153
     8  H    0.409799  -0.028932  -0.042913   0.009809  -0.008362   0.001361
               7          8
     1  C    0.103613   0.409799
     2  H   -0.038092  -0.028932
     3  C   -0.056284  -0.042913
     4  F    0.011128   0.009809
     5  F    0.011128  -0.008362
     6  F    0.005153   0.001361
     7  F    9.375742  -0.038092
     8  H   -0.038092   0.473651
 Mulliken charges:
               1
     1  C   -0.050951
     2  H    0.223679
     3  C    1.160180
     4  F   -0.393064
     5  F   -0.393064
     6  F   -0.396166
     7  F   -0.374295
     8  H    0.223679
 Sum of Mulliken charges =  -0.00000
 Mulliken charges with hydrogens summed into heavy atoms:
               1
     1  C    0.396408
     3  C    1.160180
     4  F   -0.393064
     5  F   -0.393064
     6  F   -0.396166
     7  F   -0.374295
 Electronic spatial extent (au):  <R**2>=            468.8954
 Charge=             -0.0000 electrons
 Dipole moment (field-independent basis, Debye):
    X=              1.4858    Y=              1.8092    Z=              0.0000  Tot=              2.3412
 Quadrupole moment (field-independent basis, Debye-Ang):
   XX=            -32.4536   YY=            -34.0852   ZZ=            -31.9435
   XY=              3.6207   XZ=             -0.0000   YZ=             -0.0000
 Traceless Quadrupole moment (field-independent basis, Debye-Ang):
   XX=              0.3739   YY=             -1.2578   ZZ=              0.8839
   XY=              3.6207   XZ=             -0.0000   YZ=             -0.0000
 Octapole moment (field-independent basis, Debye-Ang**2):
  XXX=             -6.5163  YYY=             -3.9141  ZZZ=              0.0000  XYY=             -1.8405
  XXY=              4.0948  XXZ=              0.0000  XZZ=              1.3949  YZZ=              0.9015
  YYZ=              0.0000  XYZ=              0.0000
 Hexadecapole moment (field-independent basis, Debye-Ang**3):
 XXXX=           -227.9645 YYYY=           -135.4419 ZZZZ=            -95.2956 XXXY=             32.9053
 XXXZ=             -0.0000 YYYX=             28.5556 YYYZ=              0.0000 ZZZX=             -0.0000
 ZZZY=             -0.0000 XXYY=            -63.5640 XXZZ=            -52.0534 YYZZ=            -37.1842
 XXYZ=             -0.0000 YYXZ=             -0.0000 ZZXY=              9.1365
 N-N= 2.753175975601D+02 E-N=-1.680783976676D+03  KE= 4.735392712921D+02
 Symmetry A'   KE= 3.575167721144D+02
 Symmetry A"   KE= 1.160224991777D+02
 No NMR shielding tensors so no spin-rotation constants.
 Leave Link  601 at Thu Apr  2 15:07:51 2026, MaxMem=  1073741824 cpu:               0.3 elap:               0.1
 (Enter /Users/yarger/Applications/g16/l9999.exe)
 1\1\GINC-MACBOOKPRO\FOpt\RHF\6-31+G(d)\C2H2F4\ROOT\02-Apr-2026\0\\#p o
 pt=tight freq=raman hf/6-31+g(d) guess=save geom=connectivity polar\\r
 134a - 1,1,1,2-Tetrafluoroethane\\0,1\C,-1.4964825293,1.4098737187,1.4
 507277487\H,-1.1628395076,2.4365240661,1.4479776029\C,-0.3244068007,0.
 5041491322,1.1502128381\F,0.6488034936,0.6515020351,2.0275493536\F,-0.
 6745658661,-0.7670242781,1.1414204503\F,0.1560665342,0.8044026889,-0.0
 479889769\F,-1.9900400547,1.1039745716,2.6775073875\H,-2.265714174,1.2
 543471304,0.7094920763\\Version=EM64M-G16RevA.03\State=1-A'\HF=-474.67
 82813\RMSD=5.625e-09\RMSF=3.897e-06\Dipole=-0.3904557,0.6725695,-0.493
 5403\Quadrupole=0.0317165,1.6461893,-1.6779058,-0.7266909,2.0973559,-0
 .4979844\PG=CS [SG(C2F2),X(H2F2)]\\@


 OF ALL THE WONDERS OF THE UNIVERSE, THE GREATEST IS MAN.

                                    -- ARISTOTLE
 Leave Link 9999 at Thu Apr  2 15:07:51 2026, MaxMem=  1073741824 cpu:               0.1 elap:               0.0
 Job cpu time:       0 days  0 hours  0 minutes 34.4 seconds.
 Elapsed time:       0 days  0 hours  0 minutes  9.4 seconds.
 File lengths (MBytes):  RWF=     10 Int=      0 D2E=      0 Chk=      2 Scr=      1
 Normal termination of Gaussian 16 at Thu Apr  2 15:07:51 2026.
 (Enter /Users/yarger/Applications/g16/l1.exe)
 Link1:  Proceeding to internal job step number  2.
 ------------------------------------------------------------------
 #P Geom=AllCheck Guess=TCheck SCRF=Check GenChk RHF/6-31+G(d) Freq
 ------------------------------------------------------------------
 1/7=10,10=4,29=7,30=1,38=1,40=1/1,3;
 2/12=2,40=1/2;
 3/5=1,6=6,7=11,11=1,14=-4,25=1,30=1,70=2,71=2,116=1,140=1/1,2,3;
 4/5=101/1;
 5/5=2,38=6,98=1/2;
 8/6=4,10=90,11=11/1;
 10/13=10,15=4/2;
 11/6=3,8=1,9=11,15=111,16=1/1,2,10;
 10/6=1/2;
 6/7=2,8=2,9=2,10=2,28=1/1;
 7/8=1,10=1,25=1/1,2,3,16;
 1/7=10,10=4,30=1/3;
 99//99;
 Leave Link    1 at Thu Apr  2 15:07:51 2026, MaxMem=  1073741824 cpu:               0.0 elap:               0.0
 (Enter /Users/yarger/Applications/g16/l101.exe)
 Structure from the checkpoint file:  "1112Tetrafluoroethane_Opt_Freq_HF_631pd_Gaussian16.chk"
 ---------------------------------
 r134a - 1,1,1,2-Tetrafluoroethane
 ---------------------------------
 Charge =  0 Multiplicity = 1
 Redundant internal coordinates found in file.  (old form).
 C,0,-1.4964825293,1.4098737187,1.4507277487
 H,0,-1.1628395076,2.4365240661,1.4479776029
 C,0,-0.3244068007,0.5041491322,1.1502128381
 F,0,0.6488034936,0.6515020351,2.0275493536
 F,0,-0.6745658661,-0.7670242781,1.1414204503
 F,0,0.1560665342,0.8044026889,-0.0479889769
 F,0,-1.9900400547,1.1039745716,2.6775073875
 H,0,-2.265714174,1.2543471304,0.7094920763
 Recover connectivity data from disk.
 ITRead=  0  0  0  0  0  0  0  0
 MicOpt= -1 -1 -1 -1 -1 -1 -1 -1
 NAtoms=      8 NQM=        8 NQMF=       0 NMMI=      0 NMMIF=      0
                NMic=       0 NMicF=      0.
                    Isotopes and Nuclear Properties:
 (Nuclear quadrupole moments (NQMom) in fm**2, nuclear magnetic moments (NMagM)
  in nuclear magnetons)

  Atom         1           2           3           4           5           6           7           8
 IAtWgt=          12           1          12          19          19          19          19           1
 AtmWgt=  12.0000000   1.0078250  12.0000000  18.9984033  18.9984033  18.9984033  18.9984033   1.0078250
 NucSpn=           0           1           0           1           1           1           1           1
 AtZEff=   3.6000000   1.0000000   3.6000000   6.7500000   6.7500000   6.7500000   6.7500000   1.0000000
 NQMom=    0.0000000   0.0000000   0.0000000   0.0000000   0.0000000   0.0000000   0.0000000   0.0000000
 NMagM=    0.0000000   2.7928460   0.0000000   2.6288670   2.6288670   2.6288670   2.6288670   2.7928460
 AtZNuc=   6.0000000   1.0000000   6.0000000   9.0000000   9.0000000   9.0000000   9.0000000   1.0000000
 Leave Link  101 at Thu Apr  2 15:07:51 2026, MaxMem=  1073741824 cpu:               0.7 elap:               0.2
 (Enter /Users/yarger/Applications/g16/l103.exe)

 GradGradGradGradGradGradGradGradGradGradGradGradGradGradGradGradGradGrad
 Berny optimization.
 Initialization pass.
                           ----------------------------
                           !    Initial Parameters    !
                           ! (Angstroms and Degrees)  !
 --------------------------                            --------------------------
 ! Name  Definition              Value          Derivative Info.                !
 --------------------------------------------------------------------------------
 ! R1    R(1,2)                  1.0795         calculate D2E/DX2 analytically  !
 ! R2    R(1,3)                  1.5114         calculate D2E/DX2 analytically  !
 ! R3    R(1,7)                  1.3573         calculate D2E/DX2 analytically  !
 ! R4    R(1,8)                  1.0795         calculate D2E/DX2 analytically  !
 ! R5    R(3,4)                  1.3185         calculate D2E/DX2 analytically  !
 ! R6    R(3,5)                  1.3185         calculate D2E/DX2 analytically  !
 ! R7    R(3,6)                  1.3254         calculate D2E/DX2 analytically  !
 ! A1    A(2,1,3)              109.2522         calculate D2E/DX2 analytically  !
 ! A2    A(2,1,7)              109.2104         calculate D2E/DX2 analytically  !
 ! A3    A(2,1,8)              110.8243         calculate D2E/DX2 analytically  !
 ! A4    A(3,1,7)              109.0656         calculate D2E/DX2 analytically  !
 ! A5    A(3,1,8)              109.2522         calculate D2E/DX2 analytically  !
 ! A6    A(7,1,8)              109.2104         calculate D2E/DX2 analytically  !
 ! A7    A(1,3,4)              111.9074         calculate D2E/DX2 analytically  !
 ! A8    A(1,3,5)              111.9074         calculate D2E/DX2 analytically  !
 ! A9    A(1,3,6)              108.9724         calculate D2E/DX2 analytically  !
 ! A10   A(4,3,5)              107.95           calculate D2E/DX2 analytically  !
 ! A11   A(4,3,6)              107.9773         calculate D2E/DX2 analytically  !
 ! A12   A(5,3,6)              107.9773         calculate D2E/DX2 analytically  !
 ! D1    D(2,1,3,4)             58.6476         calculate D2E/DX2 analytically  !
 ! D2    D(2,1,3,5)            179.9631         calculate D2E/DX2 analytically  !
 ! D3    D(2,1,3,6)            -60.6947         calculate D2E/DX2 analytically  !
 ! D4    D(7,1,3,4)            -60.6577         calculate D2E/DX2 analytically  !
 ! D5    D(7,1,3,5)             60.6577         calculate D2E/DX2 analytically  !
 ! D6    D(7,1,3,6)           -180.0            calculate D2E/DX2 analytically  !
 ! D7    D(8,1,3,4)           -179.9631         calculate D2E/DX2 analytically  !
 ! D8    D(8,1,3,5)            -58.6476         calculate D2E/DX2 analytically  !
 ! D9    D(8,1,3,6)             60.6947         calculate D2E/DX2 analytically  !
 --------------------------------------------------------------------------------
 Trust Radius=3.00D-01 FncErr=1.00D-07 GrdErr=1.00D-07 EigMax=2.50D+02 EigMin=1.00D-04
 Number of steps in this run=      2 maximum allowed number of steps=      2.
 GradGradGradGradGradGradGradGradGradGradGradGradGradGradGradGradGradGrad

 Leave Link  103 at Thu Apr  2 15:07:52 2026, MaxMem=  1073741824 cpu:               0.0 elap:               0.0
 (Enter /Users/yarger/Applications/g16/l202.exe)
                          Input orientation:                          
 ---------------------------------------------------------------------
 Center     Atomic      Atomic             Coordinates (Angstroms)
 Number     Number       Type             X           Y           Z
 ---------------------------------------------------------------------
      1          6           0       -1.496483    1.409874    1.450728
      2          1           0       -1.162840    2.436524    1.447978
      3          6           0       -0.324407    0.504149    1.150213
      4          9           0        0.648803    0.651502    2.027549
      5          9           0       -0.674566   -0.767024    1.141420
      6          9           0        0.156067    0.804403   -0.047989
      7          9           0       -1.990040    1.103975    2.677507
      8          1           0       -2.265714    1.254347    0.709492
 ---------------------------------------------------------------------
                    Distance matrix (angstroms):
                    1          2          3          4          5
     1  C    0.000000
     2  H    1.079507   0.000000
     3  C    1.511426   2.127371   0.000000
     4  F    2.347361   2.608497   1.318549   0.000000
     5  F    2.347361   3.255013   1.318549   2.132779   0.000000
     6  F    2.311637   2.577062   1.325403   2.138698   2.138698
     7  F    1.357263   1.992911   2.338109   2.755117   2.755117
     8  H    1.079507   1.777424   2.127371   3.255013   2.608497
                    6          7          8
     6  F    0.000000
     7  F    3.481932   0.000000
     8  H    2.577062   1.992911   0.000000
 Stoichiometry    C2H2F4
 Framework group  CS[SG(C2F2),X(H2F2)]
 Deg. of freedom    11
 Full point group                 CS      NOp   2
 RotChk:  IX=2 Diff= 1.09D-14
 Largest Abelian subgroup         CS      NOp   2
 Largest concise Abelian subgroup CS      NOp   2
                         Standard orientation:                         
 ---------------------------------------------------------------------
 Center     Atomic      Atomic             Coordinates (Angstroms)
 Number     Number       Type             X           Y           Z
 ---------------------------------------------------------------------
      1          6           0        1.150916    0.239182    0.000000
      2          1           0        1.490237    0.749464   -0.888712
      3          6           0       -0.359690    0.189404   -0.000000
      4          9           0       -0.831641   -0.425937   -1.066390
      5          9           0       -0.831641   -0.425937    1.066390
      6          9           0       -0.831641    1.427934    0.000000
      7          9           0        1.636275   -1.028331   -0.000000
      8          1           0        1.490237    0.749464    0.888712
 ---------------------------------------------------------------------
 Rotational constants (GHZ):           5.4794546           2.8492591           2.8076486
 Leave Link  202 at Thu Apr  2 15:07:52 2026, MaxMem=  1073741824 cpu:               0.0 elap:               0.0
 (Enter /Users/yarger/Applications/g16/l301.exe)
 Standard basis: 6-31+G(d) (6D, 7F)
 Ernie: Thresh=  0.10000D-02 Tol=  0.10000D-05 Strict=F.
 There are    77 symmetry adapted cartesian basis functions of A'  symmetry.
 There are    41 symmetry adapted cartesian basis functions of A"  symmetry.
 There are    77 symmetry adapted basis functions of A'  symmetry.
 There are    41 symmetry adapted basis functions of A"  symmetry.
   118 basis functions,   200 primitive gaussians,   118 cartesian basis functions
    25 alpha electrons       25 beta electrons
       nuclear repulsion energy       275.3175975601 Hartrees.
 IExCor=    0 DFT=F Ex=HF Corr=None ExCW=0 ScaHFX=  1.000000
 ScaDFX=  1.000000  1.000000  1.000000  1.000000 ScalE2=  1.000000  1.000000
 IRadAn=      5 IRanWt=     -1 IRanGd=            0 ICorTp=0 IEmpDi=  4
 NAtoms=    8 NActive=    8 NUniq=    6 SFac= 1.78D+00 NAtFMM=   60 NAOKFM=F Big=F
 Integral buffers will be    131072 words long.
 Raffenetti 1 integral format.
 Two-electron integral symmetry is turned on.
 Leave Link  301 at Thu Apr  2 15:07:52 2026, MaxMem=  1073741824 cpu:               0.1 elap:               0.0
 (Enter /Users/yarger/Applications/g16/l302.exe)
 NPDir=0 NMtPBC=     1 NCelOv=     1 NCel=       1 NClECP=     1 NCelD=      1
         NCelK=      1 NCelE2=     1 NClLst=     1 CellRange=     0.0.
 One-electron integrals computed using PRISM.
 One-electron integral symmetry used in STVInt
 NBasis=   118 RedAO= T EigKep=  1.91D-04  NBF=    77    41
 NBsUse=   118 1.00D-06 EigRej= -1.00D+00 NBFU=    77    41
 Leave Link  302 at Thu Apr  2 15:07:52 2026, MaxMem=  1073741824 cpu:               0.3 elap:               0.1
 (Enter /Users/yarger/Applications/g16/l303.exe)
 DipDrv:  MaxL=1.
 Leave Link  303 at Thu Apr  2 15:07:52 2026, MaxMem=  1073741824 cpu:               0.1 elap:               0.0
 (Enter /Users/yarger/Applications/g16/l401.exe)
 Initial guess from the checkpoint file:  "1112Tetrafluoroethane_Opt_Freq_HF_631pd_Gaussian16.chk"
 B after Tr=     0.000000    0.000000    0.000000
         Rot=    1.000000    0.000000   -0.000000    0.000000 Ang=   0.00 deg.
 Guess basis will be translated and rotated to current coordinates.
 JPrj=2 DoOrth=T DoCkMO=T.
 Initial guess orbital symmetries:
       Occupied  (A') (A") (A') (A') (A') (A') (A') (A') (A") (A')
                 (A') (A') (A") (A') (A') (A") (A') (A") (A') (A')
                 (A") (A') (A") (A") (A')
       Virtual   (A') (A') (A') (A") (A") (A') (A') (A') (A') (A")
                 (A') (A') (A") (A') (A") (A') (A') (A") (A') (A")
                 (A") (A') (A') (A') (A') (A") (A') (A') (A") (A')
                 (A') (A') (A') (A") (A') (A') (A") (A") (A') (A')
                 (A') (A") (A') (A') (A") (A') (A") (A') (A") (A')
                 (A") (A') (A") (A') (A') (A") (A') (A') (A") (A')
                 (A") (A") (A') (A") (A') (A') (A") (A') (A") (A')
                 (A') (A") (A') (A") (A') (A') (A") (A') (A") (A')
                 (A") (A') (A') (A') (A") (A') (A') (A') (A') (A')
                 (A") (A') (A')
 The electronic state of the initial guess is 1-A'.
 Leave Link  401 at Thu Apr  2 15:07:52 2026, MaxMem=  1073741824 cpu:               0.2 elap:               0.1
 (Enter /Users/yarger/Applications/g16/l502.exe)
 Keep R1 ints in memory in symmetry-blocked form, NReq=37119245.
 FoFCou: FMM=F IPFlag=           0 FMFlag=           0 FMFlg1=           0
         NFxFlg=           0 DoJE=F BraDBF=F KetDBF=F FulRan=T
         wScrn=  0.000000 ICntrl=       600 IOpCl=  0 I1Cent=           0 NGrid=           0
         NMat0=    1 NMatS0=   7021 NMatT0=    0 NMatD0=    1 NMtDS0=    0 NMtDT0=    0
 Petite list used in FoFCou.
 Closed shell SCF:
 Using DIIS extrapolation, IDIIS=  1040.
 NGot=  1073741824 LenX=  1061244307 LenY=  1061229942
 Requested convergence on RMS density matrix=1.00D-08 within 128 cycles.
 Requested convergence on MAX density matrix=1.00D-06.
 Requested convergence on             energy=1.00D-06.
 No special actions if energy rises.

 Cycle   1  Pass 1  IDiag  1:
 E= -474.678281346877    
 DIIS: error= 5.65D-09 at cycle   1 NSaved=   1.
 NSaved= 1 IEnMin= 1 EnMin= -474.678281346877     IErMin= 1 ErrMin= 5.65D-09
 ErrMax= 5.65D-09  0.00D+00 EMaxC= 1.00D-01 BMatC= 5.21D-15 BMatP= 5.21D-15
 IDIUse=1 WtCom= 1.00D+00 WtEn= 0.00D+00
 Coeff-Com:  0.100D+01
 Coeff:      0.100D+01
 Gap=     0.632 Goal=   None    Shift=    0.000
 RMSDP=9.57D-10 MaxDP=1.72D-08              OVMax= 3.68D-08

 SCF Done:  E(RHF) =  -474.678281347     A.U. after    1 cycles
            NFock=  1  Conv=0.96D-09     -V/T= 2.0024
 KE= 4.735392715115D+02 PE=-1.680783976896D+03 EE= 4.572488264775D+02
 Leave Link  502 at Thu Apr  2 15:07:52 2026, MaxMem=  1073741824 cpu:               1.8 elap:               0.5
 (Enter /Users/yarger/Applications/g16/l801.exe)
 Range of M.O.s used for correlation:     1   118
 NBasis=   118 NAE=    25 NBE=    25 NFC=     0 NFV=     0
 NROrb=    118 NOA=    25 NOB=    25 NVA=    93 NVB=    93

 **** Warning!!: The largest alpha MO coefficient is  0.36932172D+02

 Leave Link  801 at Thu Apr  2 15:07:52 2026, MaxMem=  1073741824 cpu:               0.1 elap:               0.0
 (Enter /Users/yarger/Applications/g16/l1002.exe)
 Minotr:  Closed shell wavefunction.
          Direct CPHF calculation.
          Differentiating once with respect to electric field.
                with respect to dipole field.
          Electric field/nuclear overlap derivatives assumed to be zero.
          Using symmetry in CPHF.
          Requested convergence is 1.0D-08 RMS, and 1.0D-07 maximum.
          Secondary convergence is 1.0D-12 RMS, and 1.0D-12 maximum.
          NewPWx=F KeepS1=T KeepF1=T KeepIn=T MapXYZ=F SortEE=F KeepMc=T.
 Keep R1 ints in memory in symmetry-blocked form, NReq=37120235.
 FoFCou: FMM=F IPFlag=           0 FMFlag=           0 FMFlg1=           0
         NFxFlg=           0 DoJE=F BraDBF=F KetDBF=F FulRan=T
         wScrn=  0.000000 ICntrl=       600 IOpCl=  0 I1Cent=           0 NGrid=           0
         NMat0=    1 NMatS0=   7021 NMatT0=    0 NMatD0=    1 NMtDS0=    0 NMtDT0=    0
 Petite list used in FoFCou.
          MDV=    1073741824 using IRadAn=       1.
          Solving linear equations simultaneously, MaxMat=       0.
          There are     3 degrees of freedom in the 1st order CPHF.  IDoFFX=0 NUNeed=     3.
      3 vectors produced by pass  0 Test12= 7.75D-14 3.33D-08 XBig12= 4.65D+00 4.87D-01.
 AX will form     3 AO Fock derivatives at one time.
      3 vectors produced by pass  1 Test12= 7.75D-14 3.33D-08 XBig12= 3.15D-01 9.85D-02.
      3 vectors produced by pass  2 Test12= 7.75D-14 3.33D-08 XBig12= 3.36D-02 3.18D-02.
      3 vectors produced by pass  3 Test12= 7.75D-14 3.33D-08 XBig12= 1.72D-03 7.35D-03.
      3 vectors produced by pass  4 Test12= 7.75D-14 3.33D-08 XBig12= 9.05D-05 1.68D-03.
      3 vectors produced by pass  5 Test12= 7.75D-14 3.33D-08 XBig12= 6.88D-06 4.88D-04.
      3 vectors produced by pass  6 Test12= 7.75D-14 3.33D-08 XBig12= 4.43D-07 8.69D-05.
      3 vectors produced by pass  7 Test12= 7.75D-14 3.33D-08 XBig12= 3.07D-08 3.17D-05.
      3 vectors produced by pass  8 Test12= 7.75D-14 3.33D-08 XBig12= 2.00D-09 9.57D-06.
      3 vectors produced by pass  9 Test12= 7.75D-14 3.33D-08 XBig12= 9.40D-11 3.21D-06.
      2 vectors produced by pass 10 Test12= 7.75D-14 3.33D-08 XBig12= 1.53D-12 2.80D-07.
 InvSVY:  IOpt=1 It=  1 EMax= 1.33D-15
 Solved reduced A of dimension    32 with     3 vectors.
 End of Minotr F.D. properties file   721 does not exist.
 End of Minotr F.D. properties file   722 does not exist.
 End of Minotr F.D. properties file   788 does not exist.
 Leave Link 1002 at Thu Apr  2 15:07:53 2026, MaxMem=  1073741824 cpu:               2.1 elap:               0.6
 (Enter /Users/yarger/Applications/g16/l1101.exe)
 Using compressed storage, NAtomX=     8.
 Will process      9 centers per pass.
 Leave Link 1101 at Thu Apr  2 15:07:53 2026, MaxMem=  1073741824 cpu:               0.3 elap:               0.1
 (Enter /Users/yarger/Applications/g16/l1102.exe)
 Symmetrizing basis deriv contribution to polar:
 IMax=3 JMax=2 DiffMx= 0.00D+00
 Leave Link 1102 at Thu Apr  2 15:07:53 2026, MaxMem=  1073741824 cpu:               0.1 elap:               0.0
 (Enter /Users/yarger/Applications/g16/l1110.exe)
 Forming Gx(P) for the SCF density, NAtomX=     8.
 Integral derivatives from FoFJK, PRISM(SPDF).
 Do as many integral derivatives as possible in FoFJK.
 G2DrvN: MDV=    1073741112.
 G2DrvN: will do     9 centers at a time, making    1 passes.
 PxScal for G2LodP:  IOpCl= 0 ISclPx=1 IMOff=     1 NMtTot=     4 NTT=    7021 ScalPx= 2.33D+00
 Calling FoFCou, ICntrl=  3107 FMM=F I1Cent=   0 AccDes= 0.00D+00.
 FoFJK:  IHMeth= 1 ICntrl=    3107 DoSepK=F KAlg= 0 I1Cent=           0 FoldK=F
 IRaf=         0 NMat=       1 IRICut=       1 DoRegI=T DoRafI=F ISym2E= 1 IDoP0=0 IntGTp=1.
 FoFCou: FMM=F IPFlag=           0 FMFlag=      100000 FMFlg1=           0
         NFxFlg=           0 DoJE=F BraDBF=F KetDBF=F FulRan=T
         wScrn=  0.000000 ICntrl=      3107 IOpCl=  0 I1Cent=           0 NGrid=           0
         NMat0=    1 NMatS0=      1 NMatT0=    0 NMatD0=    4 NMtDS0=    3 NMtDT0=    0
 Petite list used in FoFCou.
 End of G2Drv F.D. properties file   721 does not exist.
 End of G2Drv F.D. properties file   722 does not exist.
 End of G2Drv F.D. properties file   788 does not exist.
 Leave Link 1110 at Thu Apr  2 15:07:54 2026, MaxMem=  1073741824 cpu:               2.3 elap:               0.6
 (Enter /Users/yarger/Applications/g16/l1002.exe)
 Minotr:  Closed shell wavefunction.
          IDoAtm=11111111
          Direct CPHF calculation.
          Differentiating once with respect to electric field.
                with respect to dipole field.
          Differentiating once with respect to nuclear coordinates.
          Using symmetry in CPHF.
          Requested convergence is 1.0D-08 RMS, and 1.0D-07 maximum.
          Secondary convergence is 1.0D-12 RMS, and 1.0D-12 maximum.
          NewPWx=T KeepS1=F KeepF1=F KeepIn=T MapXYZ=F SortEE=F KeepMc=T.
 Keep R1 ints in memory in symmetry-blocked form, NReq=37120419.
 FoFCou: FMM=F IPFlag=           0 FMFlag=           0 FMFlg1=           0
         NFxFlg=           0 DoJE=F BraDBF=F KetDBF=F FulRan=T
         wScrn=  0.000000 ICntrl=       600 IOpCl=  0 I1Cent=           0 NGrid=           0
         NMat0=    1 NMatS0=   7021 NMatT0=    0 NMatD0=    1 NMtDS0=    0 NMtDT0=    0
 Petite list used in FoFCou.
          MDV=    1073741824 using IRadAn=       1.
          Solving linear equations simultaneously, MaxMat=       0.
          There are    21 degrees of freedom in the 1st order CPHF.  IDoFFX=4 NUNeed=    21.
 Will reuse    3 saved solutions.
     18 vectors produced by pass  0 Test12= 1.11D-14 4.76D-09 XBig12= 7.35D-02 5.86D-02.
 AX will form    18 AO Fock derivatives at one time.
     18 vectors produced by pass  1 Test12= 1.11D-14 4.76D-09 XBig12= 3.24D-03 9.93D-03.
     18 vectors produced by pass  2 Test12= 1.11D-14 4.76D-09 XBig12= 2.62D-04 3.16D-03.
     18 vectors produced by pass  3 Test12= 1.11D-14 4.76D-09 XBig12= 3.30D-06 3.29D-04.
     18 vectors produced by pass  4 Test12= 1.11D-14 4.76D-09 XBig12= 4.32D-08 4.91D-05.
     18 vectors produced by pass  5 Test12= 1.11D-14 4.76D-09 XBig12= 5.56D-10 4.94D-06.
     18 vectors produced by pass  6 Test12= 1.11D-14 4.76D-09 XBig12= 3.90D-12 3.10D-07.
      5 vectors produced by pass  7 Test12= 1.11D-14 4.76D-09 XBig12= 3.24D-14 3.69D-08.
 InvSVY:  IOpt=1 It=  1 EMax= 3.33D-16
 Solved reduced A of dimension   131 with    21 vectors.
 FullF1:  Do perturbations      1 to      21.
 Isotropic polarizability for W=    0.000000       24.47 Bohr**3.
 FullF1:  Do perturbations      1 to       6.
 End of Minotr F.D. properties file   721 does not exist.
 End of Minotr F.D. properties file   722 does not exist.
 End of Minotr F.D. properties file   788 does not exist.
 Leave Link 1002 at Thu Apr  2 15:07:55 2026, MaxMem=  1073741824 cpu:               3.5 elap:               0.9
 (Enter /Users/yarger/Applications/g16/l601.exe)
 Copying SCF densities to generalized density rwf, IOpCl= 0 IROHF=0.

 **********************************************************************

            Population analysis using the SCF density.

 **********************************************************************

 Orbital symmetries:
       Occupied  (A') (A") (A') (A') (A') (A') (A') (A') (A") (A')
                 (A') (A') (A") (A') (A') (A") (A') (A") (A') (A')
                 (A") (A') (A") (A") (A')
       Virtual   (A') (A') (A') (A") (A") (A') (A') (A') (A') (A")
                 (A') (A') (A") (A') (A") (A') (A') (A") (A') (A")
                 (A") (A') (A') (A') (A') (A") (A') (A') (A") (A')
                 (A') (A') (A') (A") (A') (A') (A") (A") (A') (A')
                 (A') (A") (A') (A') (A") (A') (A") (A') (A") (A')
                 (A") (A') (A") (A') (A') (A") (A') (A') (A") (A')
                 (A") (A") (A') (A") (A') (A') (A") (A') (A") (A')
                 (A') (A") (A') (A") (A') (A') (A") (A') (A") (A')
                 (A") (A') (A') (A') (A") (A') (A') (A') (A') (A')
                 (A") (A') (A')
 The electronic state is 1-A'.
 Alpha  occ. eigenvalues --  -26.37041 -26.36631 -26.36629 -26.33428 -11.52526
 Alpha  occ. eigenvalues --  -11.35628  -1.76295  -1.66123  -1.65857  -1.64110
 Alpha  occ. eigenvalues --   -1.08154  -0.94771  -0.85143  -0.85099  -0.82891
 Alpha  occ. eigenvalues --   -0.75498  -0.74309  -0.71859  -0.71783  -0.68461
 Alpha  occ. eigenvalues --   -0.67801  -0.67724  -0.66248  -0.57440  -0.55901
 Alpha virt. eigenvalues --    0.07286   0.09558   0.09974   0.10072   0.12991
 Alpha virt. eigenvalues --    0.13284   0.13741   0.19661   0.27869   0.28759
 Alpha virt. eigenvalues --    0.30596   0.34776   0.35084   0.36369   0.38263
 Alpha virt. eigenvalues --    0.38913   0.41003   0.41155   0.41917   0.41921
 Alpha virt. eigenvalues --    0.43487   0.43573   0.44822   0.46510   0.46917
 Alpha virt. eigenvalues --    0.48681   0.50266   0.54480   0.56199   0.58386
 Alpha virt. eigenvalues --    0.59103   0.81108   0.92876   0.93654   0.98872
 Alpha virt. eigenvalues --    1.00525   1.01667   1.16531   1.25922   1.40439
 Alpha virt. eigenvalues --    1.46053   1.46578   1.58510   1.81429   1.81640
 Alpha virt. eigenvalues --    1.85093   1.85646   1.88477   1.89030   1.89829
 Alpha virt. eigenvalues --    1.89919   1.92316   1.93381   1.93844   1.95193
 Alpha virt. eigenvalues --    1.96208   1.97693   2.02886   2.07657   2.09485
 Alpha virt. eigenvalues --    2.09614   2.10251   2.12079   2.16443   2.20548
 Alpha virt. eigenvalues --    2.24186   2.32520   2.35056   2.39124   2.39636
 Alpha virt. eigenvalues --    2.42339   2.42431   2.49670   2.49890   2.53653
 Alpha virt. eigenvalues --    2.68569   2.69987   2.75138   2.87147   2.87675
 Alpha virt. eigenvalues --    3.13628   3.18028   3.21007   3.47058   3.51323
 Alpha virt. eigenvalues --    3.60019   3.68766   4.71058   5.01440   5.78124
 Alpha virt. eigenvalues --    5.88196   6.05180   6.70624
          Condensed to atoms (all electrons):
               1          2          3          4          5          6
     1  C    4.912399   0.409799   0.422096  -0.068256  -0.068256  -0.070243
     2  H    0.409799   0.473651  -0.042913  -0.008362   0.009809   0.001361
     3  C    0.422096  -0.042913   4.063623   0.176334   0.176334   0.143542
     4  F   -0.068256  -0.008362   0.176334   9.327585  -0.037097  -0.018076
     5  F   -0.068256   0.009809   0.176334  -0.037097   9.327585  -0.018076
     6  F   -0.070243   0.001361   0.143542  -0.018076  -0.018076   9.351144
     7  F    0.103613  -0.038092  -0.056284   0.011128   0.011128   0.005153
     8  H    0.409799  -0.028932  -0.042913   0.009809  -0.008362   0.001361
               7          8
     1  C    0.103613   0.409799
     2  H   -0.038092  -0.028932
     3  C   -0.056284  -0.042913
     4  F    0.011128   0.009809
     5  F    0.011128  -0.008362
     6  F    0.005153   0.001361
     7  F    9.375742  -0.038092
     8  H   -0.038092   0.473651
 Mulliken charges:
               1
     1  C   -0.050951
     2  H    0.223679
     3  C    1.160180
     4  F   -0.393064
     5  F   -0.393064
     6  F   -0.396166
     7  F   -0.374295
     8  H    0.223679
 Sum of Mulliken charges =  -0.00000
 Mulliken charges with hydrogens summed into heavy atoms:
               1
     1  C    0.396408
     3  C    1.160180
     4  F   -0.393064
     5  F   -0.393064
     6  F   -0.396166
     7  F   -0.374295
 APT charges:
               1
     1  C    0.600914
     2  H   -0.005660
     3  C    1.720630
     4  F   -0.588138
     5  F   -0.588138
     6  F   -0.590374
     7  F   -0.543575
     8  H   -0.005660
 Sum of APT charges =   0.00000
 APT charges with hydrogens summed into heavy atoms:
               1
     1  C    0.589594
     3  C    1.720630
     4  F   -0.588138
     5  F   -0.588138
     6  F   -0.590374
     7  F   -0.543575
 Electronic spatial extent (au):  <R**2>=            468.8954
 Charge=              0.0000 electrons
 Dipole moment (field-independent basis, Debye):
    X=              1.4858    Y=              1.8092    Z=              0.0000  Tot=              2.3412
 Quadrupole moment (field-independent basis, Debye-Ang):
   XX=            -32.4536   YY=            -34.0852   ZZ=            -31.9435
   XY=              3.6207   XZ=              0.0000   YZ=              0.0000
 Traceless Quadrupole moment (field-independent basis, Debye-Ang):
   XX=              0.3739   YY=             -1.2578   ZZ=              0.8839
   XY=              3.6207   XZ=              0.0000   YZ=              0.0000
 Octapole moment (field-independent basis, Debye-Ang**2):
  XXX=             -6.5163  YYY=             -3.9141  ZZZ=             -0.0000  XYY=             -1.8405
  XXY=              4.0948  XXZ=              0.0000  XZZ=              1.3949  YZZ=              0.9015
  YYZ=             -0.0000  XYZ=              0.0000
 Hexadecapole moment (field-independent basis, Debye-Ang**3):
 XXXX=           -227.9645 YYYY=           -135.4419 ZZZZ=            -95.2956 XXXY=             32.9053
 XXXZ=              0.0000 YYYX=             28.5556 YYYZ=             -0.0000 ZZZX=              0.0000
 ZZZY=             -0.0000 XXYY=            -63.5640 XXZZ=            -52.0534 YYZZ=            -37.1842
 XXYZ=             -0.0000 YYXZ=              0.0000 ZZXY=              9.1365
 N-N= 2.753175975601D+02 E-N=-1.680783977175D+03  KE= 4.735392715115D+02
 Symmetry A'   KE= 3.575167722960D+02
 Symmetry A"   KE= 1.160224992155D+02
  Exact polarizability:  24.224  -0.261  25.008   0.000   0.000  24.190
 Approx polarizability:  19.739  -0.074  22.037   0.000   0.000  21.624
 No NMR shielding tensors so no spin-rotation constants.
 Leave Link  601 at Thu Apr  2 15:07:55 2026, MaxMem=  1073741824 cpu:               0.3 elap:               0.1
 (Enter /Users/yarger/Applications/g16/l701.exe)
 ... and contract with generalized density number  0.
 Compute integral second derivatives.
 Leave Link  701 at Thu Apr  2 15:07:55 2026, MaxMem=  1073741824 cpu:               0.4 elap:               0.1
 (Enter /Users/yarger/Applications/g16/l702.exe)
 L702 exits ... SP integral derivatives will be done elsewhere.
 Leave Link  702 at Thu Apr  2 15:07:55 2026, MaxMem=  1073741824 cpu:               0.1 elap:               0.0
 (Enter /Users/yarger/Applications/g16/l703.exe)
 Integral derivatives from FoFJK, PRISM(SPDF).
 Compute integral second derivatives, UseDBF=F ICtDFT=           0.
 Calling FoFJK, ICntrl=    100127 FMM=F ISym2X=1 I1Cent= 0 IOpClX= 0 NMat=1 NMatS=1 NMatT=0.
 FoFJK:  IHMeth= 1 ICntrl=  100127 DoSepK=F KAlg= 0 I1Cent=           0 FoldK=F
 IRaf=         0 NMat=       1 IRICut=       1 DoRegI=T DoRafI=F ISym2E= 1 IDoP0=0 IntGTp=1.
 FoFCou: FMM=F IPFlag=           0 FMFlag=      100000 FMFlg1=         800
         NFxFlg=           0 DoJE=F BraDBF=F KetDBF=F FulRan=T
         wScrn=  0.000000 ICntrl=    100127 IOpCl=  0 I1Cent=           0 NGrid=           0
         NMat0=    1 NMatS0=      1 NMatT0=    0 NMatD0=    1 NMtDS0=    0 NMtDT0=    0
 Petite list used in FoFCou.
 Leave Link  703 at Thu Apr  2 15:07:56 2026, MaxMem=  1073741824 cpu:               4.0 elap:               1.0
 (Enter /Users/yarger/Applications/g16/l716.exe)
 Dipole        = 5.84572439D-01 7.11802323D-01 1.27612418D-15
 Polarizability= 2.42237484D+01-2.60957022D-01 2.50076360D+01
                 7.17035478D-15 2.73378764D-14 2.41896660D+01
 HyperPolar    = 2.44190860D+00 7.99278629D+00 5.50122440D+00
                 1.49482893D+01 1.57487924D-13 7.51820656D-14
                 6.52010512D-15 1.27267716D+01 2.03120440D+01
                -6.28077381D-14
 Full mass-weighted force constant matrix:
 Low frequencies ---   -1.9981   -1.7189   -0.9418   -0.0012   -0.0010    0.0023
 Low frequencies ---  120.9705  236.9782  380.7012
 Diagonal vibrational polarizability:
        7.3362114       8.6308453      20.6239650
 Diagonal vibrational hyperpolarizability:
        7.1736060       7.8907114       0.0000015
 Harmonic frequencies (cm**-1), IR intensities (KM/Mole), Raman scattering
 activities (A**4/AMU), depolarization ratios for plane and unpolarized
 incident light, reduced masses (AMU), force constants (mDyne/A),
 and normal coordinates:
                      1                      2                      3
                     A"                     A'                     A"
 Frequencies --    120.9705               236.9782               380.7012
 Red. masses --      4.9221                15.9365                 3.3273
 Frc consts  --      0.0424                 0.5273                 0.2841
 IR Inten    --      8.0595                 4.2264                 1.5807
 Raman Activ --      0.0194                 0.0461                 0.1297
 Depolar (P) --      0.7500                 0.5271                 0.7500
 Depolar (U) --      0.8571                 0.6903                 0.8571
  Atom  AN      X      Y      Z        X      Y      Z        X      Y      Z
     1   6    -0.00  -0.00  -0.23    -0.07  -0.11   0.00    -0.00  -0.00  -0.21
     2   1    -0.06  -0.39  -0.48    -0.27   0.05   0.01    -0.33  -0.28  -0.49
     3   6    -0.00  -0.00  -0.08    -0.11  -0.17   0.00     0.00   0.00   0.08
     4   9    -0.15   0.11  -0.08    -0.39  -0.00   0.03     0.20  -0.04   0.01
     5   9     0.15  -0.11  -0.08    -0.39  -0.00  -0.03    -0.20   0.04   0.01
     6   9     0.00   0.00   0.09     0.35   0.03  -0.00    -0.00  -0.00   0.12
     7   9     0.00   0.00   0.30     0.58   0.15  -0.00    -0.00  -0.00  -0.02
     8   1     0.06   0.39  -0.48    -0.27   0.05  -0.01     0.33   0.28  -0.49
                      4                      5                      6
                     A'                     A"                     A'
 Frequencies --    444.0996               576.6484               591.5229
 Red. masses --     13.5022                 8.4356                10.7352
 Frc consts  --      1.5690                 1.6527                 2.2131
 IR Inten    --      0.8593                 4.0364                13.2960
 Raman Activ --      1.1804                 0.5745                 1.2131
 Depolar (P) --      0.4794                 0.7500                 0.4678
 Depolar (U) --      0.6481                 0.8571                 0.6374
  Atom  AN      X      Y      Z        X      Y      Z        X      Y      Z
     1   6    -0.16   0.26  -0.00     0.00   0.00   0.01     0.29   0.03  -0.00
     2   1    -0.22   0.29  -0.00     0.41   0.19   0.28     0.44  -0.07   0.00
     3   6     0.03  -0.06   0.00     0.00   0.00  -0.25     0.08   0.24   0.00
     4   9     0.00  -0.27   0.13    -0.05  -0.30  -0.14    -0.09  -0.14   0.37
     5   9     0.00  -0.27  -0.13     0.05   0.30  -0.14    -0.09  -0.14  -0.37
     6   9     0.48   0.11   0.00    -0.00   0.00   0.38    -0.19   0.24  -0.00
     7   9    -0.38   0.27  -0.00     0.00  -0.00   0.02     0.08  -0.12  -0.00
     8   1    -0.22   0.29   0.00    -0.41  -0.19   0.28     0.44  -0.07  -0.00
                      7                      8                      9
                     A'                     A'                     A"
 Frequencies --    719.6775               920.1440              1087.3652
 Red. masses --      9.3595                 7.3755                 1.8771
 Frc consts  --      2.8561                 3.6792                 1.3077
 IR Inten    --     44.5758                20.8307                63.5986
 Raman Activ --      1.4349                 6.1839                 2.6388
 Depolar (P) --      0.6932                 0.0410                 0.7500
 Depolar (U) --      0.8188                 0.0788                 0.8571
  Atom  AN      X      Y      Z        X      Y      Z        X      Y      Z
     1   6    -0.37  -0.21   0.00     0.37   0.16  -0.00     0.00  -0.00   0.20
     2   1    -0.44  -0.16   0.01     0.54   0.06  -0.01    -0.57  -0.31  -0.19
     3   6    -0.26   0.10  -0.00    -0.06  -0.00  -0.00    -0.00   0.00   0.09
     4   9     0.16  -0.13  -0.07    -0.10  -0.15  -0.27    -0.05  -0.04  -0.07
     5   9     0.16  -0.13   0.07    -0.10  -0.15   0.27     0.05   0.04  -0.07
     6   9    -0.03   0.42   0.00    -0.02   0.20  -0.00     0.00  -0.00   0.00
     7   9     0.16  -0.08  -0.00    -0.03  -0.02   0.00    -0.00   0.00  -0.03
     8   1    -0.44  -0.16  -0.01     0.54   0.06   0.01     0.57   0.31  -0.19
                     10                     11                     12
                     A'                     A"                     A'
 Frequencies --   1216.8996              1333.1878              1336.3221
 Red. masses --      6.3903                 1.6203                 7.0235
 Frc consts  --      5.5755                 1.6967                 7.3896
 IR Inten    --    132.9375                75.7564               314.0396
 Raman Activ --      4.5159                 3.6609                 2.7416
 Depolar (P) --      0.4374                 0.7500                 0.7444
 Depolar (U) --      0.6086                 0.8571                 0.8535
  Atom  AN      X      Y      Z        X      Y      Z        X      Y      Z
     1   6    -0.12   0.50   0.00    -0.00  -0.00  -0.11    -0.06   0.00   0.00
     2   1    -0.21   0.50  -0.02    -0.30   0.61   0.12     0.44  -0.23   0.05
     3   6    -0.10  -0.03   0.00     0.00   0.00   0.18    -0.26   0.59  -0.00
     4   9     0.01   0.01   0.01    -0.02  -0.02  -0.05    -0.00  -0.06  -0.03
     5   9     0.01   0.01  -0.01     0.02   0.02  -0.05    -0.00  -0.06   0.03
     6   9     0.04  -0.03   0.00     0.00  -0.00  -0.01     0.12  -0.24   0.00
     7   9     0.10  -0.34  -0.00     0.00  -0.00   0.05     0.04   0.00  -0.00
     8   1    -0.21   0.50   0.02     0.30  -0.61   0.12     0.44  -0.23  -0.05
                     13                     14                     15
                     A'                     A"                     A'
 Frequencies --   1442.6941              1455.4789              1606.6788
 Red. masses --      3.4373                 2.1190                 1.7973
 Frc consts  --      4.2152                 2.6448                 2.7336
 IR Inten    --    184.5731               201.2646                14.9712
 Raman Activ --      2.4405                 4.2493                 0.8063
 Depolar (P) --      0.6516                 0.7500                 0.5368
 Depolar (U) --      0.7890                 0.8571                 0.6986
  Atom  AN      X      Y      Z        X      Y      Z        X      Y      Z
     1   6    -0.05  -0.04   0.00    -0.00  -0.00  -0.03     0.18  -0.11   0.00
     2   1    -0.57   0.26  -0.02     0.58  -0.34   0.02    -0.42   0.53   0.11
     3   6     0.36   0.22  -0.00     0.00   0.00   0.29    -0.16   0.03  -0.00
     4   9    -0.06  -0.05  -0.06    -0.02  -0.03  -0.06     0.02   0.01   0.01
     5   9    -0.06  -0.05   0.06     0.02   0.03  -0.06     0.02   0.01  -0.01
     6   9    -0.03  -0.01   0.00    -0.00  -0.00  -0.02     0.01  -0.02   0.00
     7   9     0.00  -0.04   0.00    -0.00  -0.00  -0.03    -0.02  -0.00   0.00
     8   1    -0.57   0.26   0.02    -0.58   0.34   0.02    -0.42   0.53  -0.11
                     16                     17                     18
                     A'                     A'                     A"
 Frequencies --   1651.3733              3292.6970              3357.6023
 Red. masses --      1.1481                 1.0578                 1.1131
 Frc consts  --      1.8447                 6.7572                 7.3932
 IR Inten    --      9.7088                14.8829                13.1332
 Raman Activ --      5.3776                93.1523                45.6948
 Depolar (P) --      0.7465                 0.0889                 0.7500
 Depolar (U) --      0.8548                 0.1632                 0.8571
  Atom  AN      X      Y      Z        X      Y      Z        X      Y      Z
     1   6    -0.09  -0.06   0.00     0.04   0.05   0.00     0.00   0.00  -0.10
     2   1     0.38   0.40   0.43    -0.22  -0.32   0.59    -0.23  -0.33   0.58
     3   6     0.04  -0.01  -0.00    -0.00   0.00   0.00     0.00  -0.00  -0.00
     4   9    -0.00  -0.00  -0.00    -0.00  -0.00   0.00     0.00   0.00   0.00
     5   9    -0.00  -0.00   0.00    -0.00  -0.00  -0.00    -0.00  -0.00   0.00
     6   9    -0.01   0.01   0.00     0.00  -0.00   0.00    -0.00  -0.00   0.00
     7   9     0.00  -0.00  -0.00    -0.00   0.00   0.00    -0.00   0.00   0.00
     8   1     0.38   0.40  -0.43    -0.22  -0.32  -0.59     0.23   0.33   0.58

 -------------------
 - Thermochemistry -
 -------------------
 Temperature   298.150 Kelvin.  Pressure   1.00000 Atm.
 Atom     1 has atomic number  6 and mass  12.00000
 Atom     2 has atomic number  1 and mass   1.00783
 Atom     3 has atomic number  6 and mass  12.00000
 Atom     4 has atomic number  9 and mass  18.99840
 Atom     5 has atomic number  9 and mass  18.99840
 Atom     6 has atomic number  9 and mass  18.99840
 Atom     7 has atomic number  9 and mass  18.99840
 Atom     8 has atomic number  1 and mass   1.00783
 Molecular mass:   102.00926 amu.
 Principal axes and moments of inertia in atomic units:
                           1         2         3
     Eigenvalues --   329.36512 633.40720 642.79455
           X            0.87131   0.49073  -0.00000
           Y           -0.49073   0.87131  -0.00000
           Z           -0.00000   0.00000   1.00000
 This molecule is an asymmetric top.
 Rotational symmetry number  1.
 Rotational temperatures (Kelvin)      0.26297     0.13674     0.13475
 Rotational constants (GHZ):           5.47945     2.84926     2.80765
 Zero-point vibrational energy     130219.7 (Joules/Mol)
                                   31.12327 (Kcal/Mol)
 Warning -- explicit consideration of   6 degrees of freedom as
           vibrations may cause significant error
 Vibrational temperatures:    174.05   340.96   547.74   638.96   829.67
          (Kelvin)            851.07  1035.46  1323.88  1564.48  1750.85
                             1918.16  1922.67  2075.72  2094.11  2311.65
                             2375.96  4737.46  4830.84
 
 Zero-point correction=                           0.049598 (Hartree/Particle)
 Thermal correction to Energy=                    0.054801
 Thermal correction to Enthalpy=                  0.055745
 Thermal correction to Gibbs Free Energy=         0.020348
 Sum of electronic and zero-point Energies=           -474.628683
 Sum of electronic and thermal Energies=              -474.623481
 Sum of electronic and thermal Enthalpies=            -474.622537
 Sum of electronic and thermal Free Energies=         -474.657933
 
                     E (Thermal)             CV                S
                      KCal/Mol        Cal/Mol-Kelvin    Cal/Mol-Kelvin
 Total                   34.388             16.982             74.498
 Electronic               0.000              0.000              0.000
 Translational            0.889              2.981             39.777
 Rotational               0.889              2.981             26.397
 Vibrational             32.610             11.021              8.323
 Vibration     1          0.609              1.932              3.085
 Vibration     2          0.656              1.784              1.825
 Vibration     3          0.750              1.511              1.036
 Vibration     4          0.804              1.374              0.814
 Vibration     5          0.933              1.082              0.492
 Vibration     6          0.949              1.050              0.464
                       Q            Log10(Q)             Ln(Q)
 Total Bot       0.436900D-09         -9.359617        -21.551316
 Total V=0       0.284378D+14         13.453896         30.978741
 Vib (Bot)       0.823014D-22        -22.084593        -50.851654
 Vib (Bot)    1  0.168893D+01          0.227613          0.524097
 Vib (Bot)    2  0.828553D+00         -0.081680         -0.188074
 Vib (Bot)    3  0.474694D+00         -0.323586         -0.745085
 Vib (Bot)    4  0.387988D+00         -0.411181         -0.946780
 Vib (Bot)    5  0.265141D+00         -0.576523         -1.327494
 Vib (Bot)    6  0.254631D+00         -0.594089         -1.367941
 Vib (V=0)       0.535699D+01          0.728921          1.678403
 Vib (V=0)    1  0.226139D+01          0.354376          0.815980
 Vib (V=0)    2  0.146773D+01          0.166646          0.383717
 Vib (V=0)    3  0.118945D+01          0.075344          0.173487
 Vib (V=0)    4  0.113288D+01          0.054183          0.124762
 Vib (V=0)    5  0.106595D+01          0.027737          0.063867
 Vib (V=0)    6  0.106110D+01          0.025758          0.059309
 Electronic      0.100000D+01          0.000000          0.000000
 Translational   0.404961D+08          7.607413         17.516716
 Rotational      0.131088D+06          5.117562         11.783622
 
                                                  r134a - 1,1,1,2-Tetrafluoroetha
 ne
                                                             IR Spectrum
 
     3  3                                                             1 1    11  11   1    1                                         
     3  2                                                             6 6    44  33   2    0      9      7    55    4 3     2   1    
     5  9                                                             5 0    54  33   1    8      2      2    97    4 8     3   2    
     8  3                                                             1 7    53  63   7    7      0      0    27    4 1     7   1    
 
     X  X                                                             X X    XX  XX   X    X      X      X    XX    X X     X   X    
                                                                             XX  XX   X    X             X                           
                                                                             XX  XX   X    X             X                           
                                                                             XX  XX   X    X                                         
                                                                             XX  XX   X                                              
                                                                             XX  X    X                                              
                                                                             XX  X    X                                              
                                                                             XX  X    X                                              
                                                                             XX  X                                                   
                                                                             XX  X                                                   
                                                                             XX  X                                                   
                                                                             XX  X                                                   
                                                                             X   X                                                   
                                                                                 X                                                   
                                                                                 X                                                   
                                                                                 X                                                   
                                                                                 X                                                   
                                                                                 X                                                   
                                                                                 X                                                   
                                                                                 X                                                   
 
 
                                                  r134a - 1,1,1,2-Tetrafluoroetha
 ne
                                                            Raman Spectrum
 
     3  3                                                             1 1    11  11   1    1                                         
     3  2                                                             6 6    44  33   2    0      9      7    55    4 3     2   1    
     5  9                                                             5 0    54  33   1    8      2      2    97    4 8     3   2    
     8  3                                                             1 7    53  63   7    7      0      0    27    4 1     7   1    
 
     X  X                                                             X X    XX  XX   X    X      X      X    XX    X X              
     X  X                                                                                                                            
     X  X                                                                                                                            
     X  X                                                                                                                            
     X  X                                                                                                                            
     X  X                                                                                                                            
     X  X                                                                                                                            
     X  X                                                                                                                            
     X  X                                                                                                                            
     X  X                                                                                                                            
        X                                                                                                                            
        X                                                                                                                            
        X                                                                                                                            
        X                                                                                                                            
        X                                                                                                                            
        X                                                                                                                            
        X                                                                                                                            
        X                                                                                                                            
        X                                                                                                                            
        X                                                                                                                            
 
 ***** Axes restored to original set *****
 -------------------------------------------------------------------
 Center     Atomic                   Forces (Hartrees/Bohr)
 Number     Number              X              Y              Z
 -------------------------------------------------------------------
      1        6          -0.000007664    0.000004520    0.000004211
      2        1           0.000001449   -0.000000805   -0.000004412
      3        6           0.000000058    0.000002827   -0.000004612
      4        9           0.000001932   -0.000001992    0.000005063
      5        9          -0.000000522   -0.000004622    0.000003420
      6        9           0.000002609    0.000002211   -0.000007436
      7        9          -0.000001133   -0.000003289    0.000006957
      8        1           0.000003272    0.000001150   -0.000003191
 -------------------------------------------------------------------
 Cartesian Forces:  Max     0.000007664 RMS     0.000003898
 Force constants in Cartesian coordinates: 
                1             2             3             4             5 
      1  0.669278D+00
      2  0.467963D-01  0.701544D+00
      3  0.523784D-01  0.149048D-01  0.652429D+00
      4 -0.977333D-01 -0.852376D-01 -0.688420D-02  0.942115D-01
      5 -0.810117D-01 -0.339279D+00 -0.961914D-02  0.948154D-01  0.360515D+00
      6 -0.765804D-02 -0.192178D-01 -0.617323D-01 -0.407284D-02  0.335727D-02
      7 -0.199685D+00  0.848897D-01  0.271827D-01  0.137441D-01 -0.141561D-01
      8  0.939537D-01 -0.156017D+00 -0.354171D-01  0.279389D-01 -0.215765D-01
      9  0.126730D-01 -0.218807D-01 -0.743891D-01  0.392413D-03 -0.675421D-03
     10 -0.352463D-01 -0.801968D-02 -0.471578D-01  0.113116D-02  0.397424D-03
     11  0.188226D-01  0.918917D-02  0.170756D-01 -0.193385D-02  0.284464D-02
     12 -0.817882D-02 -0.337634D-02 -0.911683D-02  0.332449D-03  0.249971D-03
     13  0.123135D-01  0.263324D-01  0.101324D-02 -0.403910D-02  0.379392D-02
     14 -0.233306D-01 -0.538181D-01  0.634870D-02  0.910838D-02 -0.441279D-02
     15 -0.143408D-02 -0.728041D-02  0.633068D-02  0.161059D-02 -0.927609D-03
     16 -0.382407D-02 -0.136373D-01  0.388275D-01  0.307175D-03  0.132938D-02
     17  0.545071D-02  0.106382D-01 -0.130729D-01 -0.154457D-02  0.269494D-02
     18  0.827111D-02  0.154338D-01 -0.295020D-01 -0.107986D-02 -0.542944D-03
     19 -0.113396D+00 -0.212835D-01  0.839727D-01 -0.399387D-02 -0.479038D-02
     20 -0.235524D-01 -0.933324D-01  0.565463D-01 -0.164965D-01 -0.747991D-03
     21  0.876048D-01  0.531579D-01 -0.295909D+00  0.106945D-01  0.917884D-02
     22 -0.231707D+00 -0.298403D-01 -0.149332D+00 -0.362768D-02 -0.377931D-03
     23 -0.371287D-01 -0.789259D-01 -0.367664D-01 -0.266502D-01 -0.384622D-04
     24 -0.143656D+00 -0.317412D-01 -0.188111D+00 -0.993085D-03 -0.102096D-02
                6             7             8             9            10 
      6  0.711796D-01
      7 -0.640008D-02  0.734109D+00
      8 -0.426826D-02 -0.489242D-01  0.716229D+00
      9  0.211376D-02 -0.555731D-02  0.117806D-01  0.667387D+00
     10  0.550522D-03 -0.266701D+00  0.346395D-02 -0.123219D+00  0.307680D+00
     11  0.657642D-03 -0.297899D-02 -0.944609D-01 -0.904960D-02  0.365802D-01
     12  0.232306D-03 -0.132597D+00 -0.609614D-02 -0.188192D+00  0.204056D+00
     13  0.212219D-02 -0.104692D+00 -0.404857D-01 -0.292433D-03 -0.235917D-01
     14 -0.225818D-02 -0.295615D-01 -0.356209D+00 -0.113648D-01 -0.396798D-01
     15  0.190723D-03  0.191163D-02 -0.762574D-02 -0.884526D-01 -0.267315D-01
     16 -0.294406D-03 -0.149732D+00 -0.511268D-02  0.100670D+00  0.210008D-01
     17 -0.848394D-04 -0.995456D-02 -0.975489D-01  0.304672D-01  0.170982D-02
     18 -0.378153D-04  0.108421D+00  0.232362D-01 -0.286919D+00 -0.146704D-01
     19  0.209884D-01 -0.962541D-02 -0.191487D-01  0.395886D-01  0.314363D-02
     20  0.449748D-01  0.290751D-02  0.359733D-02 -0.159317D-01 -0.143928D-02
     21 -0.157536D-01  0.428074D-02  0.170076D-01 -0.372615D-01  0.367305D-02
     22 -0.523578D-02 -0.174181D-01 -0.116852D-01 -0.242553D-01 -0.741678D-02
     23 -0.231606D-01  0.177781D-01  0.598543D-02  0.166544D-01  0.698734D-02
     24  0.380739D-02  0.275816D-02  0.138278D-02  0.571408D-02  0.349938D-02
               11            12            13            14            15 
     11  0.961621D-01
     12  0.280667D-01  0.274733D+00
     13 -0.591783D-01 -0.237230D-01  0.116429D+00
     14 -0.263636D-01 -0.254610D-01  0.108664D+00  0.470439D+00
     15 -0.417421D-01 -0.200233D-02  0.335691D-02 -0.152656D-02  0.917065D-01
     16  0.405751D-02 -0.389261D-01 -0.762658D-03 -0.272008D-01  0.219026D-01
     17  0.136975D-01  0.584782D-02 -0.378460D-01 -0.372028D-01  0.601845D-01
     18  0.822023D-02 -0.844569D-01  0.184461D-01  0.384081D-01 -0.117932D-01
     19  0.154400D-03 -0.486350D-03  0.171003D-02  0.193308D-02 -0.236492D-02
     20  0.100487D-02 -0.628256D-03  0.893515D-04  0.619717D-02 -0.589374D-03
     21 -0.176941D-02  0.757405D-02 -0.102167D-02 -0.458174D-02  0.381534D-02
     22  0.447648D-02 -0.477068D-03  0.263273D-02  0.673024D-04  0.174876D-02
     23 -0.207382D-02  0.139726D-02 -0.136943D-02  0.137051D-02 -0.492722D-03
     24 -0.145915D-02  0.122943D-02  0.986881D-04  0.435542D-03  0.204865D-03
               16            17            18            19            20 
     16  0.140978D+00
     17  0.362267D-01  0.108341D+00
     18 -0.130435D+00 -0.795089D-01  0.414544D+00
     19 -0.974591D-02  0.564932D-02  0.905088D-02  0.113486D+00
     20  0.610826D-02 -0.287264D-03 -0.486832D-02  0.306568D-01  0.780829D-01
     21  0.831619D-02 -0.418291D-02 -0.335348D-02 -0.134102D+00 -0.802503D-01
     22  0.177879D-02  0.308563D-03  0.199614D-02  0.184212D-01  0.172625D-02
     23 -0.177106D-02 -0.332916D-03 -0.378074D-03  0.682899D-02  0.548544D-02
     24 -0.608824D-04  0.350089D-03  0.151842D-02 -0.166470D-01  0.746762D-03
               21            22            23            24 
     21  0.385290D+00
     22  0.205547D-01  0.237337D+00
     23  0.114399D-01  0.353249D-01  0.685297D-01
     24 -0.444021D-01  0.155001D+00  0.313062D-01  0.220039D+00
 FormGI is forming the generalized inverse of G from B-inverse, IUseBI=4.
 Force constants in internal coordinates: 
                1             2             3             4             5 
      1  0.390804D+00
      2  0.202081D-02  0.345090D+00
      3  0.143743D-01  0.164448D-01  0.459618D+00
      4  0.311313D-02  0.202081D-02  0.143743D-01  0.390804D+00
      5  0.997486D-03  0.180545D-01  0.640280D-02  0.703745D-03  0.501089D+00
      6  0.703744D-03  0.180545D-01  0.640280D-02  0.997487D-03  0.581519D-01
      7  0.173396D-02  0.172977D-01  0.692705D-02  0.173396D-02  0.576695D-01
      8  0.626124D-02  0.123424D-01 -0.271281D-01 -0.841542D-02 -0.248267D-02
      9 -0.662974D-05 -0.125733D-01  0.146894D-01  0.117677D-02  0.913449D-03
     10  0.386816D-02 -0.145928D-01  0.264466D-02  0.386816D-02 -0.412569D-02
     11 -0.299038D-02  0.155283D-01  0.227047D-01 -0.299039D-02 -0.812647D-02
     12 -0.841541D-02  0.123424D-01 -0.271281D-01  0.626124D-02  0.147396D-01
     13  0.117677D-02 -0.125733D-01  0.146894D-01 -0.662693D-05 -0.104245D-02
     14 -0.329848D-02  0.168318D-01 -0.507537D-02  0.602661D-02  0.161248D-01
     15  0.602661D-02  0.168318D-01 -0.507537D-02 -0.329848D-02 -0.336634D-01
     16 -0.180671D-02  0.105122D-01  0.207333D-01 -0.180670D-02 -0.311690D-01
     17 -0.543019D-03 -0.174889D-01 -0.118241D-02 -0.543019D-03  0.227785D-01
     18  0.119797D-03 -0.145165D-01 -0.484638D-02 -0.583385D-03  0.238588D-01
     19 -0.583382D-03 -0.145165D-01 -0.484638D-02  0.119796D-03  0.409712D-02
     20 -0.190517D-02  0.554636D-03  0.196513D-01 -0.275556D-02 -0.106133D-02
     21 -0.655987D-03  0.201259D-02  0.108600D-01 -0.150638D-02  0.158590D-01
     22  0.117504D-02  0.128361D-02  0.152556D-01 -0.458659D-02 -0.203351D-01
     23 -0.382828D-02 -0.728975D-03  0.439563D-02  0.257910D-02  0.413197D-02
     24 -0.257910D-02  0.728974D-03 -0.439563D-02  0.382828D-02  0.210523D-01
     25 -0.748069D-03  0.000000D+00  0.000000D+00  0.748070D-03 -0.151418D-01
     26  0.150638D-02 -0.201258D-02 -0.108600D-01  0.655987D-03  0.149707D-02
     27  0.275556D-02 -0.554635D-03 -0.196513D-01  0.190517D-02  0.184173D-01
     28  0.458659D-02 -0.128361D-02 -0.152556D-01 -0.117504D-02 -0.177767D-01
                6             7             8             9            10 
      6  0.501089D+00
      7  0.576695D-01  0.486888D+00
      8  0.147396D-01 -0.379601D-02  0.130437D+00
      9 -0.104245D-02 -0.724017D-02 -0.526814D-01  0.835249D-01
     10 -0.412569D-02  0.392336D-03 -0.494715D-01  0.164278D-01  0.614689D-01
     11 -0.812647D-02  0.221302D-01 -0.186887D-01 -0.786615D-01  0.402761D-02
     12 -0.248267D-02 -0.379601D-02 -0.173437D-01  0.788331D-02 -0.494715D-01
     13  0.913449D-03 -0.724017D-02  0.788331D-02  0.217466D-01  0.164278D-01
     14 -0.336634D-01 -0.308377D-01 -0.127318D-01  0.733370D-02 -0.478163D-02
     15  0.161248D-01 -0.308377D-01  0.287454D-01 -0.512806D-02 -0.478163D-02
     16 -0.311690D-01  0.224625D-01 -0.112978D-01 -0.891868D-02  0.522548D-02
     17  0.227785D-01  0.471261D-02 -0.529338D-02  0.678977D-04  0.309676D-02
     18  0.409712D-02  0.188493D-01  0.461738D-02  0.238839D-02  0.775020D-03
     19  0.238588D-01  0.188493D-01 -0.441863D-02  0.456047D-02  0.775021D-03
     20 -0.184173D-01  0.211335D-01 -0.720650D-02  0.101929D-01 -0.555602D-02
     21 -0.149707D-02 -0.168915D-01 -0.259837D-02  0.118586D-01 -0.839133D-02
     22  0.177767D-01  0.212102D-02  0.234600D-02  0.851045D-02 -0.697367D-02
     23 -0.210522D-01  0.190125D-01 -0.942733D-02 -0.132035D-01  0.141765D-02
     24 -0.413197D-02 -0.190125D-01 -0.481920D-02 -0.115378D-01 -0.141765D-02
     25  0.151418D-01  0.000000D+00  0.125165D-03 -0.148859D-01  0.000000D+00
     26 -0.158590D-01  0.168915D-01  0.238970D-02  0.249911D-02  0.839133D-02
     27  0.106133D-02 -0.211335D-01  0.699783D-02  0.416482D-02  0.555602D-02
     28  0.203351D-01 -0.212103D-02  0.119422D-01  0.816676D-03  0.697367D-02
               11            12            13            14            15 
     11  0.194601D+00
     12 -0.186887D-01  0.130437D+00
     13 -0.786615D-01 -0.526814D-01  0.835249D-01
     14 -0.136693D-01  0.287454D-01 -0.512806D-02  0.207516D+00
     15 -0.136693D-01 -0.127318D-01  0.733370D-02 -0.700844D-02  0.207516D+00
     16  0.358898D-01 -0.112979D-01 -0.891868D-02  0.392398D-03  0.392397D-03
     17  0.747650D-02 -0.529338D-02  0.678982D-04 -0.105884D+00 -0.105884D+00
     18 -0.809649D-02 -0.441862D-02  0.456047D-02 -0.976996D-01 -0.794268D-02
     19 -0.809649D-02  0.461738D-02  0.238839D-02 -0.794268D-02 -0.976996D-01
     20  0.140977D-01 -0.699783D-02 -0.416482D-02 -0.297894D-02 -0.757535D-02
     21  0.421208D-02 -0.238970D-02 -0.249911D-02  0.348524D-02 -0.111117D-02
     22  0.915489D-02 -0.119422D-01 -0.816676D-03 -0.104843D-01  0.639414D-02
     23  0.494281D-02  0.481920D-02  0.115378D-01  0.378905D-02 -0.102532D-01
     24 -0.494281D-02  0.942733D-02  0.132035D-01  0.102532D-01 -0.378905D-02
     25  0.000000D+00 -0.125165D-03  0.148859D-01 -0.371627D-02  0.371627D-02
     26 -0.421208D-02  0.259837D-02 -0.118586D-01  0.111117D-02 -0.348524D-02
     27 -0.140977D-01  0.720650D-02 -0.101929D-01  0.757535D-02  0.297895D-02
     28 -0.915489D-02 -0.234600D-02 -0.851045D-02 -0.639414D-02  0.104843D-01
               16            17            18            19            20 
     16  0.208733D+00
     17 -0.974318D-02  0.147262D+00
     18 -0.105220D+00  0.422697D-01  0.137845D+00
     19 -0.105220D+00  0.422697D-01  0.424225D-01  0.137845D+00
     20  0.984159D-02 -0.181129D-01  0.205268D-01 -0.709562D-03  0.313253D-01
     21 -0.220111D-02  0.208961D-01 -0.366207D-03 -0.216026D-01  0.343420D-03
     22  0.382024D-02  0.139158D-02 -0.214111D-01  0.203353D-01  0.120306D-02
     23  0.602135D-02 -0.195045D-01  0.197064D-01  0.118660D-02  0.148427D-01
     24 -0.602135D-02  0.195045D-01 -0.118660D-02 -0.197064D-01 -0.161392D-01
     25  0.000000D+00  0.000000D+00 -0.222315D-01  0.222315D-01 -0.152795D-01
     26  0.220111D-02 -0.208961D-01  0.216026D-01  0.366209D-03  0.156614D-01
     27 -0.984159D-02  0.181129D-01  0.709563D-03 -0.205268D-01 -0.153205D-01
     28 -0.382024D-02 -0.139158D-02 -0.203353D-01  0.214111D-01 -0.144608D-01
               21            22            23            24            25 
     21  0.290737D-01
     22  0.772690D-04  0.318353D-01
     23 -0.150134D-01 -0.159577D-01  0.335127D-01
     24  0.137169D-01 -0.170835D-01  0.365659D-02  0.335127D-01
     25 -0.152795D-01  0.146745D-01  0.271222D-02  0.271222D-02  0.326663D-01
     26 -0.130689D-01 -0.133350D-01  0.137169D-01 -0.150134D-01 -0.152795D-01
     27  0.156614D-01 -0.144608D-01 -0.161392D-01  0.148427D-01 -0.152795D-01
     28 -0.133351D-01  0.172972D-01 -0.170835D-01 -0.159577D-01  0.146745D-01
               26            27            28 
     26  0.290737D-01
     27  0.343420D-03  0.313253D-01
     28  0.772693D-04  0.120306D-02  0.318353D-01
 Leave Link  716 at Thu Apr  2 15:07:56 2026, MaxMem=  1073741824 cpu:               0.1 elap:               0.0
 (Enter /Users/yarger/Applications/g16/l103.exe)

 GradGradGradGradGradGradGradGradGradGradGradGradGradGradGradGradGradGrad
 Berny optimization.
 Red2BG is reusing G-inverse.
 Internal  Forces:  Max     0.000008169 RMS     0.000003183
 Search for a local minimum.
 Step number   1 out of a maximum of    2
 All quantities printed in internal units (Hartrees-Bohrs-Radians)
 Second derivative matrix not updated -- analytic derivatives used.
 ITU=  0
     Eigenvalues ---    0.00349   0.05928   0.08354   0.10966   0.11559
     Eigenvalues ---    0.16772   0.17057   0.23079   0.27226   0.29389
     Eigenvalues ---    0.32651   0.38964   0.39036   0.43014   0.45549
     Eigenvalues ---    0.46602   0.48964   0.63567
 Angle between quadratic step and forces=  45.73 degrees.
 Linear search not attempted -- first point.
 Iteration  1 RMS(Cart)=  0.00001159 RMS(Int)=  0.00000000
 Iteration  2 RMS(Cart)=  0.00000000 RMS(Int)=  0.00000000
 ITry= 1 IFail=0 DXMaxC= 2.60D-05 DCOld= 1.00D+10 DXMaxT= 3.00D-01 DXLimC= 3.00D+00 Rises=F
 ClnCor:  largest displacement from symmetrization is 1.95D-11 for atom     8.
 Variable       Old X    -DE/DX   Delta X   Delta X   Delta X     New X
                                 (Linear)    (Quad)   (Total)
    R1        2.03997  -0.00000   0.00000  -0.00000  -0.00000   2.03997
    R2        2.85618   0.00000   0.00000   0.00001   0.00001   2.85620
    R3        2.56485   0.00001   0.00000   0.00001   0.00001   2.56486
    R4        2.03997  -0.00000   0.00000  -0.00000  -0.00000   2.03997
    R5        2.49170   0.00000   0.00000   0.00001   0.00001   2.49170
    R6        2.49170   0.00000   0.00000   0.00001   0.00001   2.49170
    R7        2.50465   0.00001   0.00000   0.00001   0.00001   2.50466
    A1        1.90681  -0.00000   0.00000  -0.00002  -0.00002   1.90679
    A2        1.90608   0.00000   0.00000   0.00003   0.00003   1.90611
    A3        1.93425   0.00000   0.00000  -0.00002  -0.00002   1.93423
    A4        1.90355  -0.00000   0.00000  -0.00000  -0.00000   1.90355
    A5        1.90681  -0.00000   0.00000  -0.00002  -0.00002   1.90679
    A6        1.90608   0.00000   0.00000   0.00003   0.00003   1.90611
    A7        1.95315  -0.00000   0.00000  -0.00000  -0.00000   1.95315
    A8        1.95315  -0.00000   0.00000  -0.00000  -0.00000   1.95315
    A9        1.90193   0.00000   0.00000   0.00001   0.00001   1.90193
   A10        1.88408  -0.00000   0.00000  -0.00002  -0.00002   1.88407
   A11        1.88456   0.00000   0.00000   0.00001   0.00001   1.88457
   A12        1.88456   0.00000   0.00000   0.00001   0.00001   1.88457
    D1        1.02359   0.00000   0.00000   0.00003   0.00003   1.02363
    D2        3.14095  -0.00000   0.00000   0.00001   0.00001   3.14096
    D3       -1.05932   0.00000   0.00000   0.00002   0.00002  -1.05930
    D4       -1.05868   0.00000   0.00000   0.00001   0.00001  -1.05867
    D5        1.05868  -0.00000   0.00000  -0.00001  -0.00001   1.05867
    D6        3.14159  -0.00000   0.00000   0.00000   0.00000   3.14159
    D7       -3.14095   0.00000   0.00000  -0.00001  -0.00001  -3.14096
    D8       -1.02359  -0.00000   0.00000  -0.00003  -0.00003  -1.02363
    D9        1.05932  -0.00000   0.00000  -0.00002  -0.00002   1.05930
         Item               Value     Threshold  Converged?
 Maximum Force            0.000008     0.000015     YES
 RMS     Force            0.000003     0.000010     YES
 Maximum Displacement     0.000026     0.000060     YES
 RMS     Displacement     0.000012     0.000040     YES
 Predicted change in Energy=-5.009594D-10
 Optimization completed.
    -- Stationary point found.
                           ----------------------------
                           !   Optimized Parameters   !
                           ! (Angstroms and Degrees)  !
 --------------------------                            --------------------------
 ! Name  Definition              Value          Derivative Info.                !
 --------------------------------------------------------------------------------
 ! R1    R(1,2)                  1.0795         -DE/DX =    0.0                 !
 ! R2    R(1,3)                  1.5114         -DE/DX =    0.0                 !
 ! R3    R(1,7)                  1.3573         -DE/DX =    0.0                 !
 ! R4    R(1,8)                  1.0795         -DE/DX =    0.0                 !
 ! R5    R(3,4)                  1.3185         -DE/DX =    0.0                 !
 ! R6    R(3,5)                  1.3185         -DE/DX =    0.0                 !
 ! R7    R(3,6)                  1.3254         -DE/DX =    0.0                 !
 ! A1    A(2,1,3)              109.2522         -DE/DX =    0.0                 !
 ! A2    A(2,1,7)              109.2104         -DE/DX =    0.0                 !
 ! A3    A(2,1,8)              110.8243         -DE/DX =    0.0                 !
 ! A4    A(3,1,7)              109.0656         -DE/DX =    0.0                 !
 ! A5    A(3,1,8)              109.2522         -DE/DX =    0.0                 !
 ! A6    A(7,1,8)              109.2104         -DE/DX =    0.0                 !
 ! A7    A(1,3,4)              111.9074         -DE/DX =    0.0                 !
 ! A8    A(1,3,5)              111.9074         -DE/DX =    0.0                 !
 ! A9    A(1,3,6)              108.9724         -DE/DX =    0.0                 !
 ! A10   A(4,3,5)              107.95           -DE/DX =    0.0                 !
 ! A11   A(4,3,6)              107.9773         -DE/DX =    0.0                 !
 ! A12   A(5,3,6)              107.9773         -DE/DX =    0.0                 !
 ! D1    D(2,1,3,4)             58.6476         -DE/DX =    0.0                 !
 ! D2    D(2,1,3,5)            179.9631         -DE/DX =    0.0                 !
 ! D3    D(2,1,3,6)            -60.6947         -DE/DX =    0.0                 !
 ! D4    D(7,1,3,4)            -60.6577         -DE/DX =    0.0                 !
 ! D5    D(7,1,3,5)             60.6577         -DE/DX =    0.0                 !
 ! D6    D(7,1,3,6)            180.0            -DE/DX =    0.0                 !
 ! D7    D(8,1,3,4)           -179.9631         -DE/DX =    0.0                 !
 ! D8    D(8,1,3,5)            -58.6476         -DE/DX =    0.0                 !
 ! D9    D(8,1,3,6)             60.6947         -DE/DX =    0.0                 !
 --------------------------------------------------------------------------------
 GradGradGradGradGradGradGradGradGradGradGradGradGradGradGradGradGradGrad

 Leave Link  103 at Thu Apr  2 15:07:56 2026, MaxMem=  1073741824 cpu:               0.0 elap:               0.0
 (Enter /Users/yarger/Applications/g16/l9999.exe)

 ----------------------------------------------------------------------

 Electric dipole moment (input orientation):
 (Debye = 10**-18 statcoulomb cm , SI units = C m)
                  (au)            (Debye)         (10**-30 SI)
   Tot        0.921080D+00      0.234115D+01      0.780924D+01
   x         -0.390456D+00     -0.992439D+00     -0.331042D+01
   y          0.672569D+00      0.170950D+01      0.570228D+01
   z         -0.493540D+00     -0.125445D+01     -0.418441D+01

 Dipole polarizability, Alpha (input orientation).
 (esu units = cm**3 , SI units = C**2 m**2 J**-1)
 Alpha(0;0):
               (au)            (10**-24 esu)      (10**-40 SI)
   iso        0.244737D+02      0.362663D+01      0.403517D+01
   aniso      0.920138D+00      0.136350D+00      0.151710D+00
   xx         0.242542D+02      0.359410D+01      0.399897D+01
   yx         0.997909D-01      0.147875D-01      0.164533D-01
   yy         0.242364D+02      0.359146D+01      0.399604D+01
   zx        -0.256099D+00     -0.379500D-01     -0.422250D-01
   zy        -0.223845D+00     -0.331704D-01     -0.369070D-01
   zz         0.249305D+02      0.369431D+01      0.411048D+01

 First dipole hyperpolarizability, Beta (input orientation).
 ||, _|_  parallel and perpendicular components, (z) with respect to z axis,
 vector components x,y,z.  Values do not include the 1/n! factor of 1/2.
 (esu units = statvolt**-1 cm**4 , SI units = C**3 m**3 J**-2)
 Beta(0;0,0):
               (au)            (10**-30 esu)      (10**-50 SI)
   || (z)    -0.200255D+02     -0.173005D+00     -0.642090D-01
   _|_(z)    -0.667517D+01     -0.576683D-01     -0.214030D-01
   x         -0.364741D+02     -0.315108D+00     -0.116949D+00
   y          0.965754D+02      0.834336D+00      0.309656D+00
   z         -0.100128D+03     -0.865024D+00     -0.321045D+00
   ||         0.287630D+02      0.248490D+00      0.922244D-01
   xxx       -0.923523D+01     -0.797852D-01     -0.296115D-01
   xxy        0.202457D+01      0.174907D-01      0.649151D-02
   yxy        0.622443D+01      0.537743D-01      0.199578D-01
   yyy        0.302867D+02      0.261653D+00      0.971100D-01
   xxz       -0.135283D+02     -0.116874D+00     -0.433765D-01
   yxz       -0.681115D+00     -0.588430D-02     -0.218390D-02
   yyz       -0.372924D+01     -0.322177D-01     -0.119573D-01
   zxz       -0.914725D+01     -0.790251D-01     -0.293294D-01
   zyz       -0.119464D+00     -0.103208D-02     -0.383045D-03
   zzz       -0.161184D+02     -0.139250D+00     -0.516813D-01

 ----------------------------------------------------------------------

 Dipole orientation:
     6         -3.12222833         -3.17119038          1.67528003
     1         -2.17228761         -4.56102345          2.82743784
     6         -1.27070565         -2.08554894         -0.20913357
     9         -0.29348117         -3.84860880         -1.67378378
     9         -2.33208913         -0.37183576         -1.67378378
     9          0.60522688         -0.98559478          1.03354403
     9         -5.04503657         -4.29863015          0.40635665
     1         -3.87123059         -1.66353691          2.82743784

 Electric dipole moment (dipole orientation):
 (Debye = 10**-18 statcoulomb cm , SI units = C m)
                  (au)            (Debye)         (10**-30 SI)
   Tot        0.921080D+00      0.234115D+01      0.780924D+01
   x          0.000000D+00      0.000000D+00      0.000000D+00
   y          0.000000D+00      0.000000D+00      0.000000D+00
   z          0.921080D+00      0.234115D+01      0.780924D+01

 Dipole polarizability, Alpha (dipole orientation).
 (esu units = cm**3 , SI units = C**2 m**2 J**-1)
 Alpha(0;0):
               (au)            (10**-24 esu)      (10**-40 SI)
   iso        0.244737D+02      0.362663D+01      0.403517D+01
   aniso      0.920138D+00      0.136350D+00      0.151710D+00
   xx         0.246405D+02      0.365134D+01      0.406267D+01
   yx         0.264334D+00      0.391703D-01      0.435828D-01
   yy         0.243447D+02      0.360751D+01      0.401389D+01
   zx         0.375422D+00      0.556317D-01      0.618987D-01
   zy         0.220129D+00      0.326197D-01      0.362943D-01
   zz         0.244359D+02      0.362103D+01      0.402894D+01

 First dipole hyperpolarizability, Beta (dipole orientation).
 ||, _|_  parallel and perpendicular components, (z) with respect to z axis,
 vector components x,y,z.  Values do not include the 1/n! factor of 1/2.
 (esu units = statvolt**-1 cm**4 , SI units = C**3 m**3 J**-2)
 Beta(0;0,0):
               (au)            (10**-30 esu)      (10**-50 SI)
   || (z)     0.279264D+02      0.241262D+00      0.895421D-01
   _|_(z)     0.930880D+01      0.804208D-01      0.298474D-01
   x          0.297030D+02      0.256611D+00      0.952386D-01
   y          0.174164D+02      0.150464D+00      0.558432D-01
   z          0.139632D+03      0.120631D+01      0.447711D+00
   ||         0.287630D+02      0.248490D+00      0.922244D-01
   xxx        0.628951D+01      0.543365D-01      0.201664D-01
   xxy        0.596230D+00      0.515096D-02      0.191173D-02
   yxy        0.207954D+01      0.179656D-01      0.666776D-02
   yyy        0.431097D+01      0.372434D-01      0.138225D-01
   xxz        0.721927D+01      0.623689D-01      0.231476D-01
   yxz       -0.970696D+01     -0.838606D-01     -0.311240D-01
   yyz        0.180825D+02      0.156218D+00      0.579789D-01
   zxz        0.153195D+01      0.132349D-01      0.491199D-02
   zyz        0.898260D+00      0.776027D-02      0.288015D-02
   zzz        0.212423D+02      0.183517D+00      0.681104D-01

 ----------------------------------------------------------------------
 1\1\GINC-MACBOOKPRO\Freq\RHF\6-31+G(d)\C2H2F4\ROOT\02-Apr-2026\0\\#P G
 eom=AllCheck Guess=TCheck SCRF=Check GenChk RHF/6-31+G(d) Freq\\r134a 
 - 1,1,1,2-Tetrafluoroethane\\0,1\C,-1.4964825293,1.4098737187,1.450727
 7487\H,-1.1628395076,2.4365240661,1.4479776029\C,-0.3244068007,0.50414
 91322,1.1502128381\F,0.6488034936,0.6515020351,2.0275493536\F,-0.67456
 58661,-0.7670242781,1.1414204503\F,0.1560665342,0.8044026889,-0.047988
 9769\F,-1.9900400547,1.1039745716,2.6775073875\H,-2.265714174,1.254347
 1304,0.7094920763\\Version=EM64M-G16RevA.03\State=1-A'\HF=-474.6782813
 \RMSD=9.569e-10\RMSF=3.898e-06\ZeroPoint=0.0495981\Thermal=0.0548006\D
 ipole=-0.3904557,0.6725695,-0.4935404\DipoleDeriv=0.4785999,0.084301,-
 0.2334362,0.0866443,0.3966752,-0.1038187,-0.2371874,-0.1003191,0.92746
 78,0.0256878,-0.0392417,0.0323375,-0.0374563,-0.0626322,0.0175426,0.01
 9228,-0.0327409,0.0199638,1.6494321,0.1108916,0.0718941,0.1417129,1.71
 76776,-0.0535419,0.0225549,-0.0075125,1.7947796,-0.777574,-0.02304,-0.
 3496644,0.0188291,-0.3731221,-0.0247096,-0.283285,-0.0520548,-0.613717
 ,-0.4152901,-0.0638606,0.0106809,-0.1420602,-1.0055929,-0.0062138,0.00
 24598,-0.0331256,-0.34353,-0.488405,-0.0450398,0.2810665,-0.005734,-0.
 3912286,0.0769943,0.2181454,0.1356946,-0.891487,-0.4384243,-0.0182451,
 0.2452599,-0.0363202,-0.3363309,0.1223978,0.274195,0.0954036,-0.855968
 8,-0.0340263,-0.0057654,-0.0581385,-0.0256155,0.0545538,-0.0286507,-0.
 0161108,-0.0053454,-0.0375082\Polar=24.2541837,0.0997909,24.2364013,-0
 .2560992,-0.223845,24.9304654\PolarDeriv=-0.1269797,1.4546203,-3.11524
 62,1.7450795,-0.3056359,2.6705584,1.6757141,-2.4405273,-4.0768122,-0.4
 198237,0.4084967,1.0955721,2.3913454,-0.3136222,1.1760504,3.523083,0.7
 750607,-0.6237493,1.2315897,1.5679945,1.5635685,-0.5089723,-0.1043635,
 0.127833,0.9019383,1.0907585,7.8325164,0.0684996,-0.0412557,0.8249185,
 -0.2328129,-0.164596,-0.0880916,0.1274058,1.5943978,-0.03894,0.4719903
 ,-1.4547537,2.3454354,-1.0764796,0.4437645,-2.172174,-1.4225972,1.7352
 545,2.2114343,-0.0357832,-0.1955343,-0.5720194,-1.8384488,0.658968,-0.
 413563,-1.8802524,-0.855143,0.9412921,4.183735,0.3191059,0.3091287,2.0
 583689,-0.0363999,1.331371,0.1655217,1.2218895,0.1708909,0.2393148,1.0
 273685,0.1303821,1.6804414,0.1359312,0.3068655,2.2501375,0.1253875,3.1
 586267,-0.7303194,-1.7188402,-0.9658682,-0.0494802,-0.0091181,-0.00288
 56,-0.4251995,-0.918121,-6.4738526,-0.0052803,-0.1105911,-0.698425,0.0
 726525,-0.0369855,0.074542,-0.3184112,-1.5064509,-0.0388722,1.716406,0
 .4584414,0.2104018,-1.9236382,-0.1455709,1.3198997,0.0936563,0.6944061
 ,0.6034907,-0.2088726,-1.5248697,0.5508572,-0.8258964,-0.3696368,-0.39
 04172,1.7652672,0.7134584,-5.6302308,-1.9704686,-0.372438,0.1866851,2.
 2937891,0.1166285,-1.5522722,-0.3630681,-0.5946665,-0.3656724,0.395770
 1,1.5759098,-0.7473976,1.0464187,0.0464416,0.0195713,-2.8243227,-0.573
 8002,6.2791894,-4.7759537,-0.25413,-0.5341037,-2.5386683,0.0406953,-1.
 722331,-0.6259661,-0.7889934,0.0980049,-0.0338246,-1.1395243,-0.583887
 2,-2.2936995,0.0434994,-0.6849568,-2.6429072,-0.2729105,-4.0473162\Hyp
 erPolar=-9.2352253,2.0245711,6.2244333,30.2866814,-13.5282707,-0.68111
 49,-3.7292367,-9.1472536,-0.1194642,-16.1183521\Quadrupole=0.0317164,1
 .6461893,-1.6779057,-0.7266909,2.097356,-0.4979846\PG=CS [SG(C2F2),X(H
 2F2)]\NImag=0\\0.66927840,0.04679633,0.70154430,0.05237835,0.01490478,
 0.65242917,-0.09773329,-0.08523762,-0.00688420,0.09421150,-0.08101169,
 -0.33927870,-0.00961914,0.09481538,0.36051485,-0.00765804,-0.01921779,
 -0.06173233,-0.00407284,0.00335727,0.07117958,-0.19968510,0.08488970,0
 .02718268,0.01374411,-0.01415610,-0.00640008,0.73410938,0.09395369,-0.
 15601654,-0.03541708,0.02793891,-0.02157648,-0.00426826,-0.04892421,0.
 71622924,0.01267296,-0.02188069,-0.07438911,0.00039241,-0.00067542,0.0
 0211376,-0.00555731,0.01178062,0.66738696,-0.03524632,-0.00801968,-0.0
 4715783,0.00113116,0.00039742,0.00055052,-0.26670072,0.00346395,-0.123
 21910,0.30767993,0.01882259,0.00918917,0.01707564,-0.00193385,0.002844
 64,0.00065764,-0.00297899,-0.09446085,-0.00904960,0.03658020,0.0961621
 2,-0.00817882,-0.00337634,-0.00911683,0.00033245,0.00024997,0.00023231
 ,-0.13259695,-0.00609614,-0.18819243,0.20405586,0.02806672,0.27473274,
 0.01231348,0.02633241,0.00101324,-0.00403910,0.00379392,0.00212219,-0.
 10469224,-0.04048574,-0.00029243,-0.02359174,-0.05917835,-0.02372302,0
 .11642950,-0.02333058,-0.05381814,0.00634870,0.00910838,-0.00441279,-0
 .00225818,-0.02956147,-0.35620921,-0.01136483,-0.03967977,-0.02636359,
 -0.02546103,0.10866387,0.47043883,-0.00143408,-0.00728041,0.00633068,0
 .00161059,-0.00092761,0.00019072,0.00191163,-0.00762574,-0.08845255,-0
 .02673147,-0.04174206,-0.00200233,0.00335691,-0.00152656,0.09170647,-0
 .00382407,-0.01363735,0.03882753,0.00030717,0.00132938,-0.00029441,-0.
 14973189,-0.00511268,0.10067017,0.02100084,0.00405751,-0.03892610,-0.0
 0076266,-0.02720080,0.02190258,0.14097772,0.00545071,0.01063824,-0.013
 07287,-0.00154457,0.00269494,-0.00008484,-0.00995456,-0.09754891,0.030
 46717,0.00170982,0.01369747,0.00584782,-0.03784603,-0.03720277,0.06018
 448,0.03622674,0.10834121,0.00827111,0.01543378,-0.02950197,-0.0010798
 6,-0.00054294,-0.00003782,0.10842112,0.02323618,-0.28691924,-0.0146704
 0,0.00822023,-0.08445693,0.01844610,0.03840809,-0.01179320,-0.13043508
 ,-0.07950894,0.41454422,-0.11339566,-0.02128349,0.08397270,-0.00399387
 ,-0.00479038,0.02098842,-0.00962541,-0.01914867,0.03958855,0.00314363,
 0.00015440,-0.00048635,0.00171003,0.00193308,-0.00236492,-0.00974591,0
 .00564932,0.00905088,0.11348603,-0.02355239,-0.09333243,0.05654633,-0.
 01649646,-0.00074799,0.04497478,0.00290751,0.00359733,-0.01593167,-0.0
 0143928,0.00100487,-0.00062826,0.00008935,0.00619717,-0.00058937,0.006
 10826,-0.00028726,-0.00486832,0.03065676,0.07808289,0.08760479,0.05315
 790,-0.29590861,0.01069453,0.00917884,-0.01575362,0.00428074,0.0170076
 3,-0.03726146,0.00367305,-0.00176941,0.00757405,-0.00102167,-0.0045817
 4,0.00381534,0.00831619,-0.00418291,-0.00335348,-0.13410228,-0.0802502
 5,0.38528986,-0.23170744,-0.02984030,-0.14933249,-0.00362768,-0.000377
 93,-0.00523578,-0.01741812,-0.01168524,-0.02425526,-0.00741678,0.00447
 648,-0.00047707,0.00263273,0.00006730,0.00174876,0.00177879,0.00030856
 ,0.00199614,0.01842116,0.00172625,0.02055466,0.23733733,-0.03712865,-0
 .07892590,-0.03676636,-0.02665016,-0.00003846,-0.02316062,0.01777811,0
 .00598543,0.01665442,0.00698734,-0.00207382,0.00139726,-0.00136943,0.0
 0137051,-0.00049272,-0.00177106,-0.00033292,-0.00037807,0.00682899,0.0
 0548544,0.01143995,0.03532487,0.06852971,-0.14365628,-0.03174121,-0.18
 811098,-0.00099308,-0.00102096,0.00380739,0.00275816,0.00138278,0.0057
 1408,0.00349938,-0.00145915,0.00122943,0.00009869,0.00043554,0.0002048
 7,-0.00006088,0.00035009,0.00151842,-0.01664701,0.00074676,-0.04440209
 ,0.15500103,0.03130616,0.22003889\\0.00000766,-0.00000452,-0.00000421,
 -0.00000145,0.00000080,0.00000441,-0.00000006,-0.00000283,0.00000461,-
 0.00000193,0.00000199,-0.00000506,0.00000052,0.00000462,-0.00000342,-0
 .00000261,-0.00000221,0.00000744,0.00000113,0.00000329,-0.00000696,-0.
 00000327,-0.00000115,0.00000319\\\@


 POCKETA-POCKETA
 BARON VON RICHTOFEN
 SLAUGHTERED THE ALLIES WITH
 HARDLY A CARE.
 KILLED EIGHTY-ONE WITH HIS
 BLOOD-COLORED TRIPLANE, THEN
 UN-AEROBATICALLY
 PLUNGED FROM THE AIR.
   -- TONY HOFFMAN
 Job cpu time:       0 days  0 hours  0 minutes 16.8 seconds.
 Elapsed time:       0 days  0 hours  0 minutes  4.4 seconds.
 File lengths (MBytes):  RWF=     15 Int=      0 D2E=      0 Chk=      2 Scr=      1
 Normal termination of Gaussian 16 at Thu Apr  2 15:07:56 2026.
