 Entering Gaussian System, Link 0=g16
 Input=/Users/yarger/Downloads/1112Tetrafluoroethane_Opt_Freq_DFT_B3LYP_631pd_Gaussian16.gjf
 Output=/Users/yarger/Downloads/1112Tetrafluoroethane_Opt_Freq_DFT_B3LYP_631pd_Gaussian16.log
 Initial command:
 /Users/yarger/Applications/g16/l1.exe "/Users/yarger/Applications/scratch/Gau-83249.inp" -scrdir="/Users/yarger/Applications/scratch/"
 Entering Link 1 = /Users/yarger/Applications/g16/l1.exe PID=     83250.
  
 Copyright (c) 1988,1990,1992,1993,1995,1998,2003,2009,2016,
            Gaussian, Inc.  All Rights Reserved.
  
 This is part of the Gaussian(R) 16 program.  It is based on
 the Gaussian(R) 09 system (copyright 2009, Gaussian, Inc.),
 the Gaussian(R) 03 system (copyright 2003, Gaussian, Inc.),
 the Gaussian(R) 98 system (copyright 1998, Gaussian, Inc.),
 the Gaussian(R) 94 system (copyright 1995, Gaussian, Inc.),
 the Gaussian 92(TM) system (copyright 1992, Gaussian, Inc.),
 the Gaussian 90(TM) system (copyright 1990, Gaussian, Inc.),
 the Gaussian 88(TM) system (copyright 1988, Gaussian, Inc.),
 the Gaussian 86(TM) system (copyright 1986, Carnegie Mellon
 University), and the Gaussian 82(TM) system (copyright 1983,
 Carnegie Mellon University). Gaussian is a federally registered
 trademark of Gaussian, Inc.
  
 This software contains proprietary and confidential information,
 including trade secrets, belonging to Gaussian, Inc.
  
 This software is provided under written license and may be
 used, copied, transmitted, or stored only in accord with that
 written license.
  
 The following legend is applicable only to US Government
 contracts under FAR:
  
                    RESTRICTED RIGHTS LEGEND
  
 Use, reproduction and disclosure by the US Government is
 subject to restrictions as set forth in subparagraphs (a)
 and (c) of the Commercial Computer Software - Restricted
 Rights clause in FAR 52.227-19.
  
 Gaussian, Inc.
 340 Quinnipiac St., Bldg. 40, Wallingford CT 06492
  
  
 ---------------------------------------------------------------
 Warning -- This program may not be used in any manner that
 competes with the business of Gaussian, Inc. or will provide
 assistance to any competitor of Gaussian, Inc.  The licensee
 of this program is prohibited from giving any competitor of
 Gaussian, Inc. access to this program.  By using this program,
 the user acknowledges that Gaussian, Inc. is engaged in the
 business of creating and licensing software in the field of
 computational chemistry and represents and warrants to the
 licensee that it is not a competitor of Gaussian, Inc. and that
 it will not use this program in any manner prohibited above.
 ---------------------------------------------------------------
  

 Cite this work as:
 Gaussian 16, Revision A.03,
 M. J. Frisch, G. W. Trucks, H. B. Schlegel, G. E. Scuseria, 
 M. A. Robb, J. R. Cheeseman, G. Scalmani, V. Barone, 
 G. A. Petersson, H. Nakatsuji, X. Li, M. Caricato, A. V. Marenich, 
 J. Bloino, B. G. Janesko, R. Gomperts, B. Mennucci, H. P. Hratchian, 
 J. V. Ortiz, A. F. Izmaylov, J. L. Sonnenberg, D. Williams-Young, 
 F. Ding, F. Lipparini, F. Egidi, J. Goings, B. Peng, A. Petrone, 
 T. Henderson, D. Ranasinghe, V. G. Zakrzewski, J. Gao, N. Rega, 
 G. Zheng, W. Liang, M. Hada, M. Ehara, K. Toyota, R. Fukuda, 
 J. Hasegawa, M. Ishida, T. Nakajima, Y. Honda, O. Kitao, H. Nakai, 
 T. Vreven, K. Throssell, J. A. Montgomery, Jr., J. E. Peralta, 
 F. Ogliaro, M. J. Bearpark, J. J. Heyd, E. N. Brothers, K. N. Kudin, 
 V. N. Staroverov, T. A. Keith, R. Kobayashi, J. Normand, 
 K. Raghavachari, A. P. Rendell, J. C. Burant, S. S. Iyengar, 
 J. Tomasi, M. Cossi, J. M. Millam, M. Klene, C. Adamo, R. Cammi, 
 J. W. Ochterski, R. L. Martin, K. Morokuma, O. Farkas, 
 J. B. Foresman, and D. J. Fox, Gaussian, Inc., Wallingford CT, 2016.
 
 ******************************************
 Gaussian 16:  EM64M-G16RevA.03 25-Dec-2016
                 2-Apr-2026 
 ******************************************
 %nprocshared=4
 Will use up to    4 processors via shared memory.
 %mem=8GB
 %chk=1112Tetrafluoroethane_Opt_Freq_DFT_B3LYP_631pd_Gaussian16.chk
 ----------------------------------------------------------------------
 #p opt=tight freq=raman b3lyp/6-31+g(d) guess=save geom=connectivity p
 olar
 ----------------------------------------------------------------------
 1/7=10,18=20,19=15,26=3,38=1,57=2/1,3;
 2/9=110,12=2,17=6,18=5,40=1/2;
 3/5=1,6=6,7=11,11=2,25=1,30=1,71=1,74=-5/1,2,3;
 4//1;
 5/5=2,38=5,98=1/2;
 6/7=2,8=2,9=2,10=2,28=1/1;
 7//1,2,3,16;
 1/7=10,18=20,19=15,26=3/3(2);
 2/9=110/2;
 99//99;
 2/9=110/2;
 3/5=1,6=6,7=11,11=2,25=1,30=1,71=1,74=-5/1,2,3;
 4/5=5,16=3,69=1/1;
 5/5=2,38=5,98=1/2;
 7//1,2,3,16;
 1/7=10,18=20,19=15,26=3/3(-5);
 2/9=110/2;
 6/7=2,8=2,9=2,10=2,19=2,28=1/1;
 99/9=1/99;
 Leave Link    1 at Thu Apr  2 15:12:04 2026, MaxMem=  1073741824 cpu:               0.1 elap:               0.0
 (Enter /Users/yarger/Applications/g16/l101.exe)
 ---------------------------------
 r134a - 1,1,1,2-Tetrafluoroethane
 ---------------------------------
 Symbolic Z-matrix:
 Charge =  0 Multiplicity = 1
 C                    -1.50144   1.41061   1.45695 
 H                    -1.18245   2.43192   1.44839 
 C                    -0.30505   0.49643   1.13366 
 F                     0.66039   0.67411   2.06041 
 F                    -0.70751  -0.79214   1.14446 
 F                     0.18076   0.80592  -0.08728 
 F                    -1.98724   1.10112   2.6779 
 H                    -2.26664   1.26978   0.72242 
 
 ITRead=  0  0  0  0  0  0  0  0
 MicOpt= -1 -1 -1 -1 -1 -1 -1 -1
 NAtoms=      8 NQM=        8 NQMF=       0 NMMI=      0 NMMIF=      0
                NMic=       0 NMicF=      0.
                    Isotopes and Nuclear Properties:
 (Nuclear quadrupole moments (NQMom) in fm**2, nuclear magnetic moments (NMagM)
  in nuclear magnetons)

  Atom         1           2           3           4           5           6           7           8
 IAtWgt=          12           1          12          19          19          19          19           1
 AtmWgt=  12.0000000   1.0078250  12.0000000  18.9984033  18.9984033  18.9984033  18.9984033   1.0078250
 NucSpn=           0           1           0           1           1           1           1           1
 AtZEff=  -0.0000000  -0.0000000  -0.0000000  -0.0000000  -0.0000000  -0.0000000  -0.0000000  -0.0000000
 NQMom=    0.0000000   0.0000000   0.0000000   0.0000000   0.0000000   0.0000000   0.0000000   0.0000000
 NMagM=    0.0000000   2.7928460   0.0000000   2.6288670   2.6288670   2.6288670   2.6288670   2.7928460
 AtZNuc=   6.0000000   1.0000000   6.0000000   9.0000000   9.0000000   9.0000000   9.0000000   1.0000000
 Leave Link  101 at Thu Apr  2 15:12:04 2026, MaxMem=  1073741824 cpu:               0.7 elap:               0.2
 (Enter /Users/yarger/Applications/g16/l103.exe)

 GradGradGradGradGradGradGradGradGradGradGradGradGradGradGradGradGradGrad
 Berny optimization.
 Initialization pass.
                           ----------------------------
                           !    Initial Parameters    !
                           ! (Angstroms and Degrees)  !
 --------------------------                            --------------------------
 ! Name  Definition              Value          Derivative Info.                !
 --------------------------------------------------------------------------------
 ! R1    R(1,2)                  1.07           estimate D2E/DX2                !
 ! R2    R(1,3)                  1.54           estimate D2E/DX2                !
 ! R3    R(1,7)                  1.35           estimate D2E/DX2                !
 ! R4    R(1,8)                  1.07           estimate D2E/DX2                !
 ! R5    R(3,4)                  1.35           estimate D2E/DX2                !
 ! R6    R(3,5)                  1.35           estimate D2E/DX2                !
 ! R7    R(3,6)                  1.35           estimate D2E/DX2                !
 ! A1    A(2,1,3)              109.4712         estimate D2E/DX2                !
 ! A2    A(2,1,7)              109.4712         estimate D2E/DX2                !
 ! A3    A(2,1,8)              109.4712         estimate D2E/DX2                !
 ! A4    A(3,1,7)              109.4712         estimate D2E/DX2                !
 ! A5    A(3,1,8)              109.4712         estimate D2E/DX2                !
 ! A6    A(7,1,8)              109.4712         estimate D2E/DX2                !
 ! A7    A(1,3,4)              109.4712         estimate D2E/DX2                !
 ! A8    A(1,3,5)              109.4712         estimate D2E/DX2                !
 ! A9    A(1,3,6)              109.4712         estimate D2E/DX2                !
 ! A10   A(4,3,5)              109.4712         estimate D2E/DX2                !
 ! A11   A(4,3,6)              109.4712         estimate D2E/DX2                !
 ! A12   A(5,3,6)              109.4712         estimate D2E/DX2                !
 ! D1    D(2,1,3,4)             60.0            estimate D2E/DX2                !
 ! D2    D(2,1,3,5)            180.0            estimate D2E/DX2                !
 ! D3    D(2,1,3,6)            -60.0            estimate D2E/DX2                !
 ! D4    D(7,1,3,4)            -60.0            estimate D2E/DX2                !
 ! D5    D(7,1,3,5)             60.0            estimate D2E/DX2                !
 ! D6    D(7,1,3,6)            180.0            estimate D2E/DX2                !
 ! D7    D(8,1,3,4)           -180.0            estimate D2E/DX2                !
 ! D8    D(8,1,3,5)            -60.0            estimate D2E/DX2                !
 ! D9    D(8,1,3,6)             60.0            estimate D2E/DX2                !
 --------------------------------------------------------------------------------
 Trust Radius=3.00D-01 FncErr=1.00D-07 GrdErr=1.00D-06 EigMax=2.50D+02 EigMin=1.00D-04
 Number of steps in this run=     38 maximum allowed number of steps=    100.
 GradGradGradGradGradGradGradGradGradGradGradGradGradGradGradGradGradGrad

 Leave Link  103 at Thu Apr  2 15:12:04 2026, MaxMem=  1073741824 cpu:               0.0 elap:               0.0
 (Enter /Users/yarger/Applications/g16/l202.exe)
                          Input orientation:                          
 ---------------------------------------------------------------------
 Center     Atomic      Atomic             Coordinates (Angstroms)
 Number     Number       Type             X           Y           Z
 ---------------------------------------------------------------------
      1          6           0       -1.501439    1.410611    1.456949
      2          1           0       -1.182454    2.431922    1.448389
      3          6           0       -0.305047    0.496427    1.133662
      4          9           0        0.660391    0.674113    2.060407
      5          9           0       -0.707506   -0.792142    1.144463
      6          9           0        0.180758    0.805915   -0.087285
      7          9           0       -1.987244    1.101123    2.677896
      8          1           0       -2.266638    1.269779    0.722418
 ---------------------------------------------------------------------
                    Distance matrix (angstroms):
                    1          2          3          4          5
     1  C    0.000000
     2  H    1.070000   0.000000
     3  C    1.540000   2.148263   0.000000
     4  F    2.362224   2.619262   1.350000   0.000000
     5  F    2.362224   3.273001   1.350000   2.204541   0.000000
     6  F    2.362224   2.619262   1.350000   2.204541   2.204541
     7  F    1.350000   1.982524   2.362224   2.752017   2.752017
     8  H    1.070000   1.747303   2.148263   3.273001   2.619262
                    6          7          8
     6  F    0.000000
     7  F    3.526131   0.000000
     8  H    2.619262   1.982524   0.000000
 Stoichiometry    C2H2F4
 Framework group  CS[SG(C2F2),X(H2F2)]
 Deg. of freedom    11
 Full point group                 CS      NOp   2
 Largest Abelian subgroup         CS      NOp   2
 Largest concise Abelian subgroup CS      NOp   2
                         Standard orientation:                         
 ---------------------------------------------------------------------
 Center     Atomic      Atomic             Coordinates (Angstroms)
 Number     Number       Type             X           Y           Z
 ---------------------------------------------------------------------
      1          6           0        0.803253   -0.868125   -0.000000
      2          1           0        1.420351   -0.896813   -0.873651
      3          6           0       -0.026516    0.429212    0.000000
      4          9           0       -0.805098    0.465407   -1.102270
      5          9           0       -0.805098    0.465407    1.102270
      6          9           0        0.803253    1.494099   -0.000000
      7          9           0       -0.026516   -1.933012   -0.000000
      8          1           0        1.420351   -0.896813    0.873651
 ---------------------------------------------------------------------
 Rotational constants (GHZ):           5.2497613           2.7740143           2.7610135
 Leave Link  202 at Thu Apr  2 15:12:04 2026, MaxMem=  1073741824 cpu:               0.0 elap:               0.0
 (Enter /Users/yarger/Applications/g16/l301.exe)
 Standard basis: 6-31+G(d) (6D, 7F)
 Ernie: Thresh=  0.10000D-02 Tol=  0.10000D-05 Strict=F.
 There are    77 symmetry adapted cartesian basis functions of A'  symmetry.
 There are    41 symmetry adapted cartesian basis functions of A"  symmetry.
 There are    77 symmetry adapted basis functions of A'  symmetry.
 There are    41 symmetry adapted basis functions of A"  symmetry.
   118 basis functions,   200 primitive gaussians,   118 cartesian basis functions
    25 alpha electrons       25 beta electrons
       nuclear repulsion energy       271.2438406540 Hartrees.
 IExCor=  402 DFT=T Ex+Corr=B3LYP ExCW=0 ScaHFX=  0.200000
 ScaDFX=  0.800000  0.720000  1.000000  0.810000 ScalE2=  1.000000  1.000000
 IRadAn=      5 IRanWt=     -1 IRanGd=            0 ICorTp=0 IEmpDi=  4
 NAtoms=    8 NActive=    8 NUniq=    6 SFac= 1.78D+00 NAtFMM=   60 NAOKFM=F Big=F
 Integral buffers will be    131072 words long.
 Raffenetti 2 integral format.
 Two-electron integral symmetry is turned on.
 Leave Link  301 at Thu Apr  2 15:12:04 2026, MaxMem=  1073741824 cpu:               0.1 elap:               0.0
 (Enter /Users/yarger/Applications/g16/l302.exe)
 NPDir=0 NMtPBC=     1 NCelOv=     1 NCel=       1 NClECP=     1 NCelD=      1
         NCelK=      1 NCelE2=     1 NClLst=     1 CellRange=     0.0.
 One-electron integrals computed using PRISM.
 One-electron integral symmetry used in STVInt
 NBasis=   118 RedAO= T EigKep=  2.09D-04  NBF=    77    41
 NBsUse=   118 1.00D-06 EigRej= -1.00D+00 NBFU=    77    41
 Precomputing XC quadrature grid using
 IXCGrd= 4 IRadAn=           5 IRanWt=          -1 IRanGd=           0 AccXCQ= 0.00D+00.
 Generated NRdTot=       0 NPtTot=           0 NUsed=           0 NTot=          32
 NSgBfM=   118   118   118   118   118 MxSgAt=     8 MxSgA2=     8.
 Leave Link  302 at Thu Apr  2 15:12:04 2026, MaxMem=  1073741824 cpu:               0.4 elap:               0.1
 (Enter /Users/yarger/Applications/g16/l303.exe)
 DipDrv:  MaxL=1.
 Leave Link  303 at Thu Apr  2 15:12:04 2026, MaxMem=  1073741824 cpu:               0.1 elap:               0.0
 (Enter /Users/yarger/Applications/g16/l401.exe)
 ExpMin= 4.38D-02 ExpMax= 7.00D+03 ExpMxC= 1.05D+03 IAcc=3 IRadAn=         5 AccDes= 0.00D+00
 Harris functional with IExCor=  402 and IRadAn=       5 diagonalized for initial guess.
 HarFok:  IExCor=  402 AccDes= 0.00D+00 IRadAn=         5 IDoV= 1 UseB2=F ITyADJ=14
 ICtDFT=  3500011 ScaDFX=  1.000000  1.000000  1.000000  1.000000
 FoFCou: FMM=F IPFlag=           0 FMFlag=      100000 FMFlg1=           0
         NFxFlg=           0 DoJE=T BraDBF=F KetDBF=T FulRan=T
         wScrn=  0.000000 ICntrl=       500 IOpCl=  0 I1Cent=   200000004 NGrid=           0
         NMat0=    1 NMatS0=      1 NMatT0=    0 NMatD0=    1 NMtDS0=    0 NMtDT0=    0
 Petite list used in FoFCou.
 Harris En= -476.771684400134    
 JPrj=0 DoOrth=F DoCkMO=F.
 Initial guess orbital symmetries:
       Occupied  (A') (A') (A') (A") (A') (A') (A') (A') (A") (A')
                 (A') (A') (A") (A') (A') (A') (A") (A') (A") (A')
                 (A") (A') (A") (A") (A')
       Virtual   (A') (A') (A') (A") (A") (A') (A') (A') (A') (A")
                 (A') (A') (A') (A') (A") (A") (A') (A') (A') (A")
                 (A") (A') (A") (A') (A') (A') (A") (A') (A') (A")
                 (A') (A') (A') (A") (A") (A') (A') (A") (A') (A')
                 (A") (A') (A') (A") (A') (A") (A') (A') (A") (A")
                 (A') (A') (A') (A") (A') (A') (A") (A') (A") (A")
                 (A') (A") (A') (A") (A') (A') (A') (A") (A") (A')
                 (A") (A') (A') (A") (A') (A') (A") (A') (A") (A')
                 (A') (A") (A') (A') (A") (A') (A') (A') (A') (A')
                 (A") (A') (A')
 The electronic state of the initial guess is 1-A'.
 Leave Link  401 at Thu Apr  2 15:12:04 2026, MaxMem=  1073741824 cpu:               0.9 elap:               0.3
 (Enter /Users/yarger/Applications/g16/l502.exe)
 Keep R1 ints in memory in symmetry-blocked form, NReq=37119245.
 FoFCou: FMM=F IPFlag=           0 FMFlag=           0 FMFlg1=           0
         NFxFlg=           0 DoJE=F BraDBF=F KetDBF=F FulRan=T
         wScrn=  0.000000 ICntrl=       600 IOpCl=  0 I1Cent=           0 NGrid=           0
         NMat0=    1 NMatS0=   7021 NMatT0=    0 NMatD0=    1 NMtDS0=    0 NMtDT0=    0
 Petite list used in FoFCou.
 Closed shell SCF:
 Using DIIS extrapolation, IDIIS=  1040.
 NGot=  1073741824 LenX=  1061244307 LenY=  1061229942
 Requested convergence on RMS density matrix=1.00D-08 within 128 cycles.
 Requested convergence on MAX density matrix=1.00D-06.
 Requested convergence on             energy=1.00D-06.
 No special actions if energy rises.

 Cycle   1  Pass 1  IDiag  1:
 E= -476.734763596220    
 DIIS: error= 2.99D-02 at cycle   1 NSaved=   1.
 NSaved= 1 IEnMin= 1 EnMin= -476.734763596220     IErMin= 1 ErrMin= 2.99D-02
 ErrMax= 2.99D-02  0.00D+00 EMaxC= 1.00D-01 BMatC= 1.05D-01 BMatP= 1.05D-01
 IDIUse=3 WtCom= 7.01D-01 WtEn= 2.99D-01
 Coeff-Com:  0.100D+01
 Coeff-En:   0.100D+01
 Coeff:      0.100D+01
 Gap=     0.365 Goal=   None    Shift=    0.000
 GapD=    0.365 DampG=1.000 DampE=0.500 DampFc=0.5000 IDamp=-1.
 Damping current iteration by 5.00D-01
 RMSDP=4.32D-03 MaxDP=1.08D-01              OVMax= 1.09D-01

 Cycle   2  Pass 1  IDiag  1:
 E= -476.760106740682     Delta-E=       -0.025343144462 Rises=F Damp=T
 DIIS: error= 6.13D-03 at cycle   2 NSaved=   2.
 NSaved= 2 IEnMin= 2 EnMin= -476.760106740682     IErMin= 2 ErrMin= 6.13D-03
 ErrMax= 6.13D-03  0.00D+00 EMaxC= 1.00D-01 BMatC= 8.54D-03 BMatP= 1.05D-01
 IDIUse=3 WtCom= 9.39D-01 WtEn= 6.13D-02
 Coeff-Com:  0.156D+00 0.844D+00
 Coeff-En:   0.271D+00 0.729D+00
 Coeff:      0.163D+00 0.837D+00
 Gap=     0.385 Goal=   None    Shift=    0.000
 RMSDP=9.71D-04 MaxDP=2.10D-02 DE=-2.53D-02 OVMax= 7.53D-02

 Cycle   3  Pass 1  IDiag  1:
 E= -476.805472570417     Delta-E=       -0.045365829735 Rises=F Damp=F
 DIIS: error= 2.69D-03 at cycle   3 NSaved=   3.
 NSaved= 3 IEnMin= 3 EnMin= -476.805472570417     IErMin= 3 ErrMin= 2.69D-03
 ErrMax= 2.69D-03  0.00D+00 EMaxC= 1.00D-01 BMatC= 2.11D-03 BMatP= 8.54D-03
 IDIUse=3 WtCom= 9.73D-01 WtEn= 2.69D-02
 Coeff-Com:  0.384D-02 0.309D+00 0.687D+00
 Coeff-En:   0.000D+00 0.000D+00 0.100D+01
 Coeff:      0.374D-02 0.301D+00 0.695D+00
 Gap=     0.380 Goal=   None    Shift=    0.000
 RMSDP=3.82D-04 MaxDP=1.10D-02 DE=-4.54D-02 OVMax= 1.07D-02

 Cycle   4  Pass 1  IDiag  1:
 E= -476.806663074517     Delta-E=       -0.001190504100 Rises=F Damp=F
 DIIS: error= 1.36D-03 at cycle   4 NSaved=   4.
 NSaved= 4 IEnMin= 4 EnMin= -476.806663074517     IErMin= 4 ErrMin= 1.36D-03
 ErrMax= 1.36D-03  0.00D+00 EMaxC= 1.00D-01 BMatC= 4.15D-04 BMatP= 2.11D-03
 IDIUse=3 WtCom= 9.86D-01 WtEn= 1.36D-02
 Coeff-Com: -0.136D-01 0.758D-01 0.350D+00 0.588D+00
 Coeff-En:   0.000D+00 0.000D+00 0.142D+00 0.858D+00
 Coeff:     -0.134D-01 0.748D-01 0.347D+00 0.592D+00
 Gap=     0.380 Goal=   None    Shift=    0.000
 RMSDP=1.46D-04 MaxDP=4.51D-03 DE=-1.19D-03 OVMax= 4.31D-03

 Cycle   5  Pass 1  IDiag  1:
 E= -476.807004284776     Delta-E=       -0.000341210260 Rises=F Damp=F
 DIIS: error= 2.25D-04 at cycle   5 NSaved=   5.
 NSaved= 5 IEnMin= 5 EnMin= -476.807004284776     IErMin= 5 ErrMin= 2.25D-04
 ErrMax= 2.25D-04  0.00D+00 EMaxC= 1.00D-01 BMatC= 1.08D-05 BMatP= 4.15D-04
 IDIUse=3 WtCom= 9.98D-01 WtEn= 2.25D-03
 Coeff-Com: -0.578D-02 0.147D-01 0.992D-01 0.222D+00 0.669D+00
 Coeff-En:   0.000D+00 0.000D+00 0.000D+00 0.000D+00 0.100D+01
 Coeff:     -0.577D-02 0.147D-01 0.990D-01 0.222D+00 0.670D+00
 Gap=     0.379 Goal=   None    Shift=    0.000
 RMSDP=2.37D-05 MaxDP=7.12D-04 DE=-3.41D-04 OVMax= 7.19D-04

 Cycle   6  Pass 1  IDiag  1:
 E= -476.807009329827     Delta-E=       -0.000005045051 Rises=F Damp=F
 DIIS: error= 1.43D-04 at cycle   6 NSaved=   6.
 NSaved= 6 IEnMin= 6 EnMin= -476.807009329827     IErMin= 6 ErrMin= 1.43D-04
 ErrMax= 1.43D-04  0.00D+00 EMaxC= 1.00D-01 BMatC= 2.71D-06 BMatP= 1.08D-05
 IDIUse=3 WtCom= 9.99D-01 WtEn= 1.43D-03
 Coeff-Com: -0.255D-02 0.322D-02 0.326D-01 0.885D-01 0.396D+00 0.482D+00
 Coeff-En:   0.000D+00 0.000D+00 0.000D+00 0.000D+00 0.156D+00 0.844D+00
 Coeff:     -0.254D-02 0.321D-02 0.326D-01 0.884D-01 0.396D+00 0.482D+00
 Gap=     0.379 Goal=   None    Shift=    0.000
 RMSDP=9.75D-06 MaxDP=2.33D-04 DE=-5.05D-06 OVMax= 2.60D-04

 Cycle   7  Pass 1  IDiag  1:
 E= -476.807010999471     Delta-E=       -0.000001669643 Rises=F Damp=F
 DIIS: error= 1.10D-05 at cycle   7 NSaved=   7.
 NSaved= 7 IEnMin= 7 EnMin= -476.807010999471     IErMin= 7 ErrMin= 1.10D-05
 ErrMax= 1.10D-05  0.00D+00 EMaxC= 1.00D-01 BMatC= 2.04D-08 BMatP= 2.71D-06
 IDIUse=1 WtCom= 1.00D+00 WtEn= 0.00D+00
 Coeff-Com: -0.530D-03 0.361D-03 0.451D-02 0.146D-01 0.762D-01 0.135D+00
 Coeff-Com:  0.770D+00
 Coeff:     -0.530D-03 0.361D-03 0.451D-02 0.146D-01 0.762D-01 0.135D+00
 Coeff:      0.770D+00
 Gap=     0.379 Goal=   None    Shift=    0.000
 RMSDP=1.43D-06 MaxDP=2.37D-05 DE=-1.67D-06 OVMax= 3.18D-05

 Cycle   8  Pass 1  IDiag  1:
 E= -476.807011012257     Delta-E=       -0.000000012787 Rises=F Damp=F
 DIIS: error= 5.26D-06 at cycle   8 NSaved=   8.
 NSaved= 8 IEnMin= 8 EnMin= -476.807011012257     IErMin= 8 ErrMin= 5.26D-06
 ErrMax= 5.26D-06  0.00D+00 EMaxC= 1.00D-01 BMatC= 4.38D-09 BMatP= 2.04D-08
 IDIUse=1 WtCom= 1.00D+00 WtEn= 0.00D+00
 Coeff-Com: -0.150D-03 0.549D-04 0.673D-03 0.298D-02 0.181D-01 0.430D-01
 Coeff-Com:  0.394D+00 0.541D+00
 Coeff:     -0.150D-03 0.549D-04 0.673D-03 0.298D-02 0.181D-01 0.430D-01
 Coeff:      0.394D+00 0.541D+00
 Gap=     0.379 Goal=   None    Shift=    0.000
 RMSDP=4.16D-07 MaxDP=1.10D-05 DE=-1.28D-08 OVMax= 1.20D-05

 Cycle   9  Pass 1  IDiag  1:
 E= -476.807011014728     Delta-E=       -0.000000002471 Rises=F Damp=F
 DIIS: error= 1.50D-06 at cycle   9 NSaved=   9.
 NSaved= 9 IEnMin= 9 EnMin= -476.807011014728     IErMin= 9 ErrMin= 1.50D-06
 ErrMax= 1.50D-06  0.00D+00 EMaxC= 1.00D-01 BMatC= 4.39D-10 BMatP= 4.38D-09
 IDIUse=1 WtCom= 1.00D+00 WtEn= 0.00D+00
 Coeff-Com: -0.434D-05-0.122D-04-0.282D-03-0.492D-03-0.160D-02 0.190D-02
 Coeff-Com:  0.863D-01 0.269D+00 0.645D+00
 Coeff:     -0.434D-05-0.122D-04-0.282D-03-0.492D-03-0.160D-02 0.190D-02
 Coeff:      0.863D-01 0.269D+00 0.645D+00
 Gap=     0.379 Goal=   None    Shift=    0.000
 RMSDP=1.30D-07 MaxDP=2.10D-06 DE=-2.47D-09 OVMax= 2.87D-06

 Cycle  10  Pass 1  IDiag  1:
 E= -476.807011014983     Delta-E=       -0.000000000255 Rises=F Damp=F
 DIIS: error= 2.03D-07 at cycle  10 NSaved=  10.
 NSaved=10 IEnMin=10 EnMin= -476.807011014983     IErMin=10 ErrMin= 2.03D-07
 ErrMax= 2.03D-07  0.00D+00 EMaxC= 1.00D-01 BMatC= 1.12D-11 BMatP= 4.39D-10
 IDIUse=1 WtCom= 1.00D+00 WtEn= 0.00D+00
 Coeff-Com:  0.393D-05-0.117D-04-0.159D-03-0.333D-03-0.145D-02-0.113D-02
 Coeff-Com:  0.191D-01 0.829D-01 0.253D+00 0.648D+00
 Coeff:      0.393D-05-0.117D-04-0.159D-03-0.333D-03-0.145D-02-0.113D-02
 Coeff:      0.191D-01 0.829D-01 0.253D+00 0.648D+00
 Gap=     0.379 Goal=   None    Shift=    0.000
 RMSDP=2.83D-08 MaxDP=6.23D-07 DE=-2.55D-10 OVMax= 6.37D-07

 Cycle  11  Pass 1  IDiag  1:
 E= -476.807011014996     Delta-E=       -0.000000000013 Rises=F Damp=F
 DIIS: error= 3.71D-08 at cycle  11 NSaved=  11.
 NSaved=11 IEnMin=11 EnMin= -476.807011014996     IErMin=11 ErrMin= 3.71D-08
 ErrMax= 3.71D-08  0.00D+00 EMaxC= 1.00D-01 BMatC= 2.94D-13 BMatP= 1.12D-11
 IDIUse=1 WtCom= 1.00D+00 WtEn= 0.00D+00
 Coeff-Com:  0.115D-05-0.164D-05-0.241D-04-0.525D-04-0.281D-03-0.383D-03
 Coeff-Com:  0.859D-03 0.818D-02 0.364D-01 0.193D+00 0.762D+00
 Coeff:      0.115D-05-0.164D-05-0.241D-04-0.525D-04-0.281D-03-0.383D-03
 Coeff:      0.859D-03 0.818D-02 0.364D-01 0.193D+00 0.762D+00
 Gap=     0.379 Goal=   None    Shift=    0.000
 RMSDP=5.21D-09 MaxDP=7.50D-08 DE=-1.32D-11 OVMax= 9.37D-08

 SCF Done:  E(RB3LYP) =  -476.807011015     A.U. after   11 cycles
            NFock= 11  Conv=0.52D-08     -V/T= 2.0076
 KE= 4.732059861870D+02 PE=-1.672567105389D+03 EE= 4.513102675329D+02
 Leave Link  502 at Thu Apr  2 15:12:07 2026, MaxMem=  1073741824 cpu:               9.0 elap:               2.4
 (Enter /Users/yarger/Applications/g16/l601.exe)
 Copying SCF densities to generalized density rwf, IOpCl= 0 IROHF=0.

 **********************************************************************

            Population analysis using the SCF density.

 **********************************************************************

 Orbital symmetries:
       Occupied  (A') (A') (A") (A') (A') (A') (A') (A') (A") (A')
                 (A') (A') (A') (A") (A') (A') (A") (A') (A") (A')
                 (A') (A") (A") (A") (A')
       Virtual   (A') (A') (A') (A") (A") (A') (A') (A') (A') (A")
                 (A') (A') (A') (A") (A') (A") (A') (A') (A') (A")
                 (A") (A') (A") (A') (A') (A") (A') (A') (A') (A")
                 (A') (A') (A') (A") (A') (A') (A") (A") (A') (A')
                 (A") (A') (A') (A") (A') (A") (A') (A") (A') (A")
                 (A') (A') (A') (A") (A') (A") (A') (A') (A") (A')
                 (A") (A") (A') (A") (A') (A') (A') (A") (A") (A")
                 (A') (A') (A') (A") (A') (A') (A") (A') (A") (A')
                 (A') (A") (A') (A') (A") (A') (A') (A') (A') (A')
                 (A") (A') (A')
 The electronic state is 1-A'.
 Alpha  occ. eigenvalues --  -24.77260 -24.76595 -24.76594 -24.73591 -10.46618
 Alpha  occ. eigenvalues --  -10.30550  -1.33811  -1.25827  -1.25262  -1.24738
 Alpha  occ. eigenvalues --   -0.80188  -0.69870  -0.62185  -0.62068  -0.59715
 Alpha  occ. eigenvalues --   -0.54037  -0.53761  -0.49172  -0.49172  -0.46758
 Alpha  occ. eigenvalues --   -0.45542  -0.45481  -0.43783  -0.38821  -0.37742
 Alpha virt. eigenvalues --    0.00205   0.01568   0.03491   0.03867   0.06507
 Alpha virt. eigenvalues --    0.07467   0.08058   0.10591   0.13132   0.13375
 Alpha virt. eigenvalues --    0.17106   0.18473   0.20347   0.21350   0.21564
 Alpha virt. eigenvalues --    0.23125   0.25694   0.26988   0.27593   0.28283
 Alpha virt. eigenvalues --    0.29682   0.31084   0.31911   0.33196   0.34371
 Alpha virt. eigenvalues --    0.34967   0.35281   0.36636   0.41824   0.42241
 Alpha virt. eigenvalues --    0.44277   0.58839   0.69488   0.70758   0.75301
 Alpha virt. eigenvalues --    0.77353   0.78263   0.91149   1.01609   1.16110
 Alpha virt. eigenvalues --    1.18747   1.20911   1.35150   1.51025   1.51371
 Alpha virt. eigenvalues --    1.52942   1.53240   1.56444   1.56667   1.57641
 Alpha virt. eigenvalues --    1.58949   1.62965   1.63720   1.63806   1.65456
 Alpha virt. eigenvalues --    1.66401   1.67090   1.72371   1.77722   1.79652
 Alpha virt. eigenvalues --    1.79905   1.80429   1.81573   1.86622   1.90867
 Alpha virt. eigenvalues --    1.92056   1.96637   1.97395   2.00009   2.04076
 Alpha virt. eigenvalues --    2.05813   2.09862   2.14305   2.17196   2.21271
 Alpha virt. eigenvalues --    2.31645   2.36107   2.40666   2.49528   2.52198
 Alpha virt. eigenvalues --    2.73977   2.76945   2.82382   3.07496   3.09475
 Alpha virt. eigenvalues --    3.18997   3.29163   4.28616   4.58796   5.35918
 Alpha virt. eigenvalues --    5.40064   5.59932   6.16494
          Condensed to atoms (all electrons):
               1          2          3          4          5          6
     1  C    5.123856   0.395221   0.365689  -0.084672  -0.084672  -0.082554
     2  H    0.395221   0.518864  -0.044815  -0.008278   0.008624   0.001420
     3  C    0.365689  -0.044815   4.305342   0.201646   0.201646   0.169155
     4  F   -0.084672  -0.008278   0.201646   9.260116  -0.049274  -0.037223
     5  F   -0.084672   0.008624   0.201646  -0.049274   9.260116  -0.037223
     6  F   -0.082554   0.001420   0.169155  -0.037223  -0.037223   9.272383
     7  F    0.134277  -0.045332  -0.061540   0.007026   0.007026   0.006691
     8  H    0.395221  -0.042910  -0.044815   0.008624  -0.008278   0.001420
               7          8
     1  C    0.134277   0.395221
     2  H   -0.045332  -0.042910
     3  C   -0.061540  -0.044815
     4  F    0.007026   0.008624
     5  F    0.007026  -0.008278
     6  F    0.006691   0.001420
     7  F    9.286926  -0.045332
     8  H   -0.045332   0.518864
 Mulliken charges:
               1
     1  C   -0.162366
     2  H    0.217207
     3  C    0.907694
     4  F   -0.297965
     5  F   -0.297965
     6  F   -0.294069
     7  F   -0.289742
     8  H    0.217207
 Sum of Mulliken charges =  -0.00000
 Mulliken charges with hydrogens summed into heavy atoms:
               1
     1  C    0.272047
     3  C    0.907694
     4  F   -0.297965
     5  F   -0.297965
     6  F   -0.294069
     7  F   -0.289742
 Electronic spatial extent (au):  <R**2>=            479.4154
 Charge=              0.0000 electrons
 Dipole moment (field-independent basis, Debye):
    X=              2.0845    Y=             -0.2686    Z=              0.0000  Tot=              2.1017
 Quadrupole moment (field-independent basis, Debye-Ang):
   XX=            -30.8586   YY=            -35.7751   ZZ=            -32.3518
   XY=             -2.2041   XZ=              0.0000   YZ=             -0.0000
 Traceless Quadrupole moment (field-independent basis, Debye-Ang):
   XX=              2.1366   YY=             -2.7800   ZZ=              0.6434
   XY=             -2.2041   XZ=              0.0000   YZ=             -0.0000
 Octapole moment (field-independent basis, Debye-Ang**2):
  XXX=             -2.7114  YYY=              8.2415  ZZZ=              0.0000  XYY=             -1.4587
  XXY=             -2.0230  XXZ=              0.0000  XZZ=              1.0712  YZZ=             -0.6714
  YYZ=             -0.0000  XYZ=              0.0000
 Hexadecapole moment (field-independent basis, Debye-Ang**3):
 XXXX=           -116.5687 YYYY=           -268.8488 ZZZZ=           -102.9204 XXXY=              6.3003
 XXXZ=              0.0000 YYYX=              5.7786 YYYZ=             -0.0000 ZZZX=             -0.0000
 ZZZY=             -0.0000 XXYY=            -60.3347 XXZZ=            -35.2794 YYZZ=            -59.0168
 XXYZ=              0.0000 YYXZ=              0.0000 ZZXY=              2.0579
 N-N= 2.712438406540D+02 E-N=-1.672567097592D+03  KE= 4.732059861870D+02
 Symmetry A'   KE= 3.570791556173D+02
 Symmetry A"   KE= 1.161268305697D+02
 No NMR shielding tensors so no spin-rotation constants.
 Leave Link  601 at Thu Apr  2 15:12:07 2026, MaxMem=  1073741824 cpu:               0.3 elap:               0.1
 (Enter /Users/yarger/Applications/g16/l701.exe)
 ... and contract with generalized density number  0.
 Compute integral first derivatives.
 Leave Link  701 at Thu Apr  2 15:12:07 2026, MaxMem=  1073741824 cpu:               0.3 elap:               0.1
 (Enter /Users/yarger/Applications/g16/l702.exe)
 L702 exits ... SP integral derivatives will be done elsewhere.
 Leave Link  702 at Thu Apr  2 15:12:07 2026, MaxMem=  1073741824 cpu:               0.1 elap:               0.0
 (Enter /Users/yarger/Applications/g16/l703.exe)
 Integral derivatives from FoFJK, PRISM(SPDF).
 Compute integral first derivatives, UseDBF=F ICtDFT=           0.
 Calling FoFJK, ICntrl=      2127 FMM=F ISym2X=1 I1Cent= 0 IOpClX= 0 NMat=1 NMatS=1 NMatT=0.
 FoFJK:  IHMeth= 1 ICntrl=    2127 DoSepK=F KAlg= 0 I1Cent=           0 FoldK=F
 IRaf=         0 NMat=       1 IRICut=       1 DoRegI=T DoRafI=F ISym2E= 1 IDoP0=0 IntGTp=1.
 FoFCou: FMM=F IPFlag=           0 FMFlag=      100000 FMFlg1=         800
         NFxFlg=           0 DoJE=F BraDBF=F KetDBF=F FulRan=T
         wScrn=  0.000000 ICntrl=      2127 IOpCl=  0 I1Cent=           0 NGrid=           0
         NMat0=    1 NMatS0=      1 NMatT0=    0 NMatD0=    1 NMtDS0=    0 NMtDT0=    0
 Petite list used in FoFCou.
 Leave Link  703 at Thu Apr  2 15:12:08 2026, MaxMem=  1073741824 cpu:               2.4 elap:               0.6
 (Enter /Users/yarger/Applications/g16/l716.exe)
 Dipole        = 8.20101158D-01-1.05684151D-01 1.99840144D-15
 ***** Axes restored to original set *****
 -------------------------------------------------------------------
 Center     Atomic                   Forces (Hartrees/Bohr)
 Number     Number              X              Y              Z
 -------------------------------------------------------------------
      1        6           0.017849400   -0.007603303   -0.014485325
      2        1           0.007237329    0.016310142    0.000181409
      3        6          -0.020276040    0.012559307    0.010175700
      4        9           0.003841034   -0.006368848   -0.005470779
      5        9           0.008960879   -0.000880859   -0.002042528
      6        9           0.003514457   -0.003677944    0.000639112
      7        9          -0.009235839   -0.006144650    0.023629490
      8        1          -0.011891220   -0.004193846   -0.012627079
 -------------------------------------------------------------------
 Cartesian Forces:  Max     0.023629490 RMS     0.010750364
 Leave Link  716 at Thu Apr  2 15:12:08 2026, MaxMem=  1073741824 cpu:               0.0 elap:               0.0
 (Enter /Users/yarger/Applications/g16/l103.exe)

 GradGradGradGradGradGradGradGradGradGradGradGradGradGradGradGradGradGrad
 Berny optimization.
 FormGI is forming the generalized inverse of G from B-inverse, IUseBI=4.
 Internal  Forces:  Max     0.026102846 RMS     0.008449571
 Search for a local minimum.
 Step number   1 out of a maximum of   38
 All quantities printed in internal units (Hartrees-Bohrs-Radians)
 RMS Force = .84496D-02 SwitMx=.10000D-02 MixMth= 1
 Mixed Optimization -- RFO/linear search
 Second derivative matrix not updated -- first step.
 ITU=  0
     Eigenvalues ---    0.00237   0.05720   0.05976   0.08850   0.08850
     Eigenvalues ---    0.16000   0.16000   0.22461   0.25000   0.25000
     Eigenvalues ---    0.25000   0.28519   0.37230   0.37230   0.55021
     Eigenvalues ---    0.55021   0.55021   0.55021
 RFO step:  Lambda=-5.62848353D-03 EMin= 2.36824250D-03
 Linear search not attempted -- first point.
 Iteration  1 RMS(Cart)=  0.03145686 RMS(Int)=  0.00098336
 Iteration  2 RMS(Cart)=  0.00092948 RMS(Int)=  0.00046373
 Iteration  3 RMS(Cart)=  0.00000049 RMS(Int)=  0.00046373
 ITry= 1 IFail=0 DXMaxC= 7.74D-02 DCOld= 1.00D+10 DXMaxT= 3.00D-01 DXLimC= 3.00D+00 Rises=F
 ClnCor:  largest displacement from symmetrization is 5.29D-09 for atom     5.
 Variable       Old X    -DE/DX   Delta X   Delta X   Delta X     New X
                                 (Linear)    (Quad)   (Total)
    R1        2.02201   0.01772   0.00000   0.04690   0.04690   2.06890
    R2        2.91018  -0.00474   0.00000  -0.01629  -0.01629   2.89389
    R3        2.55113   0.02610   0.00000   0.04696   0.04696   2.59809
    R4        2.02201   0.01772   0.00000   0.04690   0.04690   2.06890
    R5        2.55113  -0.00185   0.00000  -0.00332  -0.00332   2.54781
    R6        2.55113  -0.00185   0.00000  -0.00332  -0.00332   2.54781
    R7        2.55113  -0.00016   0.00000  -0.00028  -0.00028   2.55085
    A1        1.91063  -0.00224   0.00000  -0.01318  -0.01323   1.89741
    A2        1.91063   0.00089   0.00000   0.00492   0.00491   1.91554
    A3        1.91063   0.00239   0.00000   0.01560   0.01552   1.92615
    A4        1.91063   0.00032   0.00000   0.00093   0.00092   1.91156
    A5        1.91063  -0.00224   0.00000  -0.01318  -0.01323   1.89741
    A6        1.91063   0.00089   0.00000   0.00492   0.00491   1.91554
    A7        1.91063   0.01277   0.00000   0.05150   0.05043   1.96107
    A8        1.91063   0.01277   0.00000   0.05150   0.05043   1.96107
    A9        1.91063   0.00408   0.00000   0.01286   0.01259   1.92322
   A10        1.91063  -0.01162   0.00000  -0.03929  -0.04095   1.86968
   A11        1.91063  -0.00900   0.00000  -0.03828  -0.03854   1.87210
   A12        1.91063  -0.00900   0.00000  -0.03828  -0.03854   1.87210
    D1        1.04720  -0.00079   0.00000  -0.00896  -0.00933   1.03786
    D2        3.14159   0.00062   0.00000   0.00600   0.00634  -3.13525
    D3       -1.04720  -0.00009   0.00000  -0.00148  -0.00150  -1.04870
    D4       -1.04720  -0.00070   0.00000  -0.00748  -0.00784  -1.05503
    D5        1.04720   0.00070   0.00000   0.00748   0.00784   1.05503
    D6        3.14159   0.00000   0.00000   0.00000   0.00000   3.14159
    D7       -3.14159  -0.00062   0.00000  -0.00600  -0.00634   3.13525
    D8       -1.04720   0.00079   0.00000   0.00896   0.00933  -1.03786
    D9        1.04720   0.00009   0.00000   0.00148   0.00150   1.04870
         Item               Value     Threshold  Converged?
 Maximum Force            0.026103     0.000015     NO 
 RMS     Force            0.008450     0.000010     NO 
 Maximum Displacement     0.077364     0.000060     NO 
 RMS     Displacement     0.031387     0.000040     NO 
 Predicted change in Energy=-2.867946D-03
 Lowest energy point so far.  Saving SCF results.
 GradGradGradGradGradGradGradGradGradGradGradGradGradGradGradGradGradGrad

 Leave Link  103 at Thu Apr  2 15:12:08 2026, MaxMem=  1073741824 cpu:               0.0 elap:               0.0
 (Enter /Users/yarger/Applications/g16/l202.exe)
                          Input orientation:                          
 ---------------------------------------------------------------------
 Center     Atomic      Atomic             Coordinates (Angstroms)
 Number     Number       Type             X           Y           Z
 ---------------------------------------------------------------------
      1          6           0       -1.511886    1.418433    1.460031
      2          1           0       -1.169212    2.458160    1.447121
      3          6           0       -0.323151    0.505403    1.146330
      4          9           0        0.679484    0.644514    2.036906
      5          9           0       -0.666566   -0.798324    1.135590
      6          9           0        0.179749    0.797231   -0.071876
      7          9           0       -2.012999    1.109758    2.702536
      8          1           0       -2.284596    1.262574    0.700259
 ---------------------------------------------------------------------
                    Distance matrix (angstroms):
                    1          2          3          4          5
     1  C    0.000000
     2  H    1.094817   0.000000
     3  C    1.531379   2.149315   0.000000
     4  F    2.394544   2.656095   1.348242   0.000000
     5  F    2.394544   3.309743   1.348242   2.169333   0.000000
     6  F    2.365219   2.624068   1.349851   2.172561   2.172561
     7  F    1.374851   2.026384   2.375417   2.812291   2.812291
     8  H    1.094817   1.797584   2.149315   3.309743   2.656095
                    6          7          8
     6  F    0.000000
     7  F    3.550096   0.000000
     8  H    2.624068   2.026384   0.000000
 Stoichiometry    C2H2F4
 Framework group  CS[SG(C2F2),X(H2F2)]
 Deg. of freedom    11
 Full point group                 CS      NOp   2
 RotChk:  IX=2 Diff= 1.38D+00
 Largest Abelian subgroup         CS      NOp   2
 Largest concise Abelian subgroup CS      NOp   2
                         Standard orientation:                         
 ---------------------------------------------------------------------
 Center     Atomic      Atomic             Coordinates (Angstroms)
 Number     Number       Type             X           Y           Z
 ---------------------------------------------------------------------
      1          6           0        1.176966    0.235355   -0.000000
      2          1           0        1.515202    0.761087   -0.898792
      3          6           0       -0.353936    0.197127    0.000000
      4          9           0       -0.851349   -0.430435   -1.084666
      5          9           0       -0.851349   -0.430435    1.084666
      6          9           0       -0.851349    1.451989    0.000000
      7          9           0        1.668649   -1.048570   -0.000000
      8          1           0        1.515202    0.761087    0.898792
 ---------------------------------------------------------------------
 Rotational constants (GHZ):           5.3065506           2.7394257           2.7017346
 Leave Link  202 at Thu Apr  2 15:12:08 2026, MaxMem=  1073741824 cpu:               0.0 elap:               0.0
 (Enter /Users/yarger/Applications/g16/l301.exe)
 Standard basis: 6-31+G(d) (6D, 7F)
 Ernie: Thresh=  0.10000D-02 Tol=  0.10000D-05 Strict=F.
 There are    77 symmetry adapted cartesian basis functions of A'  symmetry.
 There are    41 symmetry adapted cartesian basis functions of A"  symmetry.
 There are    77 symmetry adapted basis functions of A'  symmetry.
 There are    41 symmetry adapted basis functions of A"  symmetry.
   118 basis functions,   200 primitive gaussians,   118 cartesian basis functions
    25 alpha electrons       25 beta electrons
       nuclear repulsion energy       270.3798183440 Hartrees.
 IExCor=  402 DFT=T Ex+Corr=B3LYP ExCW=0 ScaHFX=  0.200000
 ScaDFX=  0.800000  0.720000  1.000000  0.810000 ScalE2=  1.000000  1.000000
 IRadAn=      5 IRanWt=     -1 IRanGd=            0 ICorTp=0 IEmpDi=  4
 NAtoms=    8 NActive=    8 NUniq=    6 SFac= 1.78D+00 NAtFMM=   60 NAOKFM=F Big=F
 Integral buffers will be    131072 words long.
 Raffenetti 2 integral format.
 Two-electron integral symmetry is turned on.
 Leave Link  301 at Thu Apr  2 15:12:08 2026, MaxMem=  1073741824 cpu:               0.1 elap:               0.0
 (Enter /Users/yarger/Applications/g16/l302.exe)
 NPDir=0 NMtPBC=     1 NCelOv=     1 NCel=       1 NClECP=     1 NCelD=      1
         NCelK=      1 NCelE2=     1 NClLst=     1 CellRange=     0.0.
 One-electron integrals computed using PRISM.
 One-electron integral symmetry used in STVInt
 NBasis=   118 RedAO= T EigKep=  2.03D-04  NBF=    77    41
 NBsUse=   118 1.00D-06 EigRej= -1.00D+00 NBFU=    77    41
 Precomputing XC quadrature grid using
 IXCGrd= 4 IRadAn=           5 IRanWt=          -1 IRanGd=           0 AccXCQ= 0.00D+00.
 Generated NRdTot=       0 NPtTot=           0 NUsed=           0 NTot=          32
 NSgBfM=   118   118   118   118   118 MxSgAt=     8 MxSgA2=     8.
 Leave Link  302 at Thu Apr  2 15:12:08 2026, MaxMem=  1073741824 cpu:               0.4 elap:               0.1
 (Enter /Users/yarger/Applications/g16/l303.exe)
 DipDrv:  MaxL=1.
 Leave Link  303 at Thu Apr  2 15:12:08 2026, MaxMem=  1073741824 cpu:               0.1 elap:               0.0
 (Enter /Users/yarger/Applications/g16/l401.exe)
 Initial guess from the checkpoint file:  "1112Tetrafluoroethane_Opt_Freq_DFT_B3LYP_631pd_Gaussian16.chk"
 B after Tr=     0.000000    0.000000   -0.000000
         Rot=    0.873249   -0.000000   -0.000000   -0.487274 Ang= -58.32 deg.
 Guess basis will be translated and rotated to current coordinates.
 JPrj=2 DoOrth=T DoCkMO=T.
 Initial guess orbital symmetries:
       Occupied  (A') (A') (A") (A') (A') (A') (A') (A') (A") (A')
                 (A') (A') (A') (A") (A') (A') (A") (A') (A") (A')
                 (A') (A") (A") (A") (A')
       Virtual   (A') (A') (A') (A") (A") (A') (A') (A') (A') (A")
                 (A') (A') (A') (A") (A') (A") (A') (A') (A') (A")
                 (A") (A') (A") (A') (A') (A") (A') (A') (A') (A")
                 (A') (A') (A') (A") (A') (A') (A") (A") (A') (A')
                 (A") (A') (A') (A") (A') (A") (A') (A") (A') (A")
                 (A') (A') (A') (A") (A') (A") (A') (A') (A") (A')
                 (A") (A") (A') (A") (A') (A') (A') (A") (A") (A")
                 (A') (A') (A') (A") (A') (A') (A") (A') (A") (A')
                 (A') (A") (A') (A') (A") (A') (A') (A') (A') (A')
                 (A") (A') (A')
 The electronic state of the initial guess is 1-A'.
 Generating alternative initial guess.
 ExpMin= 4.38D-02 ExpMax= 7.00D+03 ExpMxC= 1.05D+03 IAcc=2 IRadAn=         4 AccDes= 0.00D+00
 Harris functional with IExCor=  402 and IRadAn=       4 diagonalized for initial guess.
 HarFok:  IExCor=  402 AccDes= 0.00D+00 IRadAn=         4 IDoV= 1 UseB2=F ITyADJ=14
 ICtDFT=  3500011 ScaDFX=  1.000000  1.000000  1.000000  1.000000
 FoFCou: FMM=F IPFlag=           0 FMFlag=      100000 FMFlg1=           0
         NFxFlg=           0 DoJE=T BraDBF=F KetDBF=T FulRan=T
         wScrn=  0.000000 ICntrl=       500 IOpCl=  0 I1Cent=   200000004 NGrid=           0
         NMat0=    1 NMatS0=      1 NMatT0=    0 NMatD0=    1 NMtDS0=    0 NMtDT0=    0
 Petite list used in FoFCou.
 Harris En= -476.774845842805    
 Leave Link  401 at Thu Apr  2 15:12:08 2026, MaxMem=  1073741824 cpu:               0.7 elap:               0.2
 (Enter /Users/yarger/Applications/g16/l502.exe)
 Keep R1 ints in memory in symmetry-blocked form, NReq=37119245.
 FoFCou: FMM=F IPFlag=           0 FMFlag=           0 FMFlg1=           0
         NFxFlg=           0 DoJE=F BraDBF=F KetDBF=F FulRan=T
         wScrn=  0.000000 ICntrl=       600 IOpCl=  0 I1Cent=           0 NGrid=           0
         NMat0=    1 NMatS0=   7021 NMatT0=    0 NMatD0=    1 NMtDS0=    0 NMtDT0=    0
 Petite list used in FoFCou.
 Closed shell SCF:
 Using DIIS extrapolation, IDIIS=  1040.
 NGot=  1073741824 LenX=  1061244307 LenY=  1061229942
 Requested convergence on RMS density matrix=1.00D-08 within 128 cycles.
 Requested convergence on MAX density matrix=1.00D-06.
 Requested convergence on             energy=1.00D-06.
 No special actions if energy rises.

 Cycle   1  Pass 1  IDiag  1:
 E= -476.807045569340    
 DIIS: error= 2.58D-03 at cycle   1 NSaved=   1.
 NSaved= 1 IEnMin= 1 EnMin= -476.807045569340     IErMin= 1 ErrMin= 2.58D-03
 ErrMax= 2.58D-03  0.00D+00 EMaxC= 1.00D-01 BMatC= 1.59D-03 BMatP= 1.59D-03
 IDIUse=3 WtCom= 9.74D-01 WtEn= 2.58D-02
 Coeff-Com:  0.100D+01
 Coeff-En:   0.100D+01
 Coeff:      0.100D+01
 Gap=     0.386 Goal=   None    Shift=    0.000
 GapD=    0.386 DampG=1.000 DampE=1.000 DampFc=1.0000 IDamp=-1.
 RMSDP=5.83D-04 MaxDP=8.94D-03              OVMax= 1.44D-02

 Cycle   2  Pass 1  IDiag  1:
 E= -476.809294422875     Delta-E=       -0.002248853535 Rises=F Damp=F
 DIIS: error= 6.09D-04 at cycle   2 NSaved=   2.
 NSaved= 2 IEnMin= 2 EnMin= -476.809294422875     IErMin= 2 ErrMin= 6.09D-04
 ErrMax= 6.09D-04  0.00D+00 EMaxC= 1.00D-01 BMatC= 1.26D-04 BMatP= 1.59D-03
 IDIUse=3 WtCom= 9.94D-01 WtEn= 6.09D-03
 Coeff-Com:  0.816D-01 0.918D+00
 Coeff-En:   0.000D+00 0.100D+01
 Coeff:      0.811D-01 0.919D+00
 Gap=     0.384 Goal=   None    Shift=    0.000
 RMSDP=1.51D-04 MaxDP=4.07D-03 DE=-2.25D-03 OVMax= 4.06D-03

 Cycle   3  Pass 1  IDiag  1:
 E= -476.809309460994     Delta-E=       -0.000015038119 Rises=F Damp=F
 DIIS: error= 7.91D-04 at cycle   3 NSaved=   3.
 NSaved= 3 IEnMin= 3 EnMin= -476.809309460994     IErMin= 2 ErrMin= 6.09D-04
 ErrMax= 7.91D-04  0.00D+00 EMaxC= 1.00D-01 BMatC= 1.31D-04 BMatP= 1.26D-04
 IDIUse=3 WtCom= 9.92D-01 WtEn= 7.91D-03
 Coeff-Com: -0.303D-01 0.511D+00 0.519D+00
 Coeff-En:   0.000D+00 0.463D+00 0.537D+00
 Coeff:     -0.301D-01 0.511D+00 0.519D+00
 Gap=     0.384 Goal=   None    Shift=    0.000
 RMSDP=6.89D-05 MaxDP=2.05D-03 DE=-1.50D-05 OVMax= 1.88D-03

 Cycle   4  Pass 1  IDiag  1:
 E= -476.809405558768     Delta-E=       -0.000096097774 Rises=F Damp=F
 DIIS: error= 1.11D-04 at cycle   4 NSaved=   4.
 NSaved= 4 IEnMin= 4 EnMin= -476.809405558768     IErMin= 4 ErrMin= 1.11D-04
 ErrMax= 1.11D-04  0.00D+00 EMaxC= 1.00D-01 BMatC= 2.90D-06 BMatP= 1.26D-04
 IDIUse=3 WtCom= 9.99D-01 WtEn= 1.11D-03
 Coeff-Com: -0.153D-01 0.190D+00 0.228D+00 0.597D+00
 Coeff-En:   0.000D+00 0.000D+00 0.000D+00 0.100D+01
 Coeff:     -0.152D-01 0.189D+00 0.228D+00 0.598D+00
 Gap=     0.384 Goal=   None    Shift=    0.000
 RMSDP=1.32D-05 MaxDP=3.18D-04 DE=-9.61D-05 OVMax= 3.25D-04

 Cycle   5  Pass 1  IDiag  1:
 E= -476.809407243376     Delta-E=       -0.000001684607 Rises=F Damp=F
 DIIS: error= 3.69D-05 at cycle   5 NSaved=   5.
 NSaved= 5 IEnMin= 5 EnMin= -476.809407243376     IErMin= 5 ErrMin= 3.69D-05
 ErrMax= 3.69D-05  0.00D+00 EMaxC= 1.00D-01 BMatC= 3.89D-07 BMatP= 2.90D-06
 IDIUse=1 WtCom= 1.00D+00 WtEn= 0.00D+00
 Coeff-Com: -0.284D-02 0.231D-01 0.411D-01 0.294D+00 0.644D+00
 Coeff:     -0.284D-02 0.231D-01 0.411D-01 0.294D+00 0.644D+00
 Gap=     0.384 Goal=   None    Shift=    0.000
 RMSDP=4.74D-06 MaxDP=1.21D-04 DE=-1.68D-06 OVMax= 1.30D-04

 Cycle   6  Pass 1  IDiag  1:
 E= -476.809407537526     Delta-E=       -0.000000294151 Rises=F Damp=F
 DIIS: error= 6.53D-06 at cycle   6 NSaved=   6.
 NSaved= 6 IEnMin= 6 EnMin= -476.809407537526     IErMin= 6 ErrMin= 6.53D-06
 ErrMax= 6.53D-06  0.00D+00 EMaxC= 1.00D-01 BMatC= 7.77D-09 BMatP= 3.89D-07
 IDIUse=1 WtCom= 1.00D+00 WtEn= 0.00D+00
 Coeff-Com: -0.300D-03-0.152D-02 0.286D-02 0.673D-01 0.204D+00 0.728D+00
 Coeff:     -0.300D-03-0.152D-02 0.286D-02 0.673D-01 0.204D+00 0.728D+00
 Gap=     0.384 Goal=   None    Shift=    0.000
 RMSDP=9.25D-07 MaxDP=1.62D-05 DE=-2.94D-07 OVMax= 2.18D-05

 Cycle   7  Pass 1  IDiag  1:
 E= -476.809407541215     Delta-E=       -0.000000003689 Rises=F Damp=F
 DIIS: error= 4.66D-06 at cycle   7 NSaved=   7.
 NSaved= 7 IEnMin= 7 EnMin= -476.809407541215     IErMin= 7 ErrMin= 4.66D-06
 ErrMax= 4.66D-06  0.00D+00 EMaxC= 1.00D-01 BMatC= 3.44D-09 BMatP= 7.77D-09
 IDIUse=1 WtCom= 1.00D+00 WtEn= 0.00D+00
 Coeff-Com:  0.440D-04-0.293D-02-0.162D-02 0.180D-01 0.742D-01 0.444D+00
 Coeff-Com:  0.468D+00
 Coeff:      0.440D-04-0.293D-02-0.162D-02 0.180D-01 0.742D-01 0.444D+00
 Coeff:      0.468D+00
 Gap=     0.384 Goal=   None    Shift=    0.000
 RMSDP=3.13D-07 MaxDP=6.69D-06 DE=-3.69D-09 OVMax= 9.00D-06

 Cycle   8  Pass 1  IDiag  1:
 E= -476.809407543357     Delta-E=       -0.000000002142 Rises=F Damp=F
 DIIS: error= 3.93D-07 at cycle   8 NSaved=   8.
 NSaved= 8 IEnMin= 8 EnMin= -476.809407543357     IErMin= 8 ErrMin= 3.93D-07
 ErrMax= 3.93D-07  0.00D+00 EMaxC= 1.00D-01 BMatC= 3.11D-11 BMatP= 3.44D-09
 IDIUse=1 WtCom= 1.00D+00 WtEn= 0.00D+00
 Coeff-Com:  0.351D-04-0.873D-03-0.735D-03 0.120D-02 0.100D-01 0.970D-01
 Coeff-Com:  0.141D+00 0.752D+00
 Coeff:      0.351D-04-0.873D-03-0.735D-03 0.120D-02 0.100D-01 0.970D-01
 Coeff:      0.141D+00 0.752D+00
 Gap=     0.384 Goal=   None    Shift=    0.000
 RMSDP=5.10D-08 MaxDP=8.55D-07 DE=-2.14D-09 OVMax= 9.27D-07

 Cycle   9  Pass 1  IDiag  1:
 E= -476.809407543381     Delta-E=       -0.000000000024 Rises=F Damp=F
 DIIS: error= 1.29D-07 at cycle   9 NSaved=   9.
 NSaved= 9 IEnMin= 9 EnMin= -476.809407543381     IErMin= 9 ErrMin= 1.29D-07
 ErrMax= 1.29D-07  0.00D+00 EMaxC= 1.00D-01 BMatC= 3.06D-12 BMatP= 3.11D-11
 IDIUse=1 WtCom= 1.00D+00 WtEn= 0.00D+00
 Coeff-Com:  0.124D-04-0.242D-03-0.229D-03-0.622D-04 0.146D-02 0.222D-01
 Coeff-Com:  0.389D-01 0.313D+00 0.625D+00
 Coeff:      0.124D-04-0.242D-03-0.229D-03-0.622D-04 0.146D-02 0.222D-01
 Coeff:      0.389D-01 0.313D+00 0.625D+00
 Gap=     0.384 Goal=   None    Shift=    0.000
 RMSDP=1.56D-08 MaxDP=3.49D-07 DE=-2.43D-11 OVMax= 3.84D-07

 Cycle  10  Pass 1  IDiag  1:
 E= -476.809407543379     Delta-E=        0.000000000002 Rises=F Damp=F
 DIIS: error= 5.43D-08 at cycle  10 NSaved=  10.
 NSaved=10 IEnMin= 9 EnMin= -476.809407543381     IErMin=10 ErrMin= 5.43D-08
 ErrMax= 5.43D-08  0.00D+00 EMaxC= 1.00D-01 BMatC= 4.61D-13 BMatP= 3.06D-12
 IDIUse=1 WtCom= 1.00D+00 WtEn= 0.00D+00
 Coeff-Com:  0.276D-05-0.294D-04-0.399D-04-0.209D-03-0.416D-03 0.130D-02
 Coeff-Com:  0.555D-02 0.841D-01 0.320D+00 0.590D+00
 Coeff:      0.276D-05-0.294D-04-0.399D-04-0.209D-03-0.416D-03 0.130D-02
 Coeff:      0.555D-02 0.841D-01 0.320D+00 0.590D+00
 Gap=     0.384 Goal=   None    Shift=    0.000
 RMSDP=4.90D-09 MaxDP=1.47D-07 DE= 2.05D-12 OVMax= 1.69D-07

 SCF Done:  E(RB3LYP) =  -476.809407543     A.U. after   10 cycles
            NFock= 10  Conv=0.49D-08     -V/T= 2.0078
 KE= 4.731175275346D+02 PE=-1.670817496432D+03 EE= 4.505107430097D+02
 Leave Link  502 at Thu Apr  2 15:12:10 2026, MaxMem=  1073741824 cpu:               8.3 elap:               2.1
 (Enter /Users/yarger/Applications/g16/l701.exe)
 ... and contract with generalized density number  0.
 Compute integral first derivatives.
 Leave Link  701 at Thu Apr  2 15:12:11 2026, MaxMem=  1073741824 cpu:               0.3 elap:               0.1
 (Enter /Users/yarger/Applications/g16/l702.exe)
 L702 exits ... SP integral derivatives will be done elsewhere.
 Leave Link  702 at Thu Apr  2 15:12:11 2026, MaxMem=  1073741824 cpu:               0.0 elap:               0.0
 (Enter /Users/yarger/Applications/g16/l703.exe)
 Integral derivatives from FoFJK, PRISM(SPDF).
 Compute integral first derivatives, UseDBF=F ICtDFT=           0.
 Calling FoFJK, ICntrl=      2127 FMM=F ISym2X=1 I1Cent= 0 IOpClX= 0 NMat=1 NMatS=1 NMatT=0.
 FoFJK:  IHMeth= 1 ICntrl=    2127 DoSepK=F KAlg= 0 I1Cent=           0 FoldK=F
 IRaf=         0 NMat=       1 IRICut=       1 DoRegI=T DoRafI=F ISym2E= 1 IDoP0=0 IntGTp=1.
 FoFCou: FMM=F IPFlag=           0 FMFlag=      100000 FMFlg1=         800
         NFxFlg=           0 DoJE=F BraDBF=F KetDBF=F FulRan=T
         wScrn=  0.000000 ICntrl=      2127 IOpCl=  0 I1Cent=           0 NGrid=           0
         NMat0=    1 NMatS0=      1 NMatT0=    0 NMatD0=    1 NMtDS0=    0 NMtDT0=    0
 Petite list used in FoFCou.
 Leave Link  703 at Thu Apr  2 15:12:11 2026, MaxMem=  1073741824 cpu:               2.4 elap:               0.6
 (Enter /Users/yarger/Applications/g16/l716.exe)
 Dipole        = 5.96661079D-01 6.63440886D-01 0.00000000D+00
 ***** Axes restored to original set *****
 -------------------------------------------------------------------
 Center     Atomic                   Forces (Hartrees/Bohr)
 Number     Number              X              Y              Z
 -------------------------------------------------------------------
      1        6           0.006422967   -0.000768049   -0.008362733
      2        1          -0.000441206   -0.000474457    0.001046959
      3        6           0.001452980   -0.003438384    0.003334288
      4        9          -0.000365394    0.002335886    0.002757641
      5        9          -0.003433891   -0.000953251    0.000702974
      6        9          -0.001302065    0.004157109   -0.004710213
      7        9          -0.002083716   -0.000589699    0.004055877
      8        1          -0.000249676   -0.000269155    0.001175208
 -------------------------------------------------------------------
 Cartesian Forces:  Max     0.008362733 RMS     0.003085952
 Leave Link  716 at Thu Apr  2 15:12:11 2026, MaxMem=  1073741824 cpu:               0.1 elap:               0.0
 (Enter /Users/yarger/Applications/g16/l103.exe)

 GradGradGradGradGradGradGradGradGradGradGradGradGradGradGradGradGradGrad
 Berny optimization.
 Using GEDIIS/GDIIS optimizer.
 FormGI is forming the generalized inverse of G from B-inverse, IUseBI=4.
 Internal  Forces:  Max     0.006054812 RMS     0.002639088
 Search for a local minimum.
 Step number   2 out of a maximum of   38
 All quantities printed in internal units (Hartrees-Bohrs-Radians)
 RMS Force = .26391D-02 SwitMx=.10000D-02 MixMth= 1
 Mixed Optimization -- RFO/linear search
 Update second derivatives using D2CorX and points    1    2
 DE= -2.40D-03 DEPred=-2.87D-03 R= 8.36D-01
 TightC=F SS=  1.41D+00  RLast= 1.33D-01 DXNew= 5.0454D-01 4.0032D-01
 Trust test= 8.36D-01 RLast= 1.33D-01 DXMaxT set to 4.00D-01
 ITU=  1  0
 Use linear search instead of GDIIS.
     Eigenvalues ---    0.00237   0.05779   0.06073   0.07992   0.08410
     Eigenvalues ---    0.16000   0.16059   0.22488   0.24045   0.25000
     Eigenvalues ---    0.27503   0.31285   0.37230   0.39135   0.50697
     Eigenvalues ---    0.55021   0.55021   0.56831
 RFO step:  Lambda=-4.56748841D-04 EMin= 2.36824250D-03
 Quartic linear search produced a step of -0.12067.
 Iteration  1 RMS(Cart)=  0.01114350 RMS(Int)=  0.00010827
 Iteration  2 RMS(Cart)=  0.00010098 RMS(Int)=  0.00005860
 Iteration  3 RMS(Cart)=  0.00000001 RMS(Int)=  0.00005860
 ITry= 1 IFail=0 DXMaxC= 2.73D-02 DCOld= 1.00D+10 DXMaxT= 4.00D-01 DXLimC= 3.00D+00 Rises=F
 ClnCor:  largest displacement from symmetrization is 1.46D-11 for atom     8.
 Variable       Old X    -DE/DX   Delta X   Delta X   Delta X     New X
                                 (Linear)    (Quad)   (Total)
    R1        2.06890  -0.00060  -0.00566   0.00793   0.00227   2.07117
    R2        2.89389  -0.00451   0.00197  -0.01712  -0.01516   2.87873
    R3        2.59809   0.00456  -0.00567   0.01668   0.01101   2.60911
    R4        2.06890  -0.00060  -0.00566   0.00793   0.00227   2.07117
    R5        2.54781   0.00179   0.00040   0.00219   0.00260   2.55040
    R6        2.54781   0.00179   0.00040   0.00219   0.00260   2.55040
    R7        2.55085   0.00466   0.00003   0.00739   0.00743   2.55828
    A1        1.89741   0.00058   0.00160   0.00178   0.00337   1.90078
    A2        1.91554  -0.00092  -0.00059  -0.00626  -0.00685   1.90869
    A3        1.92615   0.00003  -0.00187   0.00788   0.00598   1.93214
    A4        1.91156   0.00068  -0.00011   0.00121   0.00110   1.91266
    A5        1.89741   0.00058   0.00160   0.00178   0.00337   1.90078
    A6        1.91554  -0.00092  -0.00059  -0.00626  -0.00685   1.90869
    A7        1.96107  -0.00331  -0.00609  -0.00123  -0.00725   1.95382
    A8        1.96107  -0.00331  -0.00609  -0.00123  -0.00725   1.95382
    A9        1.92322  -0.00605  -0.00152  -0.02003  -0.02163   1.90159
   A10        1.86968   0.00402   0.00494   0.00779   0.01293   1.88261
   A11        1.87210   0.00481   0.00465   0.00813   0.01270   1.88479
   A12        1.87210   0.00481   0.00465   0.00813   0.01270   1.88479
    D1        1.03786  -0.00058   0.00113  -0.00999  -0.00880   1.02906
    D2       -3.13525  -0.00015  -0.00076  -0.00163  -0.00247  -3.13773
    D3       -1.04870  -0.00036   0.00018  -0.00581  -0.00564  -1.05433
    D4       -1.05503  -0.00022   0.00095  -0.00418  -0.00316  -1.05820
    D5        1.05503   0.00022  -0.00095   0.00418   0.00316   1.05820
    D6        3.14159   0.00000   0.00000   0.00000   0.00000  -3.14159
    D7        3.13525   0.00015   0.00076   0.00163   0.00247   3.13773
    D8       -1.03786   0.00058  -0.00113   0.00999   0.00880  -1.02906
    D9        1.04870   0.00036  -0.00018   0.00581   0.00564   1.05433
         Item               Value     Threshold  Converged?
 Maximum Force            0.006055     0.000015     NO 
 RMS     Force            0.002639     0.000010     NO 
 Maximum Displacement     0.027311     0.000060     NO 
 RMS     Displacement     0.011202     0.000040     NO 
 Predicted change in Energy=-2.724277D-04
 Lowest energy point so far.  Saving SCF results.
 GradGradGradGradGradGradGradGradGradGradGradGradGradGradGradGradGradGrad

 Leave Link  103 at Thu Apr  2 15:12:11 2026, MaxMem=  1073741824 cpu:               0.0 elap:               0.0
 (Enter /Users/yarger/Applications/g16/l202.exe)
                          Input orientation:                          
 ---------------------------------------------------------------------
 Center     Atomic      Atomic             Coordinates (Angstroms)
 Number     Number       Type             X           Y           Z
 ---------------------------------------------------------------------
      1          6           0       -1.503014    1.413418    1.454808
      2          1           0       -1.160282    2.454438    1.446611
      3          6           0       -0.321242    0.502252    1.148523
      4          9           0        0.676480    0.651672    2.045009
      5          9           0       -0.677343   -0.799498    1.138488
      6          9           0        0.166829    0.811683   -0.075717
      7          9           0       -2.011399    1.108727    2.701797
      8          1           0       -2.279207    1.255056    0.697379
 ---------------------------------------------------------------------
                    Distance matrix (angstroms):
                    1          2          3          4          5
     1  C    0.000000
     2  H    1.096017   0.000000
     3  C    1.523358   2.145664   0.000000
     4  F    2.383021   2.642298   1.349615   0.000000
     5  F    2.383021   3.303977   1.349615   2.181859   0.000000
     6  F    2.343708   2.603334   1.353782   2.186967   2.186967
     7  F    1.380679   2.027518   2.374258   2.804454   2.804454
     8  H    1.096017   1.803291   2.145664   3.303977   2.642298
                    6          7          8
     6  F    0.000000
     7  F    3.542245   0.000000
     8  H    2.603334   2.027518   0.000000
 Stoichiometry    C2H2F4
 Framework group  CS[SG(C2F2),X(H2F2)]
 Deg. of freedom    11
 Full point group                 CS      NOp   2
 RotChk:  IX=2 Diff= 6.92D-03
 Largest Abelian subgroup         CS      NOp   2
 Largest concise Abelian subgroup CS      NOp   2
                         Standard orientation:                         
 ---------------------------------------------------------------------
 Center     Atomic      Atomic             Coordinates (Angstroms)
 Number     Number       Type             X           Y           Z
 ---------------------------------------------------------------------
      1          6           0        1.160968    0.243975   -0.000000
      2          1           0        1.498423    0.767819   -0.901646
      3          6           0       -0.361502    0.191986    0.000000
      4          9           0       -0.844638   -0.438818   -1.090930
      5          9           0       -0.844638   -0.438818    1.090930
      6          9           0       -0.844638    1.456622   -0.000000
      7          9           0        1.667953   -1.040253   -0.000000
      8          1           0        1.498423    0.767819    0.901646
 ---------------------------------------------------------------------
 Rotational constants (GHZ):           5.2532729           2.7518919           2.7151773
 Leave Link  202 at Thu Apr  2 15:12:11 2026, MaxMem=  1073741824 cpu:               0.0 elap:               0.0
 (Enter /Users/yarger/Applications/g16/l301.exe)
 Standard basis: 6-31+G(d) (6D, 7F)
 Ernie: Thresh=  0.10000D-02 Tol=  0.10000D-05 Strict=F.
 There are    77 symmetry adapted cartesian basis functions of A'  symmetry.
 There are    41 symmetry adapted cartesian basis functions of A"  symmetry.
 There are    77 symmetry adapted basis functions of A'  symmetry.
 There are    41 symmetry adapted basis functions of A"  symmetry.
   118 basis functions,   200 primitive gaussians,   118 cartesian basis functions
    25 alpha electrons       25 beta electrons
       nuclear repulsion energy       270.2714958707 Hartrees.
 IExCor=  402 DFT=T Ex+Corr=B3LYP ExCW=0 ScaHFX=  0.200000
 ScaDFX=  0.800000  0.720000  1.000000  0.810000 ScalE2=  1.000000  1.000000
 IRadAn=      5 IRanWt=     -1 IRanGd=            0 ICorTp=0 IEmpDi=  4
 NAtoms=    8 NActive=    8 NUniq=    6 SFac= 1.78D+00 NAtFMM=   60 NAOKFM=F Big=F
 Integral buffers will be    131072 words long.
 Raffenetti 2 integral format.
 Two-electron integral symmetry is turned on.
 Leave Link  301 at Thu Apr  2 15:12:11 2026, MaxMem=  1073741824 cpu:               0.1 elap:               0.0
 (Enter /Users/yarger/Applications/g16/l302.exe)
 NPDir=0 NMtPBC=     1 NCelOv=     1 NCel=       1 NClECP=     1 NCelD=      1
         NCelK=      1 NCelE2=     1 NClLst=     1 CellRange=     0.0.
 One-electron integrals computed using PRISM.
 One-electron integral symmetry used in STVInt
 NBasis=   118 RedAO= T EigKep=  1.98D-04  NBF=    77    41
 NBsUse=   118 1.00D-06 EigRej= -1.00D+00 NBFU=    77    41
 Precomputing XC quadrature grid using
 IXCGrd= 4 IRadAn=           5 IRanWt=          -1 IRanGd=           0 AccXCQ= 0.00D+00.
 Generated NRdTot=       0 NPtTot=           0 NUsed=           0 NTot=          32
 NSgBfM=   118   118   118   118   118 MxSgAt=     8 MxSgA2=     8.
 Leave Link  302 at Thu Apr  2 15:12:12 2026, MaxMem=  1073741824 cpu:               0.4 elap:               0.1
 (Enter /Users/yarger/Applications/g16/l303.exe)
 DipDrv:  MaxL=1.
 Leave Link  303 at Thu Apr  2 15:12:12 2026, MaxMem=  1073741824 cpu:               0.0 elap:               0.0
 (Enter /Users/yarger/Applications/g16/l401.exe)
 Initial guess from the checkpoint file:  "1112Tetrafluoroethane_Opt_Freq_DFT_B3LYP_631pd_Gaussian16.chk"
 B after Tr=    -0.000000   -0.000000    0.000000
         Rot=    0.999998    0.000000   -0.000000   -0.001766 Ang=  -0.20 deg.
 Guess basis will be translated and rotated to current coordinates.
 JPrj=2 DoOrth=T DoCkMO=T.
 Initial guess orbital symmetries:
       Occupied  (A') (A') (A") (A') (A') (A') (A') (A') (A") (A')
                 (A') (A') (A') (A") (A') (A') (A") (A') (A") (A')
                 (A') (A") (A") (A") (A')
       Virtual   (A') (A') (A") (A') (A") (A') (A') (A') (A") (A')
                 (A') (A') (A') (A") (A') (A") (A') (A') (A') (A")
                 (A") (A') (A") (A') (A') (A") (A') (A') (A') (A")
                 (A') (A') (A') (A") (A') (A') (A") (A") (A') (A')
                 (A") (A') (A') (A') (A") (A') (A") (A') (A") (A")
                 (A') (A') (A') (A") (A') (A") (A') (A') (A") (A')
                 (A") (A") (A') (A") (A') (A') (A") (A') (A") (A')
                 (A") (A') (A') (A") (A') (A") (A') (A') (A") (A')
                 (A") (A') (A') (A') (A") (A') (A') (A') (A') (A')
                 (A") (A') (A')
 The electronic state of the initial guess is 1-A'.
 Generating alternative initial guess.
 ExpMin= 4.38D-02 ExpMax= 7.00D+03 ExpMxC= 1.05D+03 IAcc=2 IRadAn=         4 AccDes= 0.00D+00
 Harris functional with IExCor=  402 and IRadAn=       4 diagonalized for initial guess.
 HarFok:  IExCor=  402 AccDes= 0.00D+00 IRadAn=         4 IDoV= 1 UseB2=F ITyADJ=14
 ICtDFT=  3500011 ScaDFX=  1.000000  1.000000  1.000000  1.000000
 FoFCou: FMM=F IPFlag=           0 FMFlag=      100000 FMFlg1=           0
         NFxFlg=           0 DoJE=T BraDBF=F KetDBF=T FulRan=T
         wScrn=  0.000000 ICntrl=       500 IOpCl=  0 I1Cent=   200000004 NGrid=           0
         NMat0=    1 NMatS0=      1 NMatT0=    0 NMatD0=    1 NMtDS0=    0 NMtDT0=    0
 Petite list used in FoFCou.
 Harris En= -476.775393275787    
 Leave Link  401 at Thu Apr  2 15:12:12 2026, MaxMem=  1073741824 cpu:               0.8 elap:               0.2
 (Enter /Users/yarger/Applications/g16/l502.exe)
 Keep R1 ints in memory in symmetry-blocked form, NReq=37119245.
 FoFCou: FMM=F IPFlag=           0 FMFlag=           0 FMFlg1=           0
         NFxFlg=           0 DoJE=F BraDBF=F KetDBF=F FulRan=T
         wScrn=  0.000000 ICntrl=       600 IOpCl=  0 I1Cent=           0 NGrid=           0
         NMat0=    1 NMatS0=   7021 NMatT0=    0 NMatD0=    1 NMtDS0=    0 NMtDT0=    0
 Petite list used in FoFCou.
 Closed shell SCF:
 Using DIIS extrapolation, IDIIS=  1040.
 NGot=  1073741824 LenX=  1061244307 LenY=  1061229942
 Requested convergence on RMS density matrix=1.00D-08 within 128 cycles.
 Requested convergence on MAX density matrix=1.00D-06.
 Requested convergence on             energy=1.00D-06.
 No special actions if energy rises.

 Cycle   1  Pass 1  IDiag  1:
 E= -476.809431536791    
 DIIS: error= 8.12D-04 at cycle   1 NSaved=   1.
 NSaved= 1 IEnMin= 1 EnMin= -476.809431536791     IErMin= 1 ErrMin= 8.12D-04
 ErrMax= 8.12D-04  0.00D+00 EMaxC= 1.00D-01 BMatC= 1.64D-04 BMatP= 1.64D-04
 IDIUse=3 WtCom= 9.92D-01 WtEn= 8.12D-03
 Coeff-Com:  0.100D+01
 Coeff-En:   0.100D+01
 Coeff:      0.100D+01
 Gap=     0.384 Goal=   None    Shift=    0.000
 RMSDP=1.96D-04 MaxDP=3.74D-03              OVMax= 5.06D-03

 Cycle   2  Pass 1  IDiag  1:
 E= -476.809678210049     Delta-E=       -0.000246673258 Rises=F Damp=F
 DIIS: error= 1.31D-04 at cycle   2 NSaved=   2.
 NSaved= 2 IEnMin= 2 EnMin= -476.809678210049     IErMin= 2 ErrMin= 1.31D-04
 ErrMax= 1.31D-04  0.00D+00 EMaxC= 1.00D-01 BMatC= 5.05D-06 BMatP= 1.64D-04
 IDIUse=3 WtCom= 9.99D-01 WtEn= 1.31D-03
 Coeff-Com: -0.793D-02 0.101D+01
 Coeff-En:   0.000D+00 0.100D+01
 Coeff:     -0.792D-02 0.101D+01
 Gap=     0.384 Goal=   None    Shift=    0.000
 RMSDP=2.92D-05 MaxDP=5.19D-04 DE=-2.47D-04 OVMax= 6.73D-04

 Cycle   3  Pass 1  IDiag  1:
 E= -476.809678628999     Delta-E=       -0.000000418951 Rises=F Damp=F
 DIIS: error= 1.75D-04 at cycle   3 NSaved=   3.
 NSaved= 3 IEnMin= 3 EnMin= -476.809678628999     IErMin= 2 ErrMin= 1.31D-04
 ErrMax= 1.75D-04  0.00D+00 EMaxC= 1.00D-01 BMatC= 6.66D-06 BMatP= 5.05D-06
 IDIUse=3 WtCom= 4.30D-01 WtEn= 5.70D-01
 Coeff-Com: -0.325D-01 0.558D+00 0.474D+00
 Coeff-En:   0.000D+00 0.468D+00 0.532D+00
 Coeff:     -0.140D-01 0.507D+00 0.507D+00
 Gap=     0.383 Goal=   None    Shift=    0.000
 RMSDP=1.65D-05 MaxDP=3.66D-04 DE=-4.19D-07 OVMax= 4.46D-04

 Cycle   4  Pass 1  IDiag  1:
 E= -476.809682367764     Delta-E=       -0.000003738764 Rises=F Damp=F
 DIIS: error= 4.99D-05 at cycle   4 NSaved=   4.
 NSaved= 4 IEnMin= 4 EnMin= -476.809682367764     IErMin= 4 ErrMin= 4.99D-05
 ErrMax= 4.99D-05  0.00D+00 EMaxC= 1.00D-01 BMatC= 5.68D-07 BMatP= 5.05D-06
 IDIUse=1 WtCom= 1.00D+00 WtEn= 0.00D+00
 Coeff-Com: -0.991D-02 0.106D+00 0.259D+00 0.645D+00
 Coeff:     -0.991D-02 0.106D+00 0.259D+00 0.645D+00
 Gap=     0.383 Goal=   None    Shift=    0.000
 RMSDP=4.23D-06 MaxDP=8.10D-05 DE=-3.74D-06 OVMax= 9.66D-05

 Cycle   5  Pass 1  IDiag  1:
 E= -476.809682718294     Delta-E=       -0.000000350530 Rises=F Damp=F
 DIIS: error= 4.95D-06 at cycle   5 NSaved=   5.
 NSaved= 5 IEnMin= 5 EnMin= -476.809682718294     IErMin= 5 ErrMin= 4.95D-06
 ErrMax= 4.95D-06  0.00D+00 EMaxC= 1.00D-01 BMatC= 7.05D-09 BMatP= 5.68D-07
 IDIUse=1 WtCom= 1.00D+00 WtEn= 0.00D+00
 Coeff-Com: -0.196D-02 0.106D-01 0.716D-01 0.224D+00 0.695D+00
 Coeff:     -0.196D-02 0.106D-01 0.716D-01 0.224D+00 0.695D+00
 Gap=     0.384 Goal=   None    Shift=    0.000
 RMSDP=7.82D-07 MaxDP=2.10D-05 DE=-3.51D-07 OVMax= 2.06D-05

 Cycle   6  Pass 1  IDiag  1:
 E= -476.809682722554     Delta-E=       -0.000000004261 Rises=F Damp=F
 DIIS: error= 3.14D-06 at cycle   6 NSaved=   6.
 NSaved= 6 IEnMin= 6 EnMin= -476.809682722554     IErMin= 6 ErrMin= 3.14D-06
 ErrMax= 3.14D-06  0.00D+00 EMaxC= 1.00D-01 BMatC= 2.02D-09 BMatP= 7.05D-09
 IDIUse=1 WtCom= 1.00D+00 WtEn= 0.00D+00
 Coeff-Com: -0.104D-03-0.532D-02 0.124D-01 0.560D-01 0.389D+00 0.548D+00
 Coeff:     -0.104D-03-0.532D-02 0.124D-01 0.560D-01 0.389D+00 0.548D+00
 Gap=     0.384 Goal=   None    Shift=    0.000
 RMSDP=3.14D-07 MaxDP=7.85D-06 DE=-4.26D-09 OVMax= 7.60D-06

 Cycle   7  Pass 1  IDiag  1:
 E= -476.809682723909     Delta-E=       -0.000000001355 Rises=F Damp=F
 DIIS: error= 6.36D-07 at cycle   7 NSaved=   7.
 NSaved= 7 IEnMin= 7 EnMin= -476.809682723909     IErMin= 7 ErrMin= 6.36D-07
 ErrMax= 6.36D-07  0.00D+00 EMaxC= 1.00D-01 BMatC= 8.71D-11 BMatP= 2.02D-09
 IDIUse=1 WtCom= 1.00D+00 WtEn= 0.00D+00
 Coeff-Com:  0.783D-04-0.343D-02 0.133D-02 0.137D-01 0.147D+00 0.260D+00
 Coeff-Com:  0.581D+00
 Coeff:      0.783D-04-0.343D-02 0.133D-02 0.137D-01 0.147D+00 0.260D+00
 Coeff:      0.581D+00
 Gap=     0.384 Goal=   None    Shift=    0.000
 RMSDP=6.27D-08 MaxDP=1.94D-06 DE=-1.35D-09 OVMax= 1.63D-06

 Cycle   8  Pass 1  IDiag  1:
 E= -476.809682723967     Delta-E=       -0.000000000058 Rises=F Damp=F
 DIIS: error= 1.59D-07 at cycle   8 NSaved=   8.
 NSaved= 8 IEnMin= 8 EnMin= -476.809682723967     IErMin= 8 ErrMin= 1.59D-07
 ErrMax= 1.59D-07  0.00D+00 EMaxC= 1.00D-01 BMatC= 4.58D-12 BMatP= 8.71D-11
 IDIUse=1 WtCom= 1.00D+00 WtEn= 0.00D+00
 Coeff-Com:  0.374D-04-0.865D-03-0.560D-03 0.895D-03 0.260D-01 0.582D-01
 Coeff-Com:  0.232D+00 0.684D+00
 Coeff:      0.374D-04-0.865D-03-0.560D-03 0.895D-03 0.260D-01 0.582D-01
 Coeff:      0.232D+00 0.684D+00
 Gap=     0.384 Goal=   None    Shift=    0.000
 RMSDP=1.67D-08 MaxDP=4.47D-07 DE=-5.81D-11 OVMax= 5.38D-07

 Cycle   9  Pass 1  IDiag  1:
 E= -476.809682723970     Delta-E=       -0.000000000002 Rises=F Damp=F
 DIIS: error= 4.64D-08 at cycle   9 NSaved=   9.
 NSaved= 9 IEnMin= 9 EnMin= -476.809682723970     IErMin= 9 ErrMin= 4.64D-08
 ErrMax= 4.64D-08  0.00D+00 EMaxC= 1.00D-01 BMatC= 4.25D-13 BMatP= 4.58D-12
 IDIUse=1 WtCom= 1.00D+00 WtEn= 0.00D+00
 Coeff-Com:  0.151D-04-0.285D-03-0.313D-03-0.237D-04 0.681D-02 0.183D-01
 Coeff-Com:  0.901D-01 0.337D+00 0.548D+00
 Coeff:      0.151D-04-0.285D-03-0.313D-03-0.237D-04 0.681D-02 0.183D-01
 Coeff:      0.901D-01 0.337D+00 0.548D+00
 Gap=     0.384 Goal=   None    Shift=    0.000
 RMSDP=4.46D-09 MaxDP=1.08D-07 DE=-2.39D-12 OVMax= 1.15D-07

 SCF Done:  E(RB3LYP) =  -476.809682724     A.U. after    9 cycles
            NFock=  9  Conv=0.45D-08     -V/T= 2.0078
 KE= 4.730963851077D+02 PE=-1.670578764858D+03 EE= 4.504012011553D+02
 Leave Link  502 at Thu Apr  2 15:12:14 2026, MaxMem=  1073741824 cpu:               7.7 elap:               2.0
 (Enter /Users/yarger/Applications/g16/l701.exe)
 ... and contract with generalized density number  0.
 Compute integral first derivatives.
 Leave Link  701 at Thu Apr  2 15:12:14 2026, MaxMem=  1073741824 cpu:               0.3 elap:               0.1
 (Enter /Users/yarger/Applications/g16/l702.exe)
 L702 exits ... SP integral derivatives will be done elsewhere.
 Leave Link  702 at Thu Apr  2 15:12:14 2026, MaxMem=  1073741824 cpu:               0.0 elap:               0.0
 (Enter /Users/yarger/Applications/g16/l703.exe)
 Integral derivatives from FoFJK, PRISM(SPDF).
 Compute integral first derivatives, UseDBF=F ICtDFT=           0.
 Calling FoFJK, ICntrl=      2127 FMM=F ISym2X=1 I1Cent= 0 IOpClX= 0 NMat=1 NMatS=1 NMatT=0.
 FoFJK:  IHMeth= 1 ICntrl=    2127 DoSepK=F KAlg= 0 I1Cent=           0 FoldK=F
 IRaf=         0 NMat=       1 IRICut=       1 DoRegI=T DoRafI=F ISym2E= 1 IDoP0=0 IntGTp=1.
 FoFCou: FMM=F IPFlag=           0 FMFlag=      100000 FMFlg1=         800
         NFxFlg=           0 DoJE=F BraDBF=F KetDBF=F FulRan=T
         wScrn=  0.000000 ICntrl=      2127 IOpCl=  0 I1Cent=           0 NGrid=           0
         NMat0=    1 NMatS0=      1 NMatT0=    0 NMatD0=    1 NMtDS0=    0 NMtDT0=    0
 Petite list used in FoFCou.
 Leave Link  703 at Thu Apr  2 15:12:15 2026, MaxMem=  1073741824 cpu:               2.3 elap:               0.6
 (Enter /Users/yarger/Applications/g16/l716.exe)
 Dipole        = 5.55644581D-01 6.66752735D-01 5.55111512D-15
 ***** Axes restored to original set *****
 -------------------------------------------------------------------
 Center     Atomic                   Forces (Hartrees/Bohr)
 Number     Number              X              Y              Z
 -------------------------------------------------------------------
      1        6           0.001002195    0.001360222   -0.003674166
      2        1          -0.000840617   -0.001389530    0.000433261
      3        6          -0.000868314   -0.000763805    0.002519474
      4        9          -0.000502352   -0.000459512   -0.000862592
      5        9           0.000708498    0.000838403   -0.000051806
      6        9           0.000687598    0.000210509   -0.001363863
      7        9          -0.000917187   -0.000090500    0.001514626
      8        1           0.000730179    0.000294214    0.001485067
 -------------------------------------------------------------------
 Cartesian Forces:  Max     0.003674166 RMS     0.001252088
 Leave Link  716 at Thu Apr  2 15:12:15 2026, MaxMem=  1073741824 cpu:               0.1 elap:               0.0
 (Enter /Users/yarger/Applications/g16/l103.exe)

 GradGradGradGradGradGradGradGradGradGradGradGradGradGradGradGradGradGrad
 Berny optimization.
 Using GEDIIS/GDIIS optimizer.
 FormGI is forming the generalized inverse of G from B-inverse, IUseBI=4.
 Internal  Forces:  Max     0.001725653 RMS     0.000743217
 Search for a local minimum.
 Step number   3 out of a maximum of   38
 All quantities printed in internal units (Hartrees-Bohrs-Radians)
 RMS Force = .74322D-03 SwitMx=.10000D-02 MixMth= 2
 Mixed Optimization -- En-DIIS/RFO-DIIS
 Update second derivatives using D2CorX and points    1    2    3
 DE= -2.75D-04 DEPred=-2.72D-04 R= 1.01D+00
 TightC=F SS=  1.41D+00  RLast= 4.36D-02 DXNew= 6.7326D-01 1.3067D-01
 Trust test= 1.01D+00 RLast= 4.36D-02 DXMaxT set to 4.00D-01
 ITU=  1  1  0
 Use linear search instead of GDIIS.
     Eigenvalues ---    0.00237   0.05775   0.05784   0.08072   0.08679
     Eigenvalues ---    0.15867   0.16000   0.21752   0.23691   0.25000
     Eigenvalues ---    0.27508   0.36359   0.37230   0.39011   0.46325
     Eigenvalues ---    0.55021   0.55384   0.58561
 RFO step:  Lambda=-4.56666835D-05 EMin= 2.36824250D-03
 Quartic linear search produced a step of  0.00517.
 Iteration  1 RMS(Cart)=  0.00250248 RMS(Int)=  0.00000910
 Iteration  2 RMS(Cart)=  0.00000821 RMS(Int)=  0.00000592
 Iteration  3 RMS(Cart)=  0.00000000 RMS(Int)=  0.00000592
 ITry= 1 IFail=0 DXMaxC= 5.50D-03 DCOld= 1.00D+10 DXMaxT= 4.00D-01 DXLimC= 3.00D+00 Rises=F
 ClnCor:  largest displacement from symmetrization is 9.14D-09 for atom     5.
 Variable       Old X    -DE/DX   Delta X   Delta X   Delta X     New X
                                 (Linear)    (Quad)   (Total)
    R1        2.07117  -0.00159   0.00001  -0.00368  -0.00367   2.06750
    R2        2.87873   0.00008  -0.00008  -0.00132  -0.00140   2.87733
    R3        2.60911   0.00173   0.00006   0.00465   0.00470   2.61381
    R4        2.07117  -0.00159   0.00001  -0.00368  -0.00367   2.06750
    R5        2.55040  -0.00100   0.00001  -0.00161  -0.00160   2.54880
    R6        2.55040  -0.00100   0.00001  -0.00161  -0.00160   2.54880
    R7        2.55828   0.00153   0.00004   0.00352   0.00356   2.56184
    A1        1.90078   0.00049   0.00002   0.00395   0.00395   1.90473
    A2        1.90869  -0.00059  -0.00004  -0.00518  -0.00522   1.90347
    A3        1.93214  -0.00027   0.00003   0.00103   0.00104   1.93317
    A4        1.91266   0.00048   0.00001   0.00155   0.00156   1.91421
    A5        1.90078   0.00049   0.00002   0.00395   0.00395   1.90473
    A6        1.90869  -0.00059  -0.00004  -0.00518  -0.00522   1.90347
    A7        1.95382   0.00063  -0.00004   0.00238   0.00234   1.95615
    A8        1.95382   0.00063  -0.00004   0.00238   0.00234   1.95615
    A9        1.90159   0.00009  -0.00011  -0.00176  -0.00187   1.89971
   A10        1.88261  -0.00065   0.00007  -0.00147  -0.00141   1.88120
   A11        1.88479  -0.00039   0.00007  -0.00086  -0.00079   1.88400
   A12        1.88479  -0.00039   0.00007  -0.00086  -0.00079   1.88400
    D1        1.02906  -0.00016  -0.00005  -0.00376  -0.00381   1.02525
    D2       -3.13773  -0.00010  -0.00001  -0.00225  -0.00227  -3.14000
    D3       -1.05433  -0.00013  -0.00003  -0.00300  -0.00304  -1.05737
    D4       -1.05820  -0.00003  -0.00002  -0.00075  -0.00077  -1.05897
    D5        1.05820   0.00003   0.00002   0.00075   0.00077   1.05897
    D6       -3.14159   0.00000   0.00000   0.00000  -0.00000  -3.14159
    D7        3.13773   0.00010   0.00001   0.00225   0.00227   3.14000
    D8       -1.02906   0.00016   0.00005   0.00376   0.00381  -1.02525
    D9        1.05433   0.00013   0.00003   0.00300   0.00304   1.05737
         Item               Value     Threshold  Converged?
 Maximum Force            0.001726     0.000015     NO 
 RMS     Force            0.000743     0.000010     NO 
 Maximum Displacement     0.005503     0.000060     NO 
 RMS     Displacement     0.002504     0.000040     NO 
 Predicted change in Energy=-2.286144D-05
 Lowest energy point so far.  Saving SCF results.
 GradGradGradGradGradGradGradGradGradGradGradGradGradGradGradGradGradGrad

 Leave Link  103 at Thu Apr  2 15:12:15 2026, MaxMem=  1073741824 cpu:               0.0 elap:               0.0
 (Enter /Users/yarger/Applications/g16/l202.exe)
                          Input orientation:                          
 ---------------------------------------------------------------------
 Center     Atomic      Atomic             Coordinates (Angstroms)
 Number     Number       Type             X           Y           Z
 ---------------------------------------------------------------------
      1          6           0       -1.501852    1.413539    1.452880
      2          1           0       -1.162335    2.453588    1.447965
      3          6           0       -0.320963    0.501631    1.149100
      4          9           0        0.677286    0.649715    2.043945
      5          9           0       -0.674994   -0.799801    1.138457
      6          9           0        0.167666    0.811617   -0.076861
      7          9           0       -2.014311    1.111555    2.701619
      8          1           0       -2.279676    1.255904    0.699793
 ---------------------------------------------------------------------
                    Distance matrix (angstroms):
                    1          2          3          4          5
     1  C    0.000000
     2  H    1.094074   0.000000
     3  C    1.522615   2.146476   0.000000
     4  F    2.383575   2.644495   1.348769   0.000000
     5  F    2.383575   3.304215   1.348769   2.179372   0.000000
     6  F    2.343013   2.605776   1.355667   2.187177   2.187177
     7  F    1.383169   2.024490   2.376920   2.809008   2.809008
     8  H    1.094074   1.800738   2.146476   3.304215   2.644495
                    6          7          8
     6  F    0.000000
     7  F    3.545552   0.000000
     8  H    2.605776   2.024490   0.000000
 Stoichiometry    C2H2F4
 Framework group  CS[SG(C2F2),X(H2F2)]
 Deg. of freedom    11
 Full point group                 CS      NOp   2
 RotChk:  IX=2 Diff= 7.90D-04
 Largest Abelian subgroup         CS      NOp   2
 Largest concise Abelian subgroup CS      NOp   2
                         Standard orientation:                         
 ---------------------------------------------------------------------
 Center     Atomic      Atomic             Coordinates (Angstroms)
 Number     Number       Type             X           Y           Z
 ---------------------------------------------------------------------
      1          6           0        1.159900    0.245976    0.000000
      2          1           0        1.499763    0.766386   -0.900369
      3          6           0       -0.361704    0.190510   -0.000000
      4          9           0       -0.846057   -0.439700   -1.089686
      5          9           0       -0.846057   -0.439700    1.089686
      6          9           0       -0.846057    1.456699   -0.000000
      7          9           0        1.672759   -1.038598    0.000000
      8          1           0        1.499763    0.766386    0.900369
 ---------------------------------------------------------------------
 Rotational constants (GHZ):           5.2550054           2.7487931           2.7094901
 Leave Link  202 at Thu Apr  2 15:12:15 2026, MaxMem=  1073741824 cpu:               0.0 elap:               0.0
 (Enter /Users/yarger/Applications/g16/l301.exe)
 Standard basis: 6-31+G(d) (6D, 7F)
 Ernie: Thresh=  0.10000D-02 Tol=  0.10000D-05 Strict=F.
 There are    77 symmetry adapted cartesian basis functions of A'  symmetry.
 There are    41 symmetry adapted cartesian basis functions of A"  symmetry.
 There are    77 symmetry adapted basis functions of A'  symmetry.
 There are    41 symmetry adapted basis functions of A"  symmetry.
   118 basis functions,   200 primitive gaussians,   118 cartesian basis functions
    25 alpha electrons       25 beta electrons
       nuclear repulsion energy       270.1899223111 Hartrees.
 IExCor=  402 DFT=T Ex+Corr=B3LYP ExCW=0 ScaHFX=  0.200000
 ScaDFX=  0.800000  0.720000  1.000000  0.810000 ScalE2=  1.000000  1.000000
 IRadAn=      5 IRanWt=     -1 IRanGd=            0 ICorTp=0 IEmpDi=  4
 NAtoms=    8 NActive=    8 NUniq=    6 SFac= 1.78D+00 NAtFMM=   60 NAOKFM=F Big=F
 Integral buffers will be    131072 words long.
 Raffenetti 2 integral format.
 Two-electron integral symmetry is turned on.
 Leave Link  301 at Thu Apr  2 15:12:15 2026, MaxMem=  1073741824 cpu:               0.1 elap:               0.0
 (Enter /Users/yarger/Applications/g16/l302.exe)
 NPDir=0 NMtPBC=     1 NCelOv=     1 NCel=       1 NClECP=     1 NCelD=      1
         NCelK=      1 NCelE2=     1 NClLst=     1 CellRange=     0.0.
 One-electron integrals computed using PRISM.
 One-electron integral symmetry used in STVInt
 NBasis=   118 RedAO= T EigKep=  1.98D-04  NBF=    77    41
 NBsUse=   118 1.00D-06 EigRej= -1.00D+00 NBFU=    77    41
 Precomputing XC quadrature grid using
 IXCGrd= 4 IRadAn=           5 IRanWt=          -1 IRanGd=           0 AccXCQ= 0.00D+00.
 Generated NRdTot=       0 NPtTot=           0 NUsed=           0 NTot=          32
 NSgBfM=   118   118   118   118   118 MxSgAt=     8 MxSgA2=     8.
 Leave Link  302 at Thu Apr  2 15:12:15 2026, MaxMem=  1073741824 cpu:               0.4 elap:               0.1
 (Enter /Users/yarger/Applications/g16/l303.exe)
 DipDrv:  MaxL=1.
 Leave Link  303 at Thu Apr  2 15:12:15 2026, MaxMem=  1073741824 cpu:               0.1 elap:               0.0
 (Enter /Users/yarger/Applications/g16/l401.exe)
 Initial guess from the checkpoint file:  "1112Tetrafluoroethane_Opt_Freq_DFT_B3LYP_631pd_Gaussian16.chk"
 B after Tr=     0.000000    0.000000   -0.000000
         Rot=    1.000000    0.000000    0.000000   -0.000559 Ang=  -0.06 deg.
 Guess basis will be translated and rotated to current coordinates.
 JPrj=2 DoOrth=T DoCkMO=T.
 Initial guess orbital symmetries:
       Occupied  (A') (A') (A") (A') (A') (A') (A') (A') (A") (A')
                 (A') (A') (A") (A') (A') (A') (A") (A') (A") (A')
                 (A') (A") (A") (A") (A')
       Virtual   (A') (A') (A') (A") (A") (A') (A') (A') (A") (A')
                 (A') (A') (A') (A") (A') (A") (A') (A') (A') (A")
                 (A") (A') (A") (A') (A') (A") (A') (A') (A') (A")
                 (A') (A') (A') (A") (A') (A') (A") (A") (A') (A')
                 (A") (A') (A') (A') (A") (A') (A") (A') (A") (A")
                 (A') (A') (A') (A") (A') (A") (A') (A') (A") (A')
                 (A") (A") (A') (A") (A') (A') (A') (A") (A") (A")
                 (A') (A') (A') (A") (A') (A') (A") (A') (A") (A')
                 (A") (A') (A') (A') (A") (A') (A') (A') (A') (A')
                 (A") (A') (A')
 The electronic state of the initial guess is 1-A'.
 Leave Link  401 at Thu Apr  2 15:12:15 2026, MaxMem=  1073741824 cpu:               0.2 elap:               0.1
 (Enter /Users/yarger/Applications/g16/l502.exe)
 Keep R1 ints in memory in symmetry-blocked form, NReq=37119245.
 FoFCou: FMM=F IPFlag=           0 FMFlag=           0 FMFlg1=           0
         NFxFlg=           0 DoJE=F BraDBF=F KetDBF=F FulRan=T
         wScrn=  0.000000 ICntrl=       600 IOpCl=  0 I1Cent=           0 NGrid=           0
         NMat0=    1 NMatS0=   7021 NMatT0=    0 NMatD0=    1 NMtDS0=    0 NMtDT0=    0
 Petite list used in FoFCou.
 Closed shell SCF:
 Using DIIS extrapolation, IDIIS=  1040.
 NGot=  1073741824 LenX=  1061244307 LenY=  1061229942
 Requested convergence on RMS density matrix=1.00D-08 within 128 cycles.
 Requested convergence on MAX density matrix=1.00D-06.
 Requested convergence on             energy=1.00D-06.
 No special actions if energy rises.

 Cycle   1  Pass 1  IDiag  1:
 E= -476.809695443585    
 DIIS: error= 2.63D-04 at cycle   1 NSaved=   1.
 NSaved= 1 IEnMin= 1 EnMin= -476.809695443585     IErMin= 1 ErrMin= 2.63D-04
 ErrMax= 2.63D-04  0.00D+00 EMaxC= 1.00D-01 BMatC= 1.03D-05 BMatP= 1.03D-05
 IDIUse=3 WtCom= 9.97D-01 WtEn= 2.63D-03
 Coeff-Com:  0.100D+01
 Coeff-En:   0.100D+01
 Coeff:      0.100D+01
 Gap=     0.384 Goal=   None    Shift=    0.000
 RMSDP=4.57D-05 MaxDP=7.53D-04              OVMax= 1.08D-03

 Cycle   2  Pass 1  IDiag  1:
 E= -476.809708835006     Delta-E=       -0.000013391421 Rises=F Damp=F
 DIIS: error= 1.05D-04 at cycle   2 NSaved=   2.
 NSaved= 2 IEnMin= 2 EnMin= -476.809708835006     IErMin= 2 ErrMin= 1.05D-04
 ErrMax= 1.05D-04  0.00D+00 EMaxC= 1.00D-01 BMatC= 2.05D-06 BMatP= 1.03D-05
 IDIUse=3 WtCom= 9.99D-01 WtEn= 1.05D-03
 Coeff-Com:  0.210D+00 0.790D+00
 Coeff-En:   0.000D+00 0.100D+01
 Coeff:      0.210D+00 0.790D+00
 Gap=     0.384 Goal=   None    Shift=    0.000
 RMSDP=1.50D-05 MaxDP=4.25D-04 DE=-1.34D-05 OVMax= 4.79D-04

 Cycle   3  Pass 1  IDiag  1:
 E= -476.809709027301     Delta-E=       -0.000000192294 Rises=F Damp=F
 DIIS: error= 1.01D-04 at cycle   3 NSaved=   3.
 NSaved= 3 IEnMin= 3 EnMin= -476.809709027301     IErMin= 3 ErrMin= 1.01D-04
 ErrMax= 1.01D-04  0.00D+00 EMaxC= 1.00D-01 BMatC= 1.90D-06 BMatP= 2.05D-06
 IDIUse=3 WtCom= 9.99D-01 WtEn= 1.01D-03
 Coeff-Com: -0.204D-01 0.494D+00 0.526D+00
 Coeff-En:   0.000D+00 0.469D+00 0.531D+00
 Coeff:     -0.204D-01 0.494D+00 0.526D+00
 Gap=     0.384 Goal=   None    Shift=    0.000
 RMSDP=7.88D-06 MaxDP=2.15D-04 DE=-1.92D-07 OVMax= 2.78D-04

 Cycle   4  Pass 1  IDiag  1:
 E= -476.809710277338     Delta-E=       -0.000001250037 Rises=F Damp=F
 DIIS: error= 1.16D-05 at cycle   4 NSaved=   4.
 NSaved= 4 IEnMin= 4 EnMin= -476.809710277338     IErMin= 4 ErrMin= 1.16D-05
 ErrMax= 1.16D-05  0.00D+00 EMaxC= 1.00D-01 BMatC= 2.86D-08 BMatP= 1.90D-06
 IDIUse=1 WtCom= 1.00D+00 WtEn= 0.00D+00
 Coeff-Com: -0.122D-01 0.177D+00 0.226D+00 0.609D+00
 Coeff:     -0.122D-01 0.177D+00 0.226D+00 0.609D+00
 Gap=     0.384 Goal=   None    Shift=    0.000
 RMSDP=1.48D-06 MaxDP=3.52D-05 DE=-1.25D-06 OVMax= 4.52D-05

 Cycle   5  Pass 1  IDiag  1:
 E= -476.809710297199     Delta-E=       -0.000000019861 Rises=F Damp=F
 DIIS: error= 3.30D-06 at cycle   5 NSaved=   5.
 NSaved= 5 IEnMin= 5 EnMin= -476.809710297199     IErMin= 5 ErrMin= 3.30D-06
 ErrMax= 3.30D-06  0.00D+00 EMaxC= 1.00D-01 BMatC= 2.11D-09 BMatP= 2.86D-08
 IDIUse=1 WtCom= 1.00D+00 WtEn= 0.00D+00
 Coeff-Com: -0.434D-02 0.379D-01 0.613D-01 0.258D+00 0.647D+00
 Coeff:     -0.434D-02 0.379D-01 0.613D-01 0.258D+00 0.647D+00
 Gap=     0.384 Goal=   None    Shift=    0.000
 RMSDP=3.50D-07 MaxDP=1.04D-05 DE=-1.99D-08 OVMax= 1.06D-05

 Cycle   6  Pass 1  IDiag  1:
 E= -476.809710299013     Delta-E=       -0.000000001815 Rises=F Damp=F
 DIIS: error= 5.31D-07 at cycle   6 NSaved=   6.
 NSaved= 6 IEnMin= 6 EnMin= -476.809710299013     IErMin= 6 ErrMin= 5.31D-07
 ErrMax= 5.31D-07  0.00D+00 EMaxC= 1.00D-01 BMatC= 3.89D-11 BMatP= 2.11D-09
 IDIUse=1 WtCom= 1.00D+00 WtEn= 0.00D+00
 Coeff-Com: -0.502D-03 0.948D-03 0.517D-02 0.317D-01 0.156D+00 0.807D+00
 Coeff:     -0.502D-03 0.948D-03 0.517D-02 0.317D-01 0.156D+00 0.807D+00
 Gap=     0.384 Goal=   None    Shift=    0.000
 RMSDP=5.77D-08 MaxDP=1.28D-06 DE=-1.81D-09 OVMax= 1.28D-06

 Cycle   7  Pass 1  IDiag  1:
 E= -476.809710299042     Delta-E=       -0.000000000029 Rises=F Damp=F
 DIIS: error= 2.70D-07 at cycle   7 NSaved=   7.
 NSaved= 7 IEnMin= 7 EnMin= -476.809710299042     IErMin= 7 ErrMin= 2.70D-07
 ErrMax= 2.70D-07  0.00D+00 EMaxC= 1.00D-01 BMatC= 1.26D-11 BMatP= 3.89D-11
 IDIUse=1 WtCom= 1.00D+00 WtEn= 0.00D+00
 Coeff-Com:  0.247D-04-0.199D-02-0.117D-02 0.163D-02 0.460D-01 0.444D+00
 Coeff-Com:  0.511D+00
 Coeff:      0.247D-04-0.199D-02-0.117D-02 0.163D-02 0.460D-01 0.444D+00
 Coeff:      0.511D+00
 Gap=     0.384 Goal=   None    Shift=    0.000
 RMSDP=2.35D-08 MaxDP=4.14D-07 DE=-2.85D-11 OVMax= 5.67D-07

 Cycle   8  Pass 1  IDiag  1:
 E= -476.809710299049     Delta-E=       -0.000000000007 Rises=F Damp=F
 DIIS: error= 5.94D-08 at cycle   8 NSaved=   8.
 NSaved= 8 IEnMin= 8 EnMin= -476.809710299049     IErMin= 8 ErrMin= 5.94D-08
 ErrMax= 5.94D-08  0.00D+00 EMaxC= 1.00D-01 BMatC= 8.08D-13 BMatP= 1.26D-11
 IDIUse=1 WtCom= 1.00D+00 WtEn= 0.00D+00
 Coeff-Com:  0.505D-04-0.900D-03-0.975D-03-0.184D-02 0.461D-02 0.112D+00
 Coeff-Com:  0.248D+00 0.639D+00
 Coeff:      0.505D-04-0.900D-03-0.975D-03-0.184D-02 0.461D-02 0.112D+00
 Coeff:      0.248D+00 0.639D+00
 Gap=     0.384 Goal=   None    Shift=    0.000
 RMSDP=5.86D-09 MaxDP=9.94D-08 DE=-7.16D-12 OVMax= 1.49D-07

 SCF Done:  E(RB3LYP) =  -476.809710299     A.U. after    8 cycles
            NFock=  8  Conv=0.59D-08     -V/T= 2.0078
 KE= 4.730982030871D+02 PE=-1.670418121152D+03 EE= 4.503202854545D+02
 Leave Link  502 at Thu Apr  2 15:12:17 2026, MaxMem=  1073741824 cpu:               7.0 elap:               1.8
 (Enter /Users/yarger/Applications/g16/l701.exe)
 ... and contract with generalized density number  0.
 Compute integral first derivatives.
 Leave Link  701 at Thu Apr  2 15:12:17 2026, MaxMem=  1073741824 cpu:               0.3 elap:               0.1
 (Enter /Users/yarger/Applications/g16/l702.exe)
 L702 exits ... SP integral derivatives will be done elsewhere.
 Leave Link  702 at Thu Apr  2 15:12:17 2026, MaxMem=  1073741824 cpu:               0.1 elap:               0.0
 (Enter /Users/yarger/Applications/g16/l703.exe)
 Integral derivatives from FoFJK, PRISM(SPDF).
 Compute integral first derivatives, UseDBF=F ICtDFT=           0.
 Calling FoFJK, ICntrl=      2127 FMM=F ISym2X=1 I1Cent= 0 IOpClX= 0 NMat=1 NMatS=1 NMatT=0.
 FoFJK:  IHMeth= 1 ICntrl=    2127 DoSepK=F KAlg= 0 I1Cent=           0 FoldK=F
 IRaf=         0 NMat=       1 IRICut=       1 DoRegI=T DoRafI=F ISym2E= 1 IDoP0=0 IntGTp=1.
 FoFCou: FMM=F IPFlag=           0 FMFlag=      100000 FMFlg1=         800
         NFxFlg=           0 DoJE=F BraDBF=F KetDBF=F FulRan=T
         wScrn=  0.000000 ICntrl=      2127 IOpCl=  0 I1Cent=           0 NGrid=           0
         NMat0=    1 NMatS0=      1 NMatT0=    0 NMatD0=    1 NMtDS0=    0 NMtDT0=    0
 Petite list used in FoFCou.
 Leave Link  703 at Thu Apr  2 15:12:18 2026, MaxMem=  1073741824 cpu:               2.4 elap:               0.6
 (Enter /Users/yarger/Applications/g16/l716.exe)
 Dipole        = 5.53858264D-01 6.65834551D-01-3.33066907D-15
 ***** Axes restored to original set *****
 -------------------------------------------------------------------
 Center     Atomic                   Forces (Hartrees/Bohr)
 Number     Number              X              Y              Z
 -------------------------------------------------------------------
      1        6          -0.000123771    0.000752569   -0.001019879
      2        1          -0.000080858   -0.000408714    0.000000605
      3        6          -0.000074916   -0.000674304    0.001191316
      4        9          -0.000319594   -0.000029066   -0.000436998
      5        9           0.000175807    0.000501957   -0.000105277
      6        9           0.000263921    0.000088980   -0.000536588
      7        9          -0.000159028   -0.000250716    0.000638846
      8        1           0.000318439    0.000019294    0.000267974
 -------------------------------------------------------------------
 Cartesian Forces:  Max     0.001191316 RMS     0.000469850
 Leave Link  716 at Thu Apr  2 15:12:18 2026, MaxMem=  1073741824 cpu:               0.1 elap:               0.0
 (Enter /Users/yarger/Applications/g16/l103.exe)

 GradGradGradGradGradGradGradGradGradGradGradGradGradGradGradGradGradGrad
 Berny optimization.
 Using GEDIIS/GDIIS optimizer.
 FormGI is forming the generalized inverse of G from B-inverse, IUseBI=4.
 Internal  Forces:  Max     0.000690349 RMS     0.000260779
 Search for a local minimum.
 Step number   4 out of a maximum of   38
 All quantities printed in internal units (Hartrees-Bohrs-Radians)
 RMS Force = .26078D-03 SwitMx=.10000D-02 MixMth= 2
 Mixed Optimization -- En-DIIS/RFO-DIIS
 Swapping is turned off.
 Update second derivatives using D2CorX and points    1    2    3    4
 DE= -2.76D-05 DEPred=-2.29D-05 R= 1.21D+00
 TightC=F SS=  1.41D+00  RLast= 1.53D-02 DXNew= 6.7326D-01 4.5968D-02
 Trust test= 1.21D+00 RLast= 1.53D-02 DXMaxT set to 4.00D-01
 ITU=  1  1  1  0
     Eigenvalues ---    0.00237   0.05598   0.05758   0.07881   0.08683
     Eigenvalues ---    0.16000   0.16824   0.22561   0.23923   0.25000
     Eigenvalues ---    0.27317   0.33180   0.37230   0.37370   0.41824
     Eigenvalues ---    0.54639   0.55021   0.57623
 En-DIIS/RFO-DIIS/Sim-DIIS IScMMF=       -3 using points:     4    3
 RFO step:  Lambda=-6.52186469D-06.
 NNeg= 0 NGDIIS= 2 SimSw=  2.50D-01 Rises=F DC= -2.76D-05 SmlDif=  1.00D-05
 NRisDI= 0 DoIntr=F SqrtH=F CThrHd= 10.0 CDAdj=  3.0
 RMS Error=  0.1116392434D-02 NUsed= 2 OKEnD=T EnDIS=F
 InvSVX:  RCond= 5.88D-05 Info=           0 Equed=N FErr=  1.68D-15 BErr=  2.19D-17
 DidBck=F Rises=F RFO-DIIS coefs:    1.26506   -0.26506
 Iteration  1 RMS(Cart)=  0.00059064 RMS(Int)=  0.00000186
 Iteration  2 RMS(Cart)=  0.00000071 RMS(Int)=  0.00000176
 ITry= 1 IFail=0 DXMaxC= 1.38D-03 DCOld= 1.00D+10 DXMaxT= 4.00D-01 DXLimC= 3.00D+00 Rises=F
 ClnCor:  largest displacement from symmetrization is 8.39D-09 for atom     5.
 Variable       Old X    -DE/DX   Delta X   Delta X   Delta X     New X
                                 (Linear)    (Quad)   (Total)
    R1        2.06750  -0.00041  -0.00097  -0.00057  -0.00154   2.06596
    R2        2.87733   0.00008  -0.00037   0.00003  -0.00034   2.87698
    R3        2.61381   0.00069   0.00125   0.00129   0.00254   2.61635
    R4        2.06750  -0.00041  -0.00097  -0.00057  -0.00154   2.06596
    R5        2.54880  -0.00053  -0.00042  -0.00086  -0.00129   2.54752
    R6        2.54880  -0.00053  -0.00042  -0.00086  -0.00129   2.54752
    R7        2.56184   0.00060   0.00094   0.00103   0.00197   2.56381
    A1        1.90473  -0.00002   0.00105  -0.00077   0.00027   1.90500
    A2        1.90347   0.00011  -0.00138   0.00123  -0.00015   1.90332
    A3        1.93317   0.00005   0.00027   0.00078   0.00105   1.93422
    A4        1.91421  -0.00025   0.00041  -0.00173  -0.00131   1.91290
    A5        1.90473  -0.00002   0.00105  -0.00077   0.00027   1.90500
    A6        1.90347   0.00011  -0.00138   0.00123  -0.00015   1.90332
    A7        1.95615   0.00009   0.00062   0.00011   0.00072   1.95688
    A8        1.95615   0.00009   0.00062   0.00011   0.00072   1.95688
    A9        1.89971   0.00005  -0.00050  -0.00047  -0.00097   1.89875
   A10        1.88120  -0.00002  -0.00037   0.00111   0.00074   1.88194
   A11        1.88400  -0.00011  -0.00021  -0.00045  -0.00066   1.88334
   A12        1.88400  -0.00011  -0.00021  -0.00045  -0.00066   1.88334
    D1        1.02525  -0.00007  -0.00101  -0.00080  -0.00181   1.02344
    D2       -3.14000   0.00003  -0.00060   0.00080   0.00020  -3.13980
    D3       -1.05737  -0.00002  -0.00081  -0.00000  -0.00081  -1.05818
    D4       -1.05897  -0.00005  -0.00020  -0.00080  -0.00100  -1.05997
    D5        1.05897   0.00005   0.00020   0.00080   0.00100   1.05997
    D6        3.14159   0.00000  -0.00000  -0.00000   0.00000   3.14159
    D7        3.14000  -0.00003   0.00060  -0.00080  -0.00020   3.13980
    D8       -1.02525   0.00007   0.00101   0.00080   0.00181  -1.02344
    D9        1.05737   0.00002   0.00081   0.00000   0.00081   1.05818
         Item               Value     Threshold  Converged?
 Maximum Force            0.000690     0.000015     NO 
 RMS     Force            0.000261     0.000010     NO 
 Maximum Displacement     0.001381     0.000060     NO 
 RMS     Displacement     0.000591     0.000040     NO 
 Predicted change in Energy=-3.261317D-06
 Lowest energy point so far.  Saving SCF results.
 GradGradGradGradGradGradGradGradGradGradGradGradGradGradGradGradGradGrad

 Leave Link  103 at Thu Apr  2 15:12:18 2026, MaxMem=  1073741824 cpu:               0.0 elap:               0.0
 (Enter /Users/yarger/Applications/g16/l202.exe)
                          Input orientation:                          
 ---------------------------------------------------------------------
 Center     Atomic      Atomic             Coordinates (Angstroms)
 Number     Number       Type             X           Y           Z
 ---------------------------------------------------------------------
      1          6           0       -1.501832    1.413916    1.452247
      2          1           0       -1.162247    2.453087    1.447802
      3          6           0       -0.321259    0.501450    1.149831
      4          9           0        0.676994    0.649817    2.043598
      5          9           0       -0.674966   -0.799356    1.138324
      6          9           0        0.167762    0.811659   -0.077071
      7          9           0       -2.014472    1.111312    2.702250
      8          1           0       -2.279159    1.255864    0.699918
 ---------------------------------------------------------------------
                    Distance matrix (angstroms):
                    1          2          3          4          5
     1  C    0.000000
     2  H    1.093259   0.000000
     3  C    1.522433   2.145911   0.000000
     4  F    2.383449   2.643778   1.348087   0.000000
     5  F    2.383449   3.303272   1.348087   2.178857   0.000000
     6  F    2.342876   2.605465   1.356709   2.186949   2.186949
     7  F    1.384513   2.024917   2.376743   2.809055   2.809055
     8  H    1.093259   1.800047   2.145911   3.303272   2.643778
                    6          7          8
     6  F    0.000000
     7  F    3.546345   0.000000
     8  H    2.605465   2.024917   0.000000
 Stoichiometry    C2H2F4
 Framework group  CS[SG(C2F2),X(H2F2)]
 Deg. of freedom    11
 Full point group                 CS      NOp   2
 RotChk:  IX=2 Diff= 2.27D-04
 Largest Abelian subgroup         CS      NOp   2
 Largest concise Abelian subgroup CS      NOp   2
                         Standard orientation:                         
 ---------------------------------------------------------------------
 Center     Atomic      Atomic             Coordinates (Angstroms)
 Number     Number       Type             X           Y           Z
 ---------------------------------------------------------------------
      1          6           0        1.159890    0.246497    0.000000
      2          1           0        1.499382    0.766035   -0.900023
      3          6           0       -0.361486    0.189787   -0.000000
      4          9           0       -0.846027   -0.439264   -1.089429
      5          9           0       -0.846027   -0.439264    1.089429
      6          9           0       -0.846027    1.457020    0.000000
      7          9           0        1.672616   -1.039578    0.000000
      8          1           0        1.499382    0.766035    0.900023
 ---------------------------------------------------------------------
 Rotational constants (GHZ):           5.2565371           2.7486867           2.7091380
 Leave Link  202 at Thu Apr  2 15:12:18 2026, MaxMem=  1073741824 cpu:               0.0 elap:               0.0
 (Enter /Users/yarger/Applications/g16/l301.exe)
 Standard basis: 6-31+G(d) (6D, 7F)
 Ernie: Thresh=  0.10000D-02 Tol=  0.10000D-05 Strict=F.
 There are    77 symmetry adapted cartesian basis functions of A'  symmetry.
 There are    41 symmetry adapted cartesian basis functions of A"  symmetry.
 There are    77 symmetry adapted basis functions of A'  symmetry.
 There are    41 symmetry adapted basis functions of A"  symmetry.
   118 basis functions,   200 primitive gaussians,   118 cartesian basis functions
    25 alpha electrons       25 beta electrons
       nuclear repulsion energy       270.1914379227 Hartrees.
 IExCor=  402 DFT=T Ex+Corr=B3LYP ExCW=0 ScaHFX=  0.200000
 ScaDFX=  0.800000  0.720000  1.000000  0.810000 ScalE2=  1.000000  1.000000
 IRadAn=      5 IRanWt=     -1 IRanGd=            0 ICorTp=0 IEmpDi=  4
 NAtoms=    8 NActive=    8 NUniq=    6 SFac= 1.78D+00 NAtFMM=   60 NAOKFM=F Big=F
 Integral buffers will be    131072 words long.
 Raffenetti 2 integral format.
 Two-electron integral symmetry is turned on.
 Leave Link  301 at Thu Apr  2 15:12:18 2026, MaxMem=  1073741824 cpu:               0.1 elap:               0.0
 (Enter /Users/yarger/Applications/g16/l302.exe)
 NPDir=0 NMtPBC=     1 NCelOv=     1 NCel=       1 NClECP=     1 NCelD=      1
         NCelK=      1 NCelE2=     1 NClLst=     1 CellRange=     0.0.
 One-electron integrals computed using PRISM.
 One-electron integral symmetry used in STVInt
 NBasis=   118 RedAO= T EigKep=  1.97D-04  NBF=    77    41
 NBsUse=   118 1.00D-06 EigRej= -1.00D+00 NBFU=    77    41
 Precomputing XC quadrature grid using
 IXCGrd= 4 IRadAn=           5 IRanWt=          -1 IRanGd=           0 AccXCQ= 0.00D+00.
 Generated NRdTot=       0 NPtTot=           0 NUsed=           0 NTot=          32
 NSgBfM=   118   118   118   118   118 MxSgAt=     8 MxSgA2=     8.
 Leave Link  302 at Thu Apr  2 15:12:18 2026, MaxMem=  1073741824 cpu:               0.4 elap:               0.1
 (Enter /Users/yarger/Applications/g16/l303.exe)
 DipDrv:  MaxL=1.
 Leave Link  303 at Thu Apr  2 15:12:18 2026, MaxMem=  1073741824 cpu:               0.1 elap:               0.0
 (Enter /Users/yarger/Applications/g16/l401.exe)
 Initial guess from the checkpoint file:  "1112Tetrafluoroethane_Opt_Freq_DFT_B3LYP_631pd_Gaussian16.chk"
 B after Tr=    -0.000000   -0.000000    0.000000
         Rot=    1.000000   -0.000000    0.000000    0.000113 Ang=   0.01 deg.
 Guess basis will be translated and rotated to current coordinates.
 JPrj=2 DoOrth=T DoCkMO=T.
 Initial guess orbital symmetries:
       Occupied  (A') (A') (A") (A') (A') (A') (A') (A') (A") (A')
                 (A') (A') (A") (A') (A') (A') (A") (A') (A") (A')
                 (A') (A") (A") (A") (A')
       Virtual   (A') (A') (A') (A") (A") (A') (A') (A') (A") (A')
                 (A') (A') (A') (A") (A') (A") (A') (A') (A') (A")
                 (A") (A') (A") (A') (A') (A") (A') (A') (A') (A")
                 (A') (A') (A') (A") (A') (A') (A") (A") (A') (A')
                 (A") (A') (A') (A') (A") (A') (A") (A') (A") (A")
                 (A') (A') (A') (A") (A') (A") (A') (A') (A") (A')
                 (A") (A") (A') (A") (A') (A') (A') (A") (A") (A')
                 (A") (A') (A') (A") (A') (A') (A") (A') (A") (A')
                 (A") (A') (A') (A') (A") (A') (A') (A') (A') (A')
                 (A") (A') (A')
 The electronic state of the initial guess is 1-A'.
 Leave Link  401 at Thu Apr  2 15:12:18 2026, MaxMem=  1073741824 cpu:               0.2 elap:               0.1
 (Enter /Users/yarger/Applications/g16/l502.exe)
 Keep R1 ints in memory in symmetry-blocked form, NReq=37119245.
 FoFCou: FMM=F IPFlag=           0 FMFlag=           0 FMFlg1=           0
         NFxFlg=           0 DoJE=F BraDBF=F KetDBF=F FulRan=T
         wScrn=  0.000000 ICntrl=       600 IOpCl=  0 I1Cent=           0 NGrid=           0
         NMat0=    1 NMatS0=   7021 NMatT0=    0 NMatD0=    1 NMtDS0=    0 NMtDT0=    0
 Petite list used in FoFCou.
 Closed shell SCF:
 Using DIIS extrapolation, IDIIS=  1040.
 NGot=  1073741824 LenX=  1061244307 LenY=  1061229942
 Requested convergence on RMS density matrix=1.00D-08 within 128 cycles.
 Requested convergence on MAX density matrix=1.00D-06.
 Requested convergence on             energy=1.00D-06.
 No special actions if energy rises.

 Cycle   1  Pass 1  IDiag  1:
 E= -476.809710899399    
 DIIS: error= 1.31D-04 at cycle   1 NSaved=   1.
 NSaved= 1 IEnMin= 1 EnMin= -476.809710899399     IErMin= 1 ErrMin= 1.31D-04
 ErrMax= 1.31D-04  0.00D+00 EMaxC= 1.00D-01 BMatC= 2.12D-06 BMatP= 2.12D-06
 IDIUse=3 WtCom= 9.99D-01 WtEn= 1.31D-03
 Coeff-Com:  0.100D+01
 Coeff-En:   0.100D+01
 Coeff:      0.100D+01
 Gap=     0.384 Goal=   None    Shift=    0.000
 RMSDP=1.97D-05 MaxDP=3.03D-04              OVMax= 4.40D-04

 Cycle   2  Pass 1  IDiag  1:
 E= -476.809713522063     Delta-E=       -0.000002622664 Rises=F Damp=F
 DIIS: error= 4.85D-05 at cycle   2 NSaved=   2.
 NSaved= 2 IEnMin= 2 EnMin= -476.809713522063     IErMin= 2 ErrMin= 4.85D-05
 ErrMax= 4.85D-05  0.00D+00 EMaxC= 1.00D-01 BMatC= 3.79D-07 BMatP= 2.12D-06
 IDIUse=1 WtCom= 1.00D+00 WtEn= 0.00D+00
 Coeff-Com:  0.193D+00 0.807D+00
 Coeff:      0.193D+00 0.807D+00
 Gap=     0.384 Goal=   None    Shift=    0.000
 RMSDP=6.31D-06 MaxDP=1.49D-04 DE=-2.62D-06 OVMax= 1.88D-04

 Cycle   3  Pass 1  IDiag  1:
 E= -476.809713518569     Delta-E=        0.000000003493 Rises=F Damp=F
 DIIS: error= 4.92D-05 at cycle   3 NSaved=   3.
 NSaved= 3 IEnMin= 2 EnMin= -476.809713522063     IErMin= 2 ErrMin= 4.85D-05
 ErrMax= 4.92D-05  0.00D+00 EMaxC= 1.00D-01 BMatC= 3.97D-07 BMatP= 3.79D-07
 IDIUse=1 WtCom= 1.00D+00 WtEn= 0.00D+00
 Coeff-Com: -0.263D-01 0.511D+00 0.515D+00
 Coeff:     -0.263D-01 0.511D+00 0.515D+00
 Gap=     0.384 Goal=   None    Shift=    0.000
 RMSDP=3.50D-06 MaxDP=8.71D-05 DE= 3.49D-09 OVMax= 9.44D-05

 Cycle   4  Pass 1  IDiag  1:
 E= -476.809713775267     Delta-E=       -0.000000256697 Rises=F Damp=F
 DIIS: error= 4.18D-06 at cycle   4 NSaved=   4.
 NSaved= 4 IEnMin= 4 EnMin= -476.809713775267     IErMin= 4 ErrMin= 4.18D-06
 ErrMax= 4.18D-06  0.00D+00 EMaxC= 1.00D-01 BMatC= 4.23D-09 BMatP= 3.79D-07
 IDIUse=1 WtCom= 1.00D+00 WtEn= 0.00D+00
 Coeff-Com: -0.118D-01 0.183D+00 0.217D+00 0.612D+00
 Coeff:     -0.118D-01 0.183D+00 0.217D+00 0.612D+00
 Gap=     0.384 Goal=   None    Shift=    0.000
 RMSDP=4.84D-07 MaxDP=1.53D-05 DE=-2.57D-07 OVMax= 1.39D-05

 Cycle   5  Pass 1  IDiag  1:
 E= -476.809713778108     Delta-E=       -0.000000002841 Rises=F Damp=F
 DIIS: error= 1.21D-06 at cycle   5 NSaved=   5.
 NSaved= 5 IEnMin= 5 EnMin= -476.809713778108     IErMin= 5 ErrMin= 1.21D-06
 ErrMax= 1.21D-06  0.00D+00 EMaxC= 1.00D-01 BMatC= 2.96D-10 BMatP= 4.23D-09
 IDIUse=1 WtCom= 1.00D+00 WtEn= 0.00D+00
 Coeff-Com: -0.369D-02 0.372D-01 0.582D-01 0.247D+00 0.661D+00
 Coeff:     -0.369D-02 0.372D-01 0.582D-01 0.247D+00 0.661D+00
 Gap=     0.384 Goal=   None    Shift=    0.000
 RMSDP=1.28D-07 MaxDP=4.31D-06 DE=-2.84D-09 OVMax= 3.70D-06

 Cycle   6  Pass 1  IDiag  1:
 E= -476.809713778364     Delta-E=       -0.000000000256 Rises=F Damp=F
 DIIS: error= 2.15D-07 at cycle   6 NSaved=   6.
 NSaved= 6 IEnMin= 6 EnMin= -476.809713778364     IErMin= 6 ErrMin= 2.15D-07
 ErrMax= 2.15D-07  0.00D+00 EMaxC= 1.00D-01 BMatC= 1.13D-11 BMatP= 2.96D-10
 IDIUse=1 WtCom= 1.00D+00 WtEn= 0.00D+00
 Coeff-Com: -0.634D-03 0.377D-02 0.104D-01 0.514D-01 0.223D+00 0.713D+00
 Coeff:     -0.634D-03 0.377D-02 0.104D-01 0.514D-01 0.223D+00 0.713D+00
 Gap=     0.384 Goal=   None    Shift=    0.000
 RMSDP=2.77D-08 MaxDP=6.69D-07 DE=-2.56D-10 OVMax= 6.48D-07

 Cycle   7  Pass 1  IDiag  1:
 E= -476.809713778368     Delta-E=       -0.000000000004 Rises=F Damp=F
 DIIS: error= 1.44D-07 at cycle   7 NSaved=   7.
 NSaved= 7 IEnMin= 7 EnMin= -476.809713778368     IErMin= 7 ErrMin= 1.44D-07
 ErrMax= 1.44D-07  0.00D+00 EMaxC= 1.00D-01 BMatC= 3.51D-12 BMatP= 1.13D-11
 IDIUse=1 WtCom= 1.00D+00 WtEn= 0.00D+00
 Coeff-Com:  0.236D-04-0.195D-02-0.424D-03 0.213D-02 0.568D-01 0.419D+00
 Coeff-Com:  0.525D+00
 Coeff:      0.236D-04-0.195D-02-0.424D-03 0.213D-02 0.568D-01 0.419D+00
 Coeff:      0.525D+00
 Gap=     0.384 Goal=   None    Shift=    0.000
 RMSDP=1.22D-08 MaxDP=3.08D-07 DE=-4.21D-12 OVMax= 3.37D-07

 Cycle   8  Pass 1  IDiag  1:
 E= -476.809713778368     Delta-E=       -0.000000000000 Rises=F Damp=F
 DIIS: error= 2.61D-08 at cycle   8 NSaved=   8.
 NSaved= 8 IEnMin= 8 EnMin= -476.809713778368     IErMin= 8 ErrMin= 2.61D-08
 ErrMax= 2.61D-08  0.00D+00 EMaxC= 1.00D-01 BMatC= 1.15D-13 BMatP= 3.51D-12
 IDIUse=1 WtCom= 1.00D+00 WtEn= 0.00D+00
 Coeff-Com:  0.385D-04-0.104D-02-0.723D-03-0.117D-02 0.143D-01 0.154D+00
 Coeff-Com:  0.246D+00 0.588D+00
 Coeff:      0.385D-04-0.104D-02-0.723D-03-0.117D-02 0.143D-01 0.154D+00
 Coeff:      0.246D+00 0.588D+00
 Gap=     0.384 Goal=   None    Shift=    0.000
 RMSDP=2.80D-09 MaxDP=6.26D-08 DE=-3.41D-13 OVMax= 8.18D-08

 SCF Done:  E(RB3LYP) =  -476.809713778     A.U. after    8 cycles
            NFock=  8  Conv=0.28D-08     -V/T= 2.0078
 KE= 4.730992251138D+02 PE=-1.670422928640D+03 EE= 4.503225518252D+02
 Leave Link  502 at Thu Apr  2 15:12:20 2026, MaxMem=  1073741824 cpu:               7.1 elap:               1.8
 (Enter /Users/yarger/Applications/g16/l701.exe)
 ... and contract with generalized density number  0.
 Compute integral first derivatives.
 Leave Link  701 at Thu Apr  2 15:12:20 2026, MaxMem=  1073741824 cpu:               0.3 elap:               0.1
 (Enter /Users/yarger/Applications/g16/l702.exe)
 L702 exits ... SP integral derivatives will be done elsewhere.
 Leave Link  702 at Thu Apr  2 15:12:20 2026, MaxMem=  1073741824 cpu:               0.1 elap:               0.0
 (Enter /Users/yarger/Applications/g16/l703.exe)
 Integral derivatives from FoFJK, PRISM(SPDF).
 Compute integral first derivatives, UseDBF=F ICtDFT=           0.
 Calling FoFJK, ICntrl=      2127 FMM=F ISym2X=1 I1Cent= 0 IOpClX= 0 NMat=1 NMatS=1 NMatT=0.
 FoFJK:  IHMeth= 1 ICntrl=    2127 DoSepK=F KAlg= 0 I1Cent=           0 FoldK=F
 IRaf=         0 NMat=       1 IRICut=       1 DoRegI=T DoRafI=F ISym2E= 1 IDoP0=0 IntGTp=1.
 FoFCou: FMM=F IPFlag=           0 FMFlag=      100000 FMFlg1=         800
         NFxFlg=           0 DoJE=F BraDBF=F KetDBF=F FulRan=T
         wScrn=  0.000000 ICntrl=      2127 IOpCl=  0 I1Cent=           0 NGrid=           0
         NMat0=    1 NMatS0=      1 NMatT0=    0 NMatD0=    1 NMtDS0=    0 NMtDT0=    0
 Petite list used in FoFCou.
 Leave Link  703 at Thu Apr  2 15:12:21 2026, MaxMem=  1073741824 cpu:               2.4 elap:               0.6
 (Enter /Users/yarger/Applications/g16/l716.exe)
 Dipole        = 5.53431987D-01 6.64260877D-01-1.77635684D-15
 ***** Axes restored to original set *****
 -------------------------------------------------------------------
 Center     Atomic                   Forces (Hartrees/Bohr)
 Number     Number              X              Y              Z
 -------------------------------------------------------------------
      1        6          -0.000137229    0.000063850    0.000102730
      2        1           0.000026476    0.000062080    0.000012878
      3        6           0.000107678   -0.000258413    0.000252862
      4        9          -0.000108731   -0.000010081   -0.000096015
      5        9           0.000032820    0.000141649   -0.000001232
      6        9           0.000087838    0.000030281   -0.000179654
      7        9           0.000042939   -0.000007551   -0.000052039
      8        1          -0.000051790   -0.000021814   -0.000039530
 -------------------------------------------------------------------
 Cartesian Forces:  Max     0.000258413 RMS     0.000106657
 Leave Link  716 at Thu Apr  2 15:12:21 2026, MaxMem=  1073741824 cpu:               0.1 elap:               0.0
 (Enter /Users/yarger/Applications/g16/l103.exe)

 GradGradGradGradGradGradGradGradGradGradGradGradGradGradGradGradGradGrad
 Berny optimization.
 Using GEDIIS/GDIIS optimizer.
 FormGI is forming the generalized inverse of G from B-inverse, IUseBI=4.
 Internal  Forces:  Max     0.000200987 RMS     0.000067437
 Search for a local minimum.
 Step number   5 out of a maximum of   38
 All quantities printed in internal units (Hartrees-Bohrs-Radians)
 RMS Force = .67437D-04 SwitMx=.10000D-02 MixMth= 2
 Mixed Optimization -- En-DIIS/RFO-DIIS
 Swapping is turned off.
 Update second derivatives using D2CorX and points    1    2    3    4    5
 DE= -3.48D-06 DEPred=-3.26D-06 R= 1.07D+00
 TightC=F SS=  1.41D+00  RLast= 5.90D-03 DXNew= 6.7326D-01 1.7713D-02
 Trust test= 1.07D+00 RLast= 5.90D-03 DXMaxT set to 4.00D-01
 ITU=  1  1  1  1  0
     Eigenvalues ---    0.00237   0.05379   0.05767   0.08006   0.08692
     Eigenvalues ---    0.16000   0.16763   0.23234   0.23300   0.25000
     Eigenvalues ---    0.27939   0.31923   0.37230   0.37663   0.41023
     Eigenvalues ---    0.54063   0.55021   0.57405
 En-DIIS/RFO-DIIS/Sim-DIIS IScMMF=       -3 using points:     5    4    3
 RFO step:  Lambda=-3.37974295D-07.
 NNeg= 0 NGDIIS= 3 SimSw=  2.50D-01 Rises=F DC= -3.48D-06 SmlDif=  1.00D-05
 NRisDI= 0 DoIntr=F SqrtH=F CThrHd= 10.0 CDAdj=  3.0
 RMS Error=  0.2210166029D-03 NUsed= 3 OKEnD=F EnDIS=F
 InvSVX:  RCond= 1.81D-06 Info=           0 Equed=N FErr=  2.03D-15 BErr=  8.35D-17
 DidBck=F Rises=F RFO-DIIS coefs:    1.06042   -0.04016   -0.02026
 Iteration  1 RMS(Cart)=  0.00024759 RMS(Int)=  0.00000018
 Iteration  2 RMS(Cart)=  0.00000003 RMS(Int)=  0.00000018
 ITry= 1 IFail=0 DXMaxC= 6.89D-04 DCOld= 1.00D+10 DXMaxT= 4.00D-01 DXLimC= 3.00D+00 Rises=F
 ClnCor:  largest displacement from symmetrization is 5.17D-09 for atom     5.
 Variable       Old X    -DE/DX   Delta X   Delta X   Delta X     New X
                                 (Linear)    (Quad)   (Total)
    R1        2.06596   0.00007  -0.00017   0.00024   0.00008   2.06604
    R2        2.87698   0.00016  -0.00005   0.00056   0.00051   2.87749
    R3        2.61635  -0.00006   0.00025  -0.00022   0.00003   2.61638
    R4        2.06596   0.00007  -0.00017   0.00024   0.00008   2.06604
    R5        2.54752  -0.00015  -0.00011  -0.00022  -0.00033   2.54719
    R6        2.54752  -0.00015  -0.00011  -0.00022  -0.00033   2.54719
    R7        2.56381   0.00020   0.00019   0.00030   0.00049   2.56430
    A1        1.90500   0.00001   0.00010   0.00002   0.00011   1.90512
    A2        1.90332   0.00002  -0.00011   0.00004  -0.00007   1.90325
    A3        1.93422   0.00001   0.00008   0.00017   0.00026   1.93447
    A4        1.91290  -0.00006  -0.00005  -0.00030  -0.00035   1.91255
    A5        1.90500   0.00001   0.00010   0.00002   0.00011   1.90512
    A6        1.90332   0.00002  -0.00011   0.00004  -0.00007   1.90325
    A7        1.95688  -0.00001   0.00009  -0.00014  -0.00004   1.95683
    A8        1.95688  -0.00001   0.00009  -0.00014  -0.00004   1.95683
    A9        1.89875   0.00004  -0.00010   0.00020   0.00010   1.89885
   A10        1.88194   0.00001   0.00002   0.00004   0.00006   1.88200
   A11        1.88334  -0.00001  -0.00006   0.00002  -0.00004   1.88331
   A12        1.88334  -0.00001  -0.00006   0.00002  -0.00004   1.88331
    D1        1.02344  -0.00001  -0.00019  -0.00005  -0.00023   1.02321
    D2       -3.13980  -0.00001  -0.00003  -0.00019  -0.00022  -3.14003
    D3       -1.05818  -0.00001  -0.00011  -0.00012  -0.00023  -1.05841
    D4       -1.05997   0.00000  -0.00008   0.00007  -0.00001  -1.05997
    D5        1.05997  -0.00000   0.00008  -0.00007   0.00001   1.05997
    D6        3.14159  -0.00000  -0.00000   0.00000   0.00000   3.14159
    D7        3.13980   0.00001   0.00003   0.00019   0.00022   3.14003
    D8       -1.02344   0.00001   0.00019   0.00005   0.00023  -1.02321
    D9        1.05818   0.00001   0.00011   0.00012   0.00023   1.05841
         Item               Value     Threshold  Converged?
 Maximum Force            0.000201     0.000015     NO 
 RMS     Force            0.000067     0.000010     NO 
 Maximum Displacement     0.000689     0.000060     NO 
 RMS     Displacement     0.000248     0.000040     NO 
 Predicted change in Energy=-1.687892D-07
 Lowest energy point so far.  Saving SCF results.
 GradGradGradGradGradGradGradGradGradGradGradGradGradGradGradGradGradGrad

 Leave Link  103 at Thu Apr  2 15:12:21 2026, MaxMem=  1073741824 cpu:               0.0 elap:               0.0
 (Enter /Users/yarger/Applications/g16/l202.exe)
                          Input orientation:                          
 ---------------------------------------------------------------------
 Center     Atomic      Atomic             Coordinates (Angstroms)
 Number     Number       Type             X           Y           Z
 ---------------------------------------------------------------------
      1          6           0       -1.501938    1.414054    1.452183
      2          1           0       -1.162367    2.453274    1.447955
      3          6           0       -0.321172    0.501362    1.149843
      4          9           0        0.676872    0.649769    2.043573
      5          9           0       -0.674943   -0.799247    1.138398
      6          9           0        0.168126    0.811444   -0.077270
      7          9           0       -2.014339    1.111193    2.702241
      8          1           0       -2.279419    1.255900    0.699976
 ---------------------------------------------------------------------
                    Distance matrix (angstroms):
                    1          2          3          4          5
     1  C    0.000000
     2  H    1.093300   0.000000
     3  C    1.522702   2.146261   0.000000
     4  F    2.383502   2.643896   1.347913   0.000000
     5  F    2.383502   3.303377   1.347913   2.178622   0.000000
     6  F    2.343391   2.606171   1.356971   2.186993   2.186993
     7  F    1.384530   2.024912   2.376688   2.808802   2.808802
     8  H    1.093300   1.800272   2.146261   3.303377   2.643896
                    6          7          8
     6  F    0.000000
     7  F    3.546644   0.000000
     8  H    2.606171   2.024912   0.000000
 Stoichiometry    C2H2F4
 Framework group  CS[SG(C2F2),X(H2F2)]
 Deg. of freedom    11
 Full point group                 CS      NOp   2
 RotChk:  IX=2 Diff= 3.86D-04
 Largest Abelian subgroup         CS      NOp   2
 Largest concise Abelian subgroup CS      NOp   2
                         Standard orientation:                         
 ---------------------------------------------------------------------
 Center     Atomic      Atomic             Coordinates (Angstroms)
 Number     Number       Type             X           Y           Z
 ---------------------------------------------------------------------
      1          6           0        1.160183    0.246277    0.000000
      2          1           0        1.499907    0.765553   -0.900136
      3          6           0       -0.361472    0.189827   -0.000000
      4          9           0       -0.846007   -0.439059   -1.089311
      5          9           0       -0.846007   -0.439059    1.089311
      6          9           0       -0.846007    1.457343    0.000000
      7          9           0        1.672234   -1.040085    0.000000
      8          1           0        1.499907    0.765553    0.900136
 ---------------------------------------------------------------------
 Rotational constants (GHZ):           5.2571415           2.7485992           2.7089428
 Leave Link  202 at Thu Apr  2 15:12:21 2026, MaxMem=  1073741824 cpu:               0.0 elap:               0.0
 (Enter /Users/yarger/Applications/g16/l301.exe)
 Standard basis: 6-31+G(d) (6D, 7F)
 Ernie: Thresh=  0.10000D-02 Tol=  0.10000D-05 Strict=F.
 There are    77 symmetry adapted cartesian basis functions of A'  symmetry.
 There are    41 symmetry adapted cartesian basis functions of A"  symmetry.
 There are    77 symmetry adapted basis functions of A'  symmetry.
 There are    41 symmetry adapted basis functions of A"  symmetry.
   118 basis functions,   200 primitive gaussians,   118 cartesian basis functions
    25 alpha electrons       25 beta electrons
       nuclear repulsion energy       270.1885560235 Hartrees.
 IExCor=  402 DFT=T Ex+Corr=B3LYP ExCW=0 ScaHFX=  0.200000
 ScaDFX=  0.800000  0.720000  1.000000  0.810000 ScalE2=  1.000000  1.000000
 IRadAn=      5 IRanWt=     -1 IRanGd=            0 ICorTp=0 IEmpDi=  4
 NAtoms=    8 NActive=    8 NUniq=    6 SFac= 1.78D+00 NAtFMM=   60 NAOKFM=F Big=F
 Integral buffers will be    131072 words long.
 Raffenetti 2 integral format.
 Two-electron integral symmetry is turned on.
 Leave Link  301 at Thu Apr  2 15:12:21 2026, MaxMem=  1073741824 cpu:               0.1 elap:               0.0
 (Enter /Users/yarger/Applications/g16/l302.exe)
 NPDir=0 NMtPBC=     1 NCelOv=     1 NCel=       1 NClECP=     1 NCelD=      1
         NCelK=      1 NCelE2=     1 NClLst=     1 CellRange=     0.0.
 One-electron integrals computed using PRISM.
 One-electron integral symmetry used in STVInt
 NBasis=   118 RedAO= T EigKep=  1.98D-04  NBF=    77    41
 NBsUse=   118 1.00D-06 EigRej= -1.00D+00 NBFU=    77    41
 Precomputing XC quadrature grid using
 IXCGrd= 4 IRadAn=           5 IRanWt=          -1 IRanGd=           0 AccXCQ= 0.00D+00.
 Generated NRdTot=       0 NPtTot=           0 NUsed=           0 NTot=          32
 NSgBfM=   118   118   118   118   118 MxSgAt=     8 MxSgA2=     8.
 Leave Link  302 at Thu Apr  2 15:12:21 2026, MaxMem=  1073741824 cpu:               0.4 elap:               0.1
 (Enter /Users/yarger/Applications/g16/l303.exe)
 DipDrv:  MaxL=1.
 Leave Link  303 at Thu Apr  2 15:12:21 2026, MaxMem=  1073741824 cpu:               0.1 elap:               0.0
 (Enter /Users/yarger/Applications/g16/l401.exe)
 Initial guess from the checkpoint file:  "1112Tetrafluoroethane_Opt_Freq_DFT_B3LYP_631pd_Gaussian16.chk"
 B after Tr=     0.000000    0.000000   -0.000000
         Rot=    1.000000    0.000000   -0.000000    0.000115 Ang=   0.01 deg.
 Guess basis will be translated and rotated to current coordinates.
 JPrj=2 DoOrth=T DoCkMO=T.
 Initial guess orbital symmetries:
       Occupied  (A') (A') (A") (A') (A') (A') (A') (A') (A") (A')
                 (A') (A') (A") (A') (A') (A') (A") (A') (A") (A')
                 (A') (A") (A") (A") (A')
       Virtual   (A') (A') (A') (A") (A") (A') (A') (A') (A") (A')
                 (A') (A') (A') (A") (A') (A") (A') (A') (A') (A")
                 (A") (A') (A") (A') (A') (A") (A') (A') (A') (A")
                 (A') (A') (A') (A") (A') (A') (A") (A") (A') (A')
                 (A") (A') (A') (A') (A") (A') (A") (A') (A") (A")
                 (A') (A') (A') (A") (A') (A") (A') (A') (A") (A')
                 (A") (A") (A') (A") (A') (A') (A') (A") (A") (A')
                 (A") (A') (A') (A") (A') (A') (A") (A') (A") (A')
                 (A") (A') (A') (A') (A") (A') (A') (A') (A') (A')
                 (A") (A') (A')
 The electronic state of the initial guess is 1-A'.
 Leave Link  401 at Thu Apr  2 15:12:21 2026, MaxMem=  1073741824 cpu:               0.2 elap:               0.1
 (Enter /Users/yarger/Applications/g16/l502.exe)
 Keep R1 ints in memory in symmetry-blocked form, NReq=37119245.
 FoFCou: FMM=F IPFlag=           0 FMFlag=           0 FMFlg1=           0
         NFxFlg=           0 DoJE=F BraDBF=F KetDBF=F FulRan=T
         wScrn=  0.000000 ICntrl=       600 IOpCl=  0 I1Cent=           0 NGrid=           0
         NMat0=    1 NMatS0=   7021 NMatT0=    0 NMatD0=    1 NMtDS0=    0 NMtDT0=    0
 Petite list used in FoFCou.
 Closed shell SCF:
 Using DIIS extrapolation, IDIIS=  1040.
 NGot=  1073741824 LenX=  1061244307 LenY=  1061229942
 Requested convergence on RMS density matrix=1.00D-08 within 128 cycles.
 Requested convergence on MAX density matrix=1.00D-06.
 Requested convergence on             energy=1.00D-06.
 No special actions if energy rises.

 Cycle   1  Pass 1  IDiag  1:
 E= -476.809713834807    
 DIIS: error= 2.24D-05 at cycle   1 NSaved=   1.
 NSaved= 1 IEnMin= 1 EnMin= -476.809713834807     IErMin= 1 ErrMin= 2.24D-05
 ErrMax= 2.24D-05  0.00D+00 EMaxC= 1.00D-01 BMatC= 9.82D-08 BMatP= 9.82D-08
 IDIUse=1 WtCom= 1.00D+00 WtEn= 0.00D+00
 Coeff-Com:  0.100D+01
 Coeff:      0.100D+01
 Gap=     0.384 Goal=   None    Shift=    0.000
 RMSDP=4.56D-06 MaxDP=5.41D-05              OVMax= 9.66D-05

 Cycle   2  Pass 1  IDiag  1:
 E= -476.809713971512     Delta-E=       -0.000000136705 Rises=F Damp=F
 DIIS: error= 6.10D-06 at cycle   2 NSaved=   2.
 NSaved= 2 IEnMin= 2 EnMin= -476.809713971512     IErMin= 2 ErrMin= 6.10D-06
 ErrMax= 6.10D-06  0.00D+00 EMaxC= 1.00D-01 BMatC= 7.95D-09 BMatP= 9.82D-08
 IDIUse=1 WtCom= 1.00D+00 WtEn= 0.00D+00
 Coeff-Com:  0.912D-01 0.909D+00
 Coeff:      0.912D-01 0.909D+00
 Gap=     0.384 Goal=   None    Shift=    0.000
 RMSDP=1.11D-06 MaxDP=1.85D-05 DE=-1.37D-07 OVMax= 2.81D-05

 Cycle   3  Pass 1  IDiag  1:
 E= -476.809713969427     Delta-E=        0.000000002085 Rises=F Damp=F
 DIIS: error= 8.45D-06 at cycle   3 NSaved=   3.
 NSaved= 3 IEnMin= 2 EnMin= -476.809713971512     IErMin= 2 ErrMin= 6.10D-06
 ErrMax= 8.45D-06  0.00D+00 EMaxC= 1.00D-01 BMatC= 1.20D-08 BMatP= 7.95D-09
 IDIUse=1 WtCom= 1.00D+00 WtEn= 0.00D+00
 Coeff-Com: -0.265D-01 0.561D+00 0.466D+00
 Coeff:     -0.265D-01 0.561D+00 0.466D+00
 Gap=     0.384 Goal=   None    Shift=    0.000
 RMSDP=6.21D-07 MaxDP=1.18D-05 DE= 2.08D-09 OVMax= 1.59D-05

 Cycle   4  Pass 1  IDiag  1:
 E= -476.809713977071     Delta-E=       -0.000000007644 Rises=F Damp=F
 DIIS: error= 8.34D-07 at cycle   4 NSaved=   4.
 NSaved= 4 IEnMin= 4 EnMin= -476.809713977071     IErMin= 4 ErrMin= 8.34D-07
 ErrMax= 8.34D-07  0.00D+00 EMaxC= 1.00D-01 BMatC= 1.65D-10 BMatP= 7.95D-09
 IDIUse=1 WtCom= 1.00D+00 WtEn= 0.00D+00
 Coeff-Com: -0.118D-01 0.160D+00 0.185D+00 0.667D+00
 Coeff:     -0.118D-01 0.160D+00 0.185D+00 0.667D+00
 Gap=     0.384 Goal=   None    Shift=    0.000
 RMSDP=1.03D-07 MaxDP=1.88D-06 DE=-7.64D-09 OVMax= 2.58D-06

 Cycle   5  Pass 1  IDiag  1:
 E= -476.809713977179     Delta-E=       -0.000000000108 Rises=F Damp=F
 DIIS: error= 2.78D-07 at cycle   5 NSaved=   5.
 NSaved= 5 IEnMin= 5 EnMin= -476.809713977179     IErMin= 5 ErrMin= 2.78D-07
 ErrMax= 2.78D-07  0.00D+00 EMaxC= 1.00D-01 BMatC= 1.49D-11 BMatP= 1.65D-10
 IDIUse=1 WtCom= 1.00D+00 WtEn= 0.00D+00
 Coeff-Com: -0.425D-02 0.454D-01 0.678D-01 0.316D+00 0.575D+00
 Coeff:     -0.425D-02 0.454D-01 0.678D-01 0.316D+00 0.575D+00
 Gap=     0.384 Goal=   None    Shift=    0.000
 RMSDP=2.89D-08 MaxDP=7.21D-07 DE=-1.08D-10 OVMax= 8.60D-07

 Cycle   6  Pass 1  IDiag  1:
 E= -476.809713977191     Delta-E=       -0.000000000012 Rises=F Damp=F
 DIIS: error= 8.15D-08 at cycle   6 NSaved=   6.
 NSaved= 6 IEnMin= 6 EnMin= -476.809713977191     IErMin= 6 ErrMin= 8.15D-08
 ErrMax= 8.15D-08  0.00D+00 EMaxC= 1.00D-01 BMatC= 1.13D-12 BMatP= 1.49D-11
 IDIUse=1 WtCom= 1.00D+00 WtEn= 0.00D+00
 Coeff-Com: -0.937D-03 0.744D-02 0.166D-01 0.892D-01 0.264D+00 0.623D+00
 Coeff:     -0.937D-03 0.744D-02 0.166D-01 0.892D-01 0.264D+00 0.623D+00
 Gap=     0.384 Goal=   None    Shift=    0.000
 RMSDP=7.38D-09 MaxDP=1.58D-07 DE=-1.24D-11 OVMax= 1.79D-07

 SCF Done:  E(RB3LYP) =  -476.809713977     A.U. after    6 cycles
            NFock=  6  Conv=0.74D-08     -V/T= 2.0078
 KE= 4.730988949137D+02 PE=-1.670417168255D+03 EE= 4.503200033407D+02
 Leave Link  502 at Thu Apr  2 15:12:23 2026, MaxMem=  1073741824 cpu:               5.7 elap:               1.5
 (Enter /Users/yarger/Applications/g16/l701.exe)
 ... and contract with generalized density number  0.
 Compute integral first derivatives.
 Leave Link  701 at Thu Apr  2 15:12:23 2026, MaxMem=  1073741824 cpu:               0.3 elap:               0.1
 (Enter /Users/yarger/Applications/g16/l702.exe)
 L702 exits ... SP integral derivatives will be done elsewhere.
 Leave Link  702 at Thu Apr  2 15:12:23 2026, MaxMem=  1073741824 cpu:               0.1 elap:               0.0
 (Enter /Users/yarger/Applications/g16/l703.exe)
 Integral derivatives from FoFJK, PRISM(SPDF).
 Compute integral first derivatives, UseDBF=F ICtDFT=           0.
 Calling FoFJK, ICntrl=      2127 FMM=F ISym2X=1 I1Cent= 0 IOpClX= 0 NMat=1 NMatS=1 NMatT=0.
 FoFJK:  IHMeth= 1 ICntrl=    2127 DoSepK=F KAlg= 0 I1Cent=           0 FoldK=F
 IRaf=         0 NMat=       1 IRICut=       1 DoRegI=T DoRafI=F ISym2E= 1 IDoP0=0 IntGTp=1.
 FoFCou: FMM=F IPFlag=           0 FMFlag=      100000 FMFlg1=         800
         NFxFlg=           0 DoJE=F BraDBF=F KetDBF=F FulRan=T
         wScrn=  0.000000 ICntrl=      2127 IOpCl=  0 I1Cent=           0 NGrid=           0
         NMat0=    1 NMatS0=      1 NMatT0=    0 NMatD0=    1 NMtDS0=    0 NMtDT0=    0
 Petite list used in FoFCou.
 Leave Link  703 at Thu Apr  2 15:12:24 2026, MaxMem=  1073741824 cpu:               2.3 elap:               0.6
 (Enter /Users/yarger/Applications/g16/l716.exe)
 Dipole        = 5.53733548D-01 6.63440841D-01 6.66133815D-16
 ***** Axes restored to original set *****
 -------------------------------------------------------------------
 Center     Atomic                   Forces (Hartrees/Bohr)
 Number     Number              X              Y              Z
 -------------------------------------------------------------------
      1        6          -0.000043096   -0.000011245    0.000082363
      2        1           0.000017120    0.000030338   -0.000006517
      3        6           0.000025526   -0.000076440    0.000084245
      4        9          -0.000027726    0.000011559   -0.000029325
      5        9          -0.000000797    0.000040425   -0.000011293
      6        9           0.000017053    0.000010870   -0.000042869
      7        9           0.000029664    0.000001525   -0.000046743
      8        1          -0.000017743   -0.000007031   -0.000029861
 -------------------------------------------------------------------
 Cartesian Forces:  Max     0.000084245 RMS     0.000037478
 Leave Link  716 at Thu Apr  2 15:12:24 2026, MaxMem=  1073741824 cpu:               0.1 elap:               0.0
 (Enter /Users/yarger/Applications/g16/l103.exe)

 GradGradGradGradGradGradGradGradGradGradGradGradGradGradGradGradGradGrad
 Berny optimization.
 Using GEDIIS/GDIIS optimizer.
 FormGI is forming the generalized inverse of G from B-inverse, IUseBI=4.
 Internal  Forces:  Max     0.000053579 RMS     0.000021295
 Search for a local minimum.
 Step number   6 out of a maximum of   38
 All quantities printed in internal units (Hartrees-Bohrs-Radians)
 RMS Force = .21295D-04 SwitMx=.10000D-02 MixMth= 2
 Mixed Optimization -- En-DIIS/RFO-DIIS
 Swapping is turned off.
 Update second derivatives using D2CorX and points    1    2    3    4    5
                                                      6
 DE= -1.99D-07 DEPred=-1.69D-07 R= 1.18D+00
 Trust test= 1.18D+00 RLast= 1.13D-03 DXMaxT set to 4.00D-01
 ITU=  0  1  1  1  1  0
     Eigenvalues ---    0.00237   0.05472   0.05769   0.08047   0.08692
     Eigenvalues ---    0.16000   0.16894   0.21288   0.23237   0.25000
     Eigenvalues ---    0.27970   0.32280   0.37230   0.38263   0.39725
     Eigenvalues ---    0.48205   0.55021   0.57768
 En-DIIS/RFO-DIIS/Sim-DIIS IScMMF=       -3 using points:     6    5    4    3
 RFO step:  Lambda=-3.56231820D-08.
 NNeg= 0 NGDIIS= 4 SimSw=  2.50D-01 Rises=F DC= -1.99D-07 SmlDif=  1.00D-05
 NRisDI= 0 DoIntr=F SqrtH=F CThrHd= 10.0 CDAdj=  3.0
 RMS Error=  0.8488823467D-04 NUsed= 4 OKEnD=F EnDIS=F
 InvSVX:  RCond= 1.01D-07 Info=           0 Equed=N FErr=  3.66D-15 BErr=  9.06D-17
 DidBck=F Rises=F RFO-DIIS coefs:    1.21258   -0.16188   -0.07718    0.02648
 Iteration  1 RMS(Cart)=  0.00006738 RMS(Int)=  0.00000021
 Iteration  2 RMS(Cart)=  0.00000000 RMS(Int)=  0.00000021
 ITry= 1 IFail=0 DXMaxC= 1.45D-04 DCOld= 1.00D+10 DXMaxT= 4.00D-01 DXLimC= 3.00D+00 Rises=F
 ClnCor:  largest displacement from symmetrization is 7.33D-09 for atom     5.
 Variable       Old X    -DE/DX   Delta X   Delta X   Delta X     New X
                                 (Linear)    (Quad)   (Total)
    R1        2.06604   0.00003   0.00004   0.00006   0.00009   2.06613
    R2        2.87749   0.00002   0.00013  -0.00000   0.00013   2.87762
    R3        2.61638  -0.00005   0.00001  -0.00013  -0.00012   2.61626
    R4        2.06604   0.00003   0.00004   0.00006   0.00009   2.06613
    R5        2.54719  -0.00004  -0.00009  -0.00002  -0.00011   2.54707
    R6        2.54719  -0.00004  -0.00009  -0.00002  -0.00011   2.54707
    R7        2.56430   0.00005   0.00011   0.00003   0.00014   2.56445
    A1        1.90512  -0.00001  -0.00007   0.00003  -0.00004   1.90508
    A2        1.90325   0.00001   0.00012  -0.00003   0.00008   1.90334
    A3        1.93447   0.00001   0.00008  -0.00005   0.00003   1.93451
    A4        1.91255  -0.00002  -0.00018   0.00006  -0.00013   1.91242
    A5        1.90512  -0.00001  -0.00007   0.00003  -0.00004   1.90508
    A6        1.90325   0.00001   0.00012  -0.00003   0.00008   1.90334
    A7        1.95683  -0.00001  -0.00003   0.00001  -0.00003   1.95681
    A8        1.95683  -0.00001  -0.00003   0.00001  -0.00003   1.95681
    A9        1.89885   0.00000   0.00002  -0.00004  -0.00001   1.89883
   A10        1.88200   0.00002   0.00009   0.00007   0.00015   1.88215
   A11        1.88331   0.00000  -0.00002  -0.00003  -0.00005   1.88326
   A12        1.88331   0.00000  -0.00002  -0.00003  -0.00005   1.88326
    D1        1.02321  -0.00000  -0.00004  -0.00004  -0.00008   1.02313
    D2       -3.14003   0.00001   0.00002   0.00006   0.00009  -3.13994
    D3       -1.05841   0.00000  -0.00001   0.00001   0.00000  -1.05840
    D4       -1.05997  -0.00001  -0.00003  -0.00005  -0.00008  -1.06006
    D5        1.05997   0.00001   0.00003   0.00005   0.00008   1.06006
    D6       -3.14159   0.00000   0.00000   0.00000  -0.00000   3.14159
    D7        3.14003  -0.00001  -0.00002  -0.00006  -0.00009   3.13994
    D8       -1.02321   0.00000   0.00004   0.00004   0.00008  -1.02313
    D9        1.05841  -0.00000   0.00001  -0.00001  -0.00000   1.05840
         Item               Value     Threshold  Converged?
 Maximum Force            0.000054     0.000015     NO 
 RMS     Force            0.000021     0.000010     NO 
 Maximum Displacement     0.000145     0.000060     NO 
 RMS     Displacement     0.000067     0.000040     NO 
 Predicted change in Energy=-2.145394D-08
 Lowest energy point so far.  Saving SCF results.
 GradGradGradGradGradGradGradGradGradGradGradGradGradGradGradGradGradGrad

 Leave Link  103 at Thu Apr  2 15:12:24 2026, MaxMem=  1073741824 cpu:               0.0 elap:               0.0
 (Enter /Users/yarger/Applications/g16/l202.exe)
                          Input orientation:                          
 ---------------------------------------------------------------------
 Center     Atomic      Atomic             Coordinates (Angstroms)
 Number     Number       Type             X           Y           Z
 ---------------------------------------------------------------------
      1          6           0       -1.501978    1.414073    1.452213
      2          1           0       -1.162342    2.453323    1.447960
      3          6           0       -0.321165    0.501322    1.149898
      4          9           0        0.676841    0.649823    2.043563
      5          9           0       -0.674989   -0.799210    1.138377
      6          9           0        0.168174    0.811406   -0.077281
      7          9           0       -2.014262    1.111129    2.702228
      8          1           0       -2.279456    1.255882    0.699940
 ---------------------------------------------------------------------
                    Distance matrix (angstroms):
                    1          2          3          4          5
     1  C    0.000000
     2  H    1.093349   0.000000
     3  C    1.522770   2.146329   0.000000
     4  F    2.383490   2.643851   1.347853   0.000000
     5  F    2.383490   3.303381   1.347853   2.178647   0.000000
     6  F    2.343495   2.606247   1.357046   2.186969   2.186969
     7  F    1.384466   2.024955   2.376588   2.808679   2.808679
     8  H    1.093349   1.800373   2.146329   3.303381   2.643851
                    6          7          8
     6  F    0.000000
     7  F    3.546623   0.000000
     8  H    2.606247   2.024955   0.000000
 Stoichiometry    C2H2F4
 Framework group  CS[SG(C2F2),X(H2F2)]
 Deg. of freedom    11
 Full point group                 CS      NOp   2
 RotChk:  IX=2 Diff= 8.59D-05
 Largest Abelian subgroup         CS      NOp   2
 Largest concise Abelian subgroup CS      NOp   2
                         Standard orientation:                         
 ---------------------------------------------------------------------
 Center     Atomic      Atomic             Coordinates (Angstroms)
 Number     Number       Type             X           Y           Z
 ---------------------------------------------------------------------
      1          6           0        1.160253    0.246187    0.000000
      2          1           0        1.499969    0.765484   -0.900186
      3          6           0       -0.361471    0.189784    0.000000
      4          9           0       -0.845975   -0.438975   -1.089324
      5          9           0       -0.845975   -0.438975    1.089324
      6          9           0       -0.845975    1.457392    0.000000
      7          9           0        1.672077   -1.040197   -0.000000
      8          1           0        1.499969    0.765484    0.900186
 ---------------------------------------------------------------------
 Rotational constants (GHZ):           5.2572871           2.7486329           2.7090496
 Leave Link  202 at Thu Apr  2 15:12:24 2026, MaxMem=  1073741824 cpu:               0.0 elap:               0.0
 (Enter /Users/yarger/Applications/g16/l301.exe)
 Standard basis: 6-31+G(d) (6D, 7F)
 Ernie: Thresh=  0.10000D-02 Tol=  0.10000D-05 Strict=F.
 There are    77 symmetry adapted cartesian basis functions of A'  symmetry.
 There are    41 symmetry adapted cartesian basis functions of A"  symmetry.
 There are    77 symmetry adapted basis functions of A'  symmetry.
 There are    41 symmetry adapted basis functions of A"  symmetry.
   118 basis functions,   200 primitive gaussians,   118 cartesian basis functions
    25 alpha electrons       25 beta electrons
       nuclear repulsion energy       270.1908572828 Hartrees.
 IExCor=  402 DFT=T Ex+Corr=B3LYP ExCW=0 ScaHFX=  0.200000
 ScaDFX=  0.800000  0.720000  1.000000  0.810000 ScalE2=  1.000000  1.000000
 IRadAn=      5 IRanWt=     -1 IRanGd=            0 ICorTp=0 IEmpDi=  4
 NAtoms=    8 NActive=    8 NUniq=    6 SFac= 1.78D+00 NAtFMM=   60 NAOKFM=F Big=F
 Integral buffers will be    131072 words long.
 Raffenetti 2 integral format.
 Two-electron integral symmetry is turned on.
 Leave Link  301 at Thu Apr  2 15:12:24 2026, MaxMem=  1073741824 cpu:               0.1 elap:               0.0
 (Enter /Users/yarger/Applications/g16/l302.exe)
 NPDir=0 NMtPBC=     1 NCelOv=     1 NCel=       1 NClECP=     1 NCelD=      1
         NCelK=      1 NCelE2=     1 NClLst=     1 CellRange=     0.0.
 One-electron integrals computed using PRISM.
 One-electron integral symmetry used in STVInt
 NBasis=   118 RedAO= T EigKep=  1.98D-04  NBF=    77    41
 NBsUse=   118 1.00D-06 EigRej= -1.00D+00 NBFU=    77    41
 Precomputing XC quadrature grid using
 IXCGrd= 4 IRadAn=           5 IRanWt=          -1 IRanGd=           0 AccXCQ= 0.00D+00.
 Generated NRdTot=       0 NPtTot=           0 NUsed=           0 NTot=          32
 NSgBfM=   118   118   118   118   118 MxSgAt=     8 MxSgA2=     8.
 Leave Link  302 at Thu Apr  2 15:12:24 2026, MaxMem=  1073741824 cpu:               0.4 elap:               0.1
 (Enter /Users/yarger/Applications/g16/l303.exe)
 DipDrv:  MaxL=1.
 Leave Link  303 at Thu Apr  2 15:12:24 2026, MaxMem=  1073741824 cpu:               0.1 elap:               0.0
 (Enter /Users/yarger/Applications/g16/l401.exe)
 Initial guess from the checkpoint file:  "1112Tetrafluoroethane_Opt_Freq_DFT_B3LYP_631pd_Gaussian16.chk"
 B after Tr=    -0.000000   -0.000000    0.000000
         Rot=    1.000000   -0.000000   -0.000000    0.000032 Ang=   0.00 deg.
 Guess basis will be translated and rotated to current coordinates.
 JPrj=2 DoOrth=T DoCkMO=T.
 Initial guess orbital symmetries:
       Occupied  (A') (A') (A") (A') (A') (A') (A') (A') (A") (A')
                 (A') (A') (A") (A') (A') (A') (A") (A') (A") (A')
                 (A') (A") (A") (A") (A')
       Virtual   (A') (A') (A') (A") (A") (A') (A') (A') (A") (A')
                 (A') (A') (A') (A") (A') (A") (A') (A') (A') (A")
                 (A") (A') (A") (A') (A') (A") (A') (A') (A') (A")
                 (A') (A') (A') (A") (A') (A') (A") (A") (A') (A')
                 (A") (A') (A') (A') (A") (A') (A") (A') (A") (A")
                 (A') (A') (A') (A") (A') (A") (A') (A') (A") (A')
                 (A") (A") (A') (A") (A') (A') (A') (A") (A") (A')
                 (A") (A') (A') (A") (A') (A') (A") (A') (A") (A')
                 (A") (A') (A') (A') (A") (A') (A') (A') (A') (A')
                 (A") (A') (A')
 The electronic state of the initial guess is 1-A'.
 Leave Link  401 at Thu Apr  2 15:12:24 2026, MaxMem=  1073741824 cpu:               0.2 elap:               0.1
 (Enter /Users/yarger/Applications/g16/l502.exe)
 Keep R1 ints in memory in symmetry-blocked form, NReq=37119245.
 FoFCou: FMM=F IPFlag=           0 FMFlag=           0 FMFlg1=           0
         NFxFlg=           0 DoJE=F BraDBF=F KetDBF=F FulRan=T
         wScrn=  0.000000 ICntrl=       600 IOpCl=  0 I1Cent=           0 NGrid=           0
         NMat0=    1 NMatS0=   7021 NMatT0=    0 NMatD0=    1 NMtDS0=    0 NMtDT0=    0
 Petite list used in FoFCou.
 Closed shell SCF:
 Using DIIS extrapolation, IDIIS=  1040.
 NGot=  1073741824 LenX=  1061244307 LenY=  1061229942
 Requested convergence on RMS density matrix=1.00D-08 within 128 cycles.
 Requested convergence on MAX density matrix=1.00D-06.
 Requested convergence on             energy=1.00D-06.
 No special actions if energy rises.

 Cycle   1  Pass 1  IDiag  1:
 E= -476.809713981114    
 DIIS: error= 9.39D-06 at cycle   1 NSaved=   1.
 NSaved= 1 IEnMin= 1 EnMin= -476.809713981114     IErMin= 1 ErrMin= 9.39D-06
 ErrMax= 9.39D-06  0.00D+00 EMaxC= 1.00D-01 BMatC= 1.37D-08 BMatP= 1.37D-08
 IDIUse=1 WtCom= 1.00D+00 WtEn= 0.00D+00
 Coeff-Com:  0.100D+01
 Coeff:      0.100D+01
 Gap=     0.384 Goal=   None    Shift=    0.000
 RMSDP=1.63D-06 MaxDP=1.83D-05              OVMax= 4.20D-05

 Cycle   2  Pass 1  IDiag  1:
 E= -476.809713998790     Delta-E=       -0.000000017676 Rises=F Damp=F
 DIIS: error= 3.43D-06 at cycle   2 NSaved=   2.
 NSaved= 2 IEnMin= 2 EnMin= -476.809713998790     IErMin= 2 ErrMin= 3.43D-06
 ErrMax= 3.43D-06  0.00D+00 EMaxC= 1.00D-01 BMatC= 2.31D-09 BMatP= 1.37D-08
 IDIUse=1 WtCom= 1.00D+00 WtEn= 0.00D+00
 Coeff-Com:  0.182D+00 0.818D+00
 Coeff:      0.182D+00 0.818D+00
 Gap=     0.384 Goal=   None    Shift=    0.000
 RMSDP=5.04D-07 MaxDP=1.08D-05 DE=-1.77D-08 OVMax= 1.34D-05

 Cycle   3  Pass 1  IDiag  1:
 E= -476.809713998625     Delta-E=        0.000000000165 Rises=F Damp=F
 DIIS: error= 3.66D-06 at cycle   3 NSaved=   3.
 NSaved= 3 IEnMin= 2 EnMin= -476.809713998790     IErMin= 2 ErrMin= 3.43D-06
 ErrMax= 3.66D-06  0.00D+00 EMaxC= 1.00D-01 BMatC= 2.65D-09 BMatP= 2.31D-09
 IDIUse=1 WtCom= 1.00D+00 WtEn= 0.00D+00
 Coeff-Com: -0.264D-01 0.524D+00 0.503D+00
 Coeff:     -0.264D-01 0.524D+00 0.503D+00
 Gap=     0.384 Goal=   None    Shift=    0.000
 RMSDP=3.03D-07 MaxDP=6.20D-06 DE= 1.65D-10 OVMax= 8.25D-06

 Cycle   4  Pass 1  IDiag  1:
 E= -476.809714000329     Delta-E=       -0.000000001703 Rises=F Damp=F
 DIIS: error= 3.80D-07 at cycle   4 NSaved=   4.
 NSaved= 4 IEnMin= 4 EnMin= -476.809714000329     IErMin= 4 ErrMin= 3.80D-07
 ErrMax= 3.80D-07  0.00D+00 EMaxC= 1.00D-01 BMatC= 3.12D-11 BMatP= 2.31D-09
 IDIUse=1 WtCom= 1.00D+00 WtEn= 0.00D+00
 Coeff-Com: -0.125D-01 0.175D+00 0.208D+00 0.630D+00
 Coeff:     -0.125D-01 0.175D+00 0.208D+00 0.630D+00
 Gap=     0.384 Goal=   None    Shift=    0.000
 RMSDP=5.26D-08 MaxDP=1.26D-06 DE=-1.70D-09 OVMax= 1.48D-06

 Cycle   5  Pass 1  IDiag  1:
 E= -476.809714000350     Delta-E=       -0.000000000022 Rises=F Damp=F
 DIIS: error= 1.22D-07 at cycle   5 NSaved=   5.
 NSaved= 5 IEnMin= 5 EnMin= -476.809714000350     IErMin= 5 ErrMin= 1.22D-07
 ErrMax= 1.22D-07  0.00D+00 EMaxC= 1.00D-01 BMatC= 2.96D-12 BMatP= 3.12D-11
 IDIUse=1 WtCom= 1.00D+00 WtEn= 0.00D+00
 Coeff-Com: -0.382D-02 0.358D-01 0.576D-01 0.287D+00 0.623D+00
 Coeff:     -0.382D-02 0.358D-01 0.576D-01 0.287D+00 0.623D+00
 Gap=     0.384 Goal=   None    Shift=    0.000
 RMSDP=1.27D-08 MaxDP=3.92D-07 DE=-2.18D-11 OVMax= 3.76D-07

 Cycle   6  Pass 1  IDiag  1:
 E= -476.809714000352     Delta-E=       -0.000000000002 Rises=F Damp=F
 DIIS: error= 2.19D-08 at cycle   6 NSaved=   6.
 NSaved= 6 IEnMin= 6 EnMin= -476.809714000352     IErMin= 6 ErrMin= 2.19D-08
 ErrMax= 2.19D-08  0.00D+00 EMaxC= 1.00D-01 BMatC= 7.73D-14 BMatP= 2.96D-12
 IDIUse=1 WtCom= 1.00D+00 WtEn= 0.00D+00
 Coeff-Com: -0.694D-03 0.326D-02 0.962D-02 0.705D-01 0.207D+00 0.711D+00
 Coeff:     -0.694D-03 0.326D-02 0.962D-02 0.705D-01 0.207D+00 0.711D+00
 Gap=     0.384 Goal=   None    Shift=    0.000
 RMSDP=2.22D-09 MaxDP=5.95D-08 DE=-1.93D-12 OVMax= 5.53D-08

 SCF Done:  E(RB3LYP) =  -476.809714000     A.U. after    6 cycles
            NFock=  6  Conv=0.22D-08     -V/T= 2.0078
 KE= 4.730988997555D+02 PE=-1.670421762574D+03 EE= 4.503222915353D+02
 Leave Link  502 at Thu Apr  2 15:12:26 2026, MaxMem=  1073741824 cpu:               5.8 elap:               1.5
 (Enter /Users/yarger/Applications/g16/l701.exe)
 ... and contract with generalized density number  0.
 Compute integral first derivatives.
 Leave Link  701 at Thu Apr  2 15:12:26 2026, MaxMem=  1073741824 cpu:               0.3 elap:               0.1
 (Enter /Users/yarger/Applications/g16/l702.exe)
 L702 exits ... SP integral derivatives will be done elsewhere.
 Leave Link  702 at Thu Apr  2 15:12:26 2026, MaxMem=  1073741824 cpu:               0.1 elap:               0.0
 (Enter /Users/yarger/Applications/g16/l703.exe)
 Integral derivatives from FoFJK, PRISM(SPDF).
 Compute integral first derivatives, UseDBF=F ICtDFT=           0.
 Calling FoFJK, ICntrl=      2127 FMM=F ISym2X=1 I1Cent= 0 IOpClX= 0 NMat=1 NMatS=1 NMatT=0.
 FoFJK:  IHMeth= 1 ICntrl=    2127 DoSepK=F KAlg= 0 I1Cent=           0 FoldK=F
 IRaf=         0 NMat=       1 IRICut=       1 DoRegI=T DoRafI=F ISym2E= 1 IDoP0=0 IntGTp=1.
 FoFCou: FMM=F IPFlag=           0 FMFlag=      100000 FMFlg1=         800
         NFxFlg=           0 DoJE=F BraDBF=F KetDBF=F FulRan=T
         wScrn=  0.000000 ICntrl=      2127 IOpCl=  0 I1Cent=           0 NGrid=           0
         NMat0=    1 NMatS0=      1 NMatT0=    0 NMatD0=    1 NMtDS0=    0 NMtDT0=    0
 Petite list used in FoFCou.
 Leave Link  703 at Thu Apr  2 15:12:26 2026, MaxMem=  1073741824 cpu:               2.3 elap:               0.6
 (Enter /Users/yarger/Applications/g16/l716.exe)
 Dipole        = 5.53801729D-01 6.62996962D-01 1.33226763D-15
 ***** Axes restored to original set *****
 -------------------------------------------------------------------
 Center     Atomic                   Forces (Hartrees/Bohr)
 Number     Number              X              Y              Z
 -------------------------------------------------------------------
      1        6          -0.000001183   -0.000012775    0.000022218
      2        1           0.000001447    0.000001953   -0.000003762
      3        6          -0.000005925   -0.000000998    0.000010446
      4        9          -0.000004043   -0.000002895   -0.000001190
      5        9           0.000002073    0.000003661    0.000002906
      6        9           0.000002994    0.000005744   -0.000013666
      7        9           0.000003977    0.000004201   -0.000012663
      8        1           0.000000661    0.000001109   -0.000004288
 -------------------------------------------------------------------
 Cartesian Forces:  Max     0.000022218 RMS     0.000007412
 Leave Link  716 at Thu Apr  2 15:12:26 2026, MaxMem=  1073741824 cpu:               0.1 elap:               0.0
 (Enter /Users/yarger/Applications/g16/l103.exe)

 GradGradGradGradGradGradGradGradGradGradGradGradGradGradGradGradGradGrad
 Berny optimization.
 Using GEDIIS/GDIIS optimizer.
 FormGI is forming the generalized inverse of G from B-inverse, IUseBI=4.
 Internal  Forces:  Max     0.000014696 RMS     0.000004748
 Search for a local minimum.
 Step number   7 out of a maximum of   38
 All quantities printed in internal units (Hartrees-Bohrs-Radians)
 RMS Force = .47485D-05 SwitMx=.10000D-02 MixMth= 2
 Mixed Optimization -- En-DIIS/RFO-DIIS
 Swapping is turned off.
 Update second derivatives using D2CorX and points    1    2    3    4    5
                                                      6    7
 DE= -2.32D-08 DEPred=-2.15D-08 R= 1.08D+00
 Trust test= 1.08D+00 RLast= 4.45D-04 DXMaxT set to 4.00D-01
 ITU=  0  0  1  1  1  1  0
     Eigenvalues ---    0.00237   0.05595   0.05770   0.08435   0.08692
     Eigenvalues ---    0.16000   0.16610   0.22357   0.24042   0.25000
     Eigenvalues ---    0.28111   0.30803   0.35200   0.37230   0.38215
     Eigenvalues ---    0.45628   0.55021   0.57713
 En-DIIS/RFO-DIIS/Sim-DIIS IScMMF=       -3 using points:     7    6    5    4    3
 RFO step:  Lambda=-1.79343089D-09.
 NNeg= 0 NGDIIS= 5 SimSw=  2.50D-01 Rises=F DC= -2.32D-08 SmlDif=  1.00D-05
 NRisDI= 0 DoIntr=F SqrtH=F CThrHd= 10.0 CDAdj=  3.0
 RMS Error=  0.2453626477D-04 NUsed= 5 OKEnD=F EnDIS=F
 InvSVX:  RCond= 3.87D-09 Info=           0 Equed=N FErr=  7.19D-15 BErr=  7.97D-17
 DIIS inversion failure, remove point   5.
 InvSVX:  RCond= 1.11D-08 Info=           0 Equed=N FErr=  2.33D-15 BErr=  5.37D-17
 DIIS inversion failure, remove point   4.
 InvSVX:  RCond= 1.49D-08 Info=           0 Equed=N FErr=  2.03D-15 BErr=  3.95D-17
 DIIS inversion failure, remove point   3.
 InvSVX:  RCond= 4.95D-08 Info=           0 Equed=N FErr=  1.18D-15 BErr=  3.34D-17
 DIIS inversion failure, remove point   2.
 Use linear search instead of GDIIS.
 RFO step:  Lambda= 0.00000000D+00 EMin= 2.36824250D-03
 Quartic linear search produced a step of  0.06888.
 Iteration  1 RMS(Cart)=  0.00002146 RMS(Int)=  0.00000000
 Iteration  2 RMS(Cart)=  0.00000000 RMS(Int)=  0.00000000
 ITry= 1 IFail=0 DXMaxC= 5.03D-05 DCOld= 1.00D+10 DXMaxT= 4.00D-01 DXLimC= 3.00D+00 Rises=F
 ClnCor:  largest displacement from symmetrization is 5.04D-09 for atom     5.
 Variable       Old X    -DE/DX   Delta X   Delta X   Delta X     New X
                                 (Linear)    (Quad)   (Total)
    R1        2.06613   0.00000   0.00001   0.00001   0.00001   2.06614
    R2        2.87762  -0.00001   0.00001  -0.00002  -0.00001   2.87761
    R3        2.61626  -0.00001  -0.00001  -0.00003  -0.00004   2.61623
    R4        2.06613   0.00000   0.00001   0.00001   0.00001   2.06614
    R5        2.54707  -0.00000  -0.00001  -0.00001  -0.00001   2.54706
    R6        2.54707  -0.00000  -0.00001  -0.00001  -0.00001   2.54706
    R7        2.56445   0.00001   0.00001   0.00002   0.00003   2.56448
    A1        1.90508  -0.00000  -0.00000  -0.00002  -0.00003   1.90505
    A2        1.90334   0.00000   0.00001   0.00002   0.00003   1.90336
    A3        1.93451  -0.00000   0.00000  -0.00003  -0.00003   1.93448
    A4        1.91242   0.00001  -0.00001   0.00004   0.00003   1.91245
    A5        1.90508  -0.00000  -0.00000  -0.00002  -0.00003   1.90505
    A6        1.90334   0.00000   0.00001   0.00002   0.00003   1.90336
    A7        1.95681   0.00000  -0.00000   0.00000   0.00000   1.95681
    A8        1.95681   0.00000  -0.00000   0.00000   0.00000   1.95681
    A9        1.89883  -0.00001  -0.00000  -0.00001  -0.00001   1.89882
   A10        1.88215  -0.00000   0.00001  -0.00003  -0.00002   1.88213
   A11        1.88326   0.00000  -0.00000   0.00002   0.00001   1.88328
   A12        1.88326   0.00000  -0.00000   0.00002   0.00001   1.88328
    D1        1.02313   0.00000  -0.00001   0.00005   0.00005   1.02318
    D2       -3.13994   0.00000   0.00001   0.00002   0.00002  -3.13992
    D3       -1.05840   0.00000   0.00000   0.00003   0.00003  -1.05837
    D4       -1.06006   0.00000  -0.00001   0.00002   0.00001  -1.06005
    D5        1.06006  -0.00000   0.00001  -0.00002  -0.00001   1.06005
    D6        3.14159  -0.00000  -0.00000   0.00000  -0.00000   3.14159
    D7        3.13994  -0.00000  -0.00001  -0.00002  -0.00002   3.13992
    D8       -1.02313  -0.00000   0.00001  -0.00005  -0.00005  -1.02318
    D9        1.05840  -0.00000  -0.00000  -0.00003  -0.00003   1.05837
         Item               Value     Threshold  Converged?
 Maximum Force            0.000015     0.000015     YES
 RMS     Force            0.000005     0.000010     YES
 Maximum Displacement     0.000050     0.000060     YES
 RMS     Displacement     0.000021     0.000040     YES
 Predicted change in Energy=-1.152347D-09
 Optimization completed.
    -- Stationary point found.
                           ----------------------------
                           !   Optimized Parameters   !
                           ! (Angstroms and Degrees)  !
 --------------------------                            --------------------------
 ! Name  Definition              Value          Derivative Info.                !
 --------------------------------------------------------------------------------
 ! R1    R(1,2)                  1.0933         -DE/DX =    0.0                 !
 ! R2    R(1,3)                  1.5228         -DE/DX =    0.0                 !
 ! R3    R(1,7)                  1.3845         -DE/DX =    0.0                 !
 ! R4    R(1,8)                  1.0933         -DE/DX =    0.0                 !
 ! R5    R(3,4)                  1.3479         -DE/DX =    0.0                 !
 ! R6    R(3,5)                  1.3479         -DE/DX =    0.0                 !
 ! R7    R(3,6)                  1.357          -DE/DX =    0.0                 !
 ! A1    A(2,1,3)              109.1529         -DE/DX =    0.0                 !
 ! A2    A(2,1,7)              109.0531         -DE/DX =    0.0                 !
 ! A3    A(2,1,8)              110.839          -DE/DX =    0.0                 !
 ! A4    A(3,1,7)              109.5738         -DE/DX =    0.0                 !
 ! A5    A(3,1,8)              109.1529         -DE/DX =    0.0                 !
 ! A6    A(7,1,8)              109.0531         -DE/DX =    0.0                 !
 ! A7    A(1,3,4)              112.1168         -DE/DX =    0.0                 !
 ! A8    A(1,3,5)              112.1168         -DE/DX =    0.0                 !
 ! A9    A(1,3,6)              108.7951         -DE/DX =    0.0                 !
 ! A10   A(4,3,5)              107.8393         -DE/DX =    0.0                 !
 ! A11   A(4,3,6)              107.903          -DE/DX =    0.0                 !
 ! A12   A(5,3,6)              107.903          -DE/DX =    0.0                 !
 ! D1    D(2,1,3,4)             58.6211         -DE/DX =    0.0                 !
 ! D2    D(2,1,3,5)           -179.9053         -DE/DX =    0.0                 !
 ! D3    D(2,1,3,6)            -60.6421         -DE/DX =    0.0                 !
 ! D4    D(7,1,3,4)            -60.7368         -DE/DX =    0.0                 !
 ! D5    D(7,1,3,5)             60.7368         -DE/DX =    0.0                 !
 ! D6    D(7,1,3,6)            180.0            -DE/DX =    0.0                 !
 ! D7    D(8,1,3,4)            179.9053         -DE/DX =    0.0                 !
 ! D8    D(8,1,3,5)            -58.6211         -DE/DX =    0.0                 !
 ! D9    D(8,1,3,6)             60.6421         -DE/DX =    0.0                 !
 --------------------------------------------------------------------------------
 Lowest energy point so far.  Saving SCF results.
 Largest change from initial coordinates is atom    7       1.664 Angstoms.
 GradGradGradGradGradGradGradGradGradGradGradGradGradGradGradGradGradGrad

 Leave Link  103 at Thu Apr  2 15:12:27 2026, MaxMem=  1073741824 cpu:               0.1 elap:               0.0
 (Enter /Users/yarger/Applications/g16/l202.exe)
                          Input orientation:                          
 ---------------------------------------------------------------------
 Center     Atomic      Atomic             Coordinates (Angstroms)
 Number     Number       Type             X           Y           Z
 ---------------------------------------------------------------------
      1          6           0       -1.501978    1.414073    1.452213
      2          1           0       -1.162342    2.453323    1.447960
      3          6           0       -0.321165    0.501322    1.149898
      4          9           0        0.676841    0.649823    2.043563
      5          9           0       -0.674989   -0.799210    1.138377
      6          9           0        0.168174    0.811406   -0.077281
      7          9           0       -2.014262    1.111129    2.702228
      8          1           0       -2.279456    1.255882    0.699940
 ---------------------------------------------------------------------
                    Distance matrix (angstroms):
                    1          2          3          4          5
     1  C    0.000000
     2  H    1.093349   0.000000
     3  C    1.522770   2.146329   0.000000
     4  F    2.383490   2.643851   1.347853   0.000000
     5  F    2.383490   3.303381   1.347853   2.178647   0.000000
     6  F    2.343495   2.606247   1.357046   2.186969   2.186969
     7  F    1.384466   2.024955   2.376588   2.808679   2.808679
     8  H    1.093349   1.800373   2.146329   3.303381   2.643851
                    6          7          8
     6  F    0.000000
     7  F    3.546623   0.000000
     8  H    2.606247   2.024955   0.000000
 Stoichiometry    C2H2F4
 Framework group  CS[SG(C2F2),X(H2F2)]
 Deg. of freedom    11
 Full point group                 CS      NOp   2
 RotChk:  IX=2 Diff= 8.67D-16
 Largest Abelian subgroup         CS      NOp   2
 Largest concise Abelian subgroup CS      NOp   2
                         Standard orientation:                         
 ---------------------------------------------------------------------
 Center     Atomic      Atomic             Coordinates (Angstroms)
 Number     Number       Type             X           Y           Z
 ---------------------------------------------------------------------
      1          6           0        1.160253    0.246187   -0.000000
      2          1           0        1.499969    0.765484   -0.900186
      3          6           0       -0.361471    0.189784   -0.000000
      4          9           0       -0.845975   -0.438975   -1.089324
      5          9           0       -0.845975   -0.438975    1.089324
      6          9           0       -0.845975    1.457392   -0.000000
      7          9           0        1.672077   -1.040197    0.000000
      8          1           0        1.499969    0.765484    0.900186
 ---------------------------------------------------------------------
 Rotational constants (GHZ):           5.2572871           2.7486329           2.7090496
 Leave Link  202 at Thu Apr  2 15:12:27 2026, MaxMem=  1073741824 cpu:               0.0 elap:               0.0
 (Enter /Users/yarger/Applications/g16/l601.exe)
 Copying SCF densities to generalized density rwf, IOpCl= 0 IROHF=0.

 **********************************************************************

            Population analysis using the SCF density.

 **********************************************************************

 Orbital symmetries:
       Occupied  (A') (A') (A") (A') (A') (A') (A') (A') (A") (A')
                 (A') (A') (A") (A') (A') (A') (A") (A') (A") (A')
                 (A') (A") (A") (A") (A')
       Virtual   (A') (A') (A') (A") (A") (A') (A') (A') (A") (A')
                 (A') (A') (A') (A") (A') (A") (A') (A') (A') (A")
                 (A") (A') (A") (A') (A') (A") (A') (A') (A') (A")
                 (A') (A') (A') (A") (A') (A') (A") (A") (A') (A')
                 (A") (A') (A') (A') (A") (A') (A") (A') (A") (A")
                 (A') (A') (A') (A") (A') (A") (A') (A') (A") (A')
                 (A") (A") (A') (A") (A') (A') (A') (A") (A") (A')
                 (A") (A') (A') (A") (A') (A') (A") (A') (A") (A')
                 (A") (A') (A') (A') (A") (A') (A') (A') (A') (A')
                 (A") (A') (A')
 The electronic state is 1-A'.
 Alpha  occ. eigenvalues --  -24.76841 -24.76548 -24.76548 -24.73571 -10.46742
 Alpha  occ. eigenvalues --  -10.31563  -1.33898  -1.25335  -1.25175  -1.23627
 Alpha  occ. eigenvalues --   -0.80808  -0.69740  -0.62038  -0.61968  -0.59507
 Alpha  occ. eigenvalues --   -0.53371  -0.53160  -0.49132  -0.49094  -0.46407
 Alpha  occ. eigenvalues --   -0.45314  -0.45214  -0.43511  -0.39185  -0.38509
 Alpha virt. eigenvalues --   -0.00128   0.01005   0.03587   0.03623   0.06199
 Alpha virt. eigenvalues --    0.07332   0.08019   0.09517   0.12861   0.12980
 Alpha virt. eigenvalues --    0.17845   0.18153   0.19991   0.21015   0.21786
 Alpha virt. eigenvalues --    0.22751   0.24868   0.26956   0.27711   0.28132
 Alpha virt. eigenvalues --    0.29644   0.30569   0.31940   0.33148   0.34303
 Alpha virt. eigenvalues --    0.34959   0.35381   0.36647   0.41610   0.42358
 Alpha virt. eigenvalues --    0.44080   0.58771   0.68793   0.70313   0.75155
 Alpha virt. eigenvalues --    0.77441   0.78706   0.90130   0.99236   1.15208
 Alpha virt. eigenvalues --    1.17746   1.20918   1.35695   1.50028   1.50580
 Alpha virt. eigenvalues --    1.52591   1.52593   1.56661   1.56761   1.57559
 Alpha virt. eigenvalues --    1.59055   1.62964   1.63870   1.64019   1.65746
 Alpha virt. eigenvalues --    1.66852   1.67657   1.72274   1.78117   1.79853
 Alpha virt. eigenvalues --    1.79999   1.80769   1.82268   1.86153   1.90278
 Alpha virt. eigenvalues --    1.91866   1.99172   1.99564   2.02319   2.03863
 Alpha virt. eigenvalues --    2.04211   2.08613   2.10103   2.15004   2.20115
 Alpha virt. eigenvalues --    2.32838   2.32924   2.36561   2.47850   2.48984
 Alpha virt. eigenvalues --    2.74269   2.77762   2.80586   3.05681   3.10535
 Alpha virt. eigenvalues --    3.16922   3.26920   4.27127   4.58319   5.33284
 Alpha virt. eigenvalues --    5.42450   5.55746   6.19253
          Condensed to atoms (all electrons):
               1          2          3          4          5          6
     1  C    5.147860   0.390322   0.346533  -0.082070  -0.082070  -0.085464
     2  H    0.390322   0.509226  -0.043539  -0.008406   0.008205   0.000959
     3  C    0.346533  -0.043539   4.308239   0.205108   0.205108   0.173550
     4  F   -0.082070  -0.008406   0.205108   9.262391  -0.054874  -0.039317
     5  F   -0.082070   0.008205   0.205108  -0.054874   9.262391  -0.039317
     6  F   -0.085464   0.000959   0.173550  -0.039317  -0.039317   9.284537
     7  F    0.135745  -0.042506  -0.059533   0.006509   0.006509   0.006724
     8  H    0.390322  -0.037926  -0.043539   0.008205  -0.008406   0.000959
               7          8
     1  C    0.135745   0.390322
     2  H   -0.042506  -0.037926
     3  C   -0.059533  -0.043539
     4  F    0.006509   0.008205
     5  F    0.006509  -0.008406
     6  F    0.006724   0.000959
     7  F    9.285561  -0.042506
     8  H   -0.042506   0.509226
 Mulliken charges:
               1
     1  C   -0.161179
     2  H    0.223666
     3  C    0.908073
     4  F   -0.297546
     5  F   -0.297546
     6  F   -0.302631
     7  F   -0.296502
     8  H    0.223666
 Sum of Mulliken charges =  -0.00000
 Mulliken charges with hydrogens summed into heavy atoms:
               1
     1  C    0.286152
     3  C    0.908073
     4  F   -0.297546
     5  F   -0.297546
     6  F   -0.302631
     7  F   -0.296502
 Electronic spatial extent (au):  <R**2>=            484.1682
 Charge=             -0.0000 electrons
 Dipole moment (field-independent basis, Debye):
    X=              1.4076    Y=              1.6852    Z=             -0.0000  Tot=              2.1957
 Quadrupole moment (field-independent basis, Debye-Ang):
   XX=            -32.8093   YY=            -34.2756   ZZ=            -32.2455
   XY=              3.4674   XZ=             -0.0000   YZ=             -0.0000
 Traceless Quadrupole moment (field-independent basis, Debye-Ang):
   XX=              0.3008   YY=             -1.1654   ZZ=              0.8646
   XY=              3.4674   XZ=             -0.0000   YZ=             -0.0000
 Octapole moment (field-independent basis, Debye-Ang**2):
  XXX=             -6.4762  YYY=             -3.9388  ZZZ=             -0.0000  XYY=             -1.8002
  XXY=              3.9078  XXZ=              0.0000  XZZ=              1.1897  YZZ=              0.7202
  YYZ=              0.0000  XYZ=              0.0000
 Hexadecapole moment (field-independent basis, Debye-Ang**3):
 XXXX=           -240.8867 YYYY=           -143.1612 ZZZZ=           -101.5585 XXXY=             34.0513
 XXXZ=             -0.0000 YYYX=             28.9759 YYYZ=              0.0000 ZZZX=             -0.0000
 ZZZY=             -0.0000 XXYY=            -66.2774 XXZZ=            -54.8705 YYZZ=            -39.7173
 XXYZ=             -0.0000 YYXZ=             -0.0000 ZZXY=              9.9220
 N-N= 2.701908572828D+02 E-N=-1.670421765115D+03  KE= 4.730988997555D+02
 Symmetry A'   KE= 3.569663747516D+02
 Symmetry A"   KE= 1.161325250038D+02
 No NMR shielding tensors so no spin-rotation constants.
 Leave Link  601 at Thu Apr  2 15:12:27 2026, MaxMem=  1073741824 cpu:               0.3 elap:               0.1
 (Enter /Users/yarger/Applications/g16/l9999.exe)
 1\1\GINC-MACBOOKPRO\FOpt\RB3LYP\6-31+G(d)\C2H2F4\ROOT\02-Apr-2026\0\\#
 p opt=tight freq=raman b3lyp/6-31+g(d) guess=save geom=connectivity po
 lar\\r134a - 1,1,1,2-Tetrafluoroethane\\0,1\C,-1.5019782068,1.41407278
 82,1.4522132219\H,-1.1623418876,2.4533229443,1.4479599862\C,-0.3211654
 866,0.5013218426,1.1498981311\F,0.6768406589,0.6498234508,2.0435633857
 \F,-0.6749892109,-0.7992098272,1.1383773081\F,0.1681738344,0.811406026
 4,-0.0772813841\F,-2.0142624154,1.1111293686,2.7022282403\H,-2.2794561
 898,1.2558824709,0.699939591\\Version=EM64M-G16RevA.03\State=1-A'\HF=-
 476.809714\RMSD=2.221e-09\RMSF=7.412e-06\Dipole=-0.3730716,0.6323792,-
 0.4551653\Quadrupole=0.0222131,1.5743851,-1.5965981,-0.6781317,2.01242
 32,-0.4784884\PG=CS [SG(C2F2),X(H2F2)]\\@


 NEVER LOSE YOUR IGNORANCE, IT CAN'T BE REPLACED.
   -- ANDY CAPP
 Leave Link 9999 at Thu Apr  2 15:12:27 2026, MaxMem=  1073741824 cpu:               0.1 elap:               0.0
 Job cpu time:       0 days  0 hours  1 minutes 20.3 seconds.
 Elapsed time:       0 days  0 hours  0 minutes 21.2 seconds.
 File lengths (MBytes):  RWF=     10 Int=      0 D2E=      0 Chk=      2 Scr=      1
 Normal termination of Gaussian 16 at Thu Apr  2 15:12:27 2026.
 (Enter /Users/yarger/Applications/g16/l1.exe)
 Link1:  Proceeding to internal job step number  2.
 ---------------------------------------------------------------------
 #P Geom=AllCheck Guess=TCheck SCRF=Check GenChk RB3LYP/6-31+G(d) Freq
 ---------------------------------------------------------------------
 1/7=10,10=4,29=7,30=1,38=1,40=1/1,3;
 2/12=2,40=1/2;
 3/5=1,6=6,7=11,11=2,14=-4,25=1,30=1,70=2,71=2,74=-5,116=1,140=1/1,2,3;
 4/5=101/1;
 5/5=2,38=6,98=1/2;
 8/6=4,10=90,11=11/1;
 10/13=10,15=4/2;
 11/6=3,8=1,9=11,15=111,16=1/1,2,10;
 10/6=1/2;
 6/7=2,8=2,9=2,10=2,28=1/1;
 7/8=1,10=1,25=1/1,2,3,16;
 1/7=10,10=4,30=1/3;
 99//99;
 Leave Link    1 at Thu Apr  2 15:12:27 2026, MaxMem=  1073741824 cpu:               0.1 elap:               0.0
 (Enter /Users/yarger/Applications/g16/l101.exe)
 Structure from the checkpoint file:  "1112Tetrafluoroethane_Opt_Freq_DFT_B3LYP_631pd_Gaussian16.chk"
 ---------------------------------
 r134a - 1,1,1,2-Tetrafluoroethane
 ---------------------------------
 Charge =  0 Multiplicity = 1
 Redundant internal coordinates found in file.  (old form).
 C,0,-1.5019782068,1.4140727882,1.4522132219
 H,0,-1.1623418876,2.4533229443,1.4479599862
 C,0,-0.3211654866,0.5013218426,1.1498981311
 F,0,0.6768406589,0.6498234508,2.0435633857
 F,0,-0.6749892109,-0.7992098272,1.1383773081
 F,0,0.1681738344,0.8114060264,-0.0772813841
 F,0,-2.0142624154,1.1111293686,2.7022282403
 H,0,-2.2794561898,1.2558824709,0.699939591
 Recover connectivity data from disk.
 ITRead=  0  0  0  0  0  0  0  0
 MicOpt= -1 -1 -1 -1 -1 -1 -1 -1
 NAtoms=      8 NQM=        8 NQMF=       0 NMMI=      0 NMMIF=      0
                NMic=       0 NMicF=      0.
                    Isotopes and Nuclear Properties:
 (Nuclear quadrupole moments (NQMom) in fm**2, nuclear magnetic moments (NMagM)
  in nuclear magnetons)

  Atom         1           2           3           4           5           6           7           8
 IAtWgt=          12           1          12          19          19          19          19           1
 AtmWgt=  12.0000000   1.0078250  12.0000000  18.9984033  18.9984033  18.9984033  18.9984033   1.0078250
 NucSpn=           0           1           0           1           1           1           1           1
 AtZEff=   3.6000000   1.0000000   3.6000000   6.7500000   6.7500000   6.7500000   6.7500000   1.0000000
 NQMom=    0.0000000   0.0000000   0.0000000   0.0000000   0.0000000   0.0000000   0.0000000   0.0000000
 NMagM=    0.0000000   2.7928460   0.0000000   2.6288670   2.6288670   2.6288670   2.6288670   2.7928460
 AtZNuc=   6.0000000   1.0000000   6.0000000   9.0000000   9.0000000   9.0000000   9.0000000   1.0000000
 Leave Link  101 at Thu Apr  2 15:12:27 2026, MaxMem=  1073741824 cpu:               0.6 elap:               0.2
 (Enter /Users/yarger/Applications/g16/l103.exe)

 GradGradGradGradGradGradGradGradGradGradGradGradGradGradGradGradGradGrad
 Berny optimization.
 Initialization pass.
                           ----------------------------
                           !    Initial Parameters    !
                           ! (Angstroms and Degrees)  !
 --------------------------                            --------------------------
 ! Name  Definition              Value          Derivative Info.                !
 --------------------------------------------------------------------------------
 ! R1    R(1,2)                  1.0933         calculate D2E/DX2 analytically  !
 ! R2    R(1,3)                  1.5228         calculate D2E/DX2 analytically  !
 ! R3    R(1,7)                  1.3845         calculate D2E/DX2 analytically  !
 ! R4    R(1,8)                  1.0933         calculate D2E/DX2 analytically  !
 ! R5    R(3,4)                  1.3479         calculate D2E/DX2 analytically  !
 ! R6    R(3,5)                  1.3479         calculate D2E/DX2 analytically  !
 ! R7    R(3,6)                  1.357          calculate D2E/DX2 analytically  !
 ! A1    A(2,1,3)              109.1529         calculate D2E/DX2 analytically  !
 ! A2    A(2,1,7)              109.0531         calculate D2E/DX2 analytically  !
 ! A3    A(2,1,8)              110.839          calculate D2E/DX2 analytically  !
 ! A4    A(3,1,7)              109.5738         calculate D2E/DX2 analytically  !
 ! A5    A(3,1,8)              109.1529         calculate D2E/DX2 analytically  !
 ! A6    A(7,1,8)              109.0531         calculate D2E/DX2 analytically  !
 ! A7    A(1,3,4)              112.1168         calculate D2E/DX2 analytically  !
 ! A8    A(1,3,5)              112.1168         calculate D2E/DX2 analytically  !
 ! A9    A(1,3,6)              108.7951         calculate D2E/DX2 analytically  !
 ! A10   A(4,3,5)              107.8393         calculate D2E/DX2 analytically  !
 ! A11   A(4,3,6)              107.903          calculate D2E/DX2 analytically  !
 ! A12   A(5,3,6)              107.903          calculate D2E/DX2 analytically  !
 ! D1    D(2,1,3,4)             58.6211         calculate D2E/DX2 analytically  !
 ! D2    D(2,1,3,5)           -179.9053         calculate D2E/DX2 analytically  !
 ! D3    D(2,1,3,6)            -60.6421         calculate D2E/DX2 analytically  !
 ! D4    D(7,1,3,4)            -60.7368         calculate D2E/DX2 analytically  !
 ! D5    D(7,1,3,5)             60.7368         calculate D2E/DX2 analytically  !
 ! D6    D(7,1,3,6)            180.0            calculate D2E/DX2 analytically  !
 ! D7    D(8,1,3,4)            179.9053         calculate D2E/DX2 analytically  !
 ! D8    D(8,1,3,5)            -58.6211         calculate D2E/DX2 analytically  !
 ! D9    D(8,1,3,6)             60.6421         calculate D2E/DX2 analytically  !
 --------------------------------------------------------------------------------
 Trust Radius=3.00D-01 FncErr=1.00D-07 GrdErr=1.00D-07 EigMax=2.50D+02 EigMin=1.00D-04
 Number of steps in this run=      2 maximum allowed number of steps=      2.
 GradGradGradGradGradGradGradGradGradGradGradGradGradGradGradGradGradGrad

 Leave Link  103 at Thu Apr  2 15:12:27 2026, MaxMem=  1073741824 cpu:               0.0 elap:               0.0
 (Enter /Users/yarger/Applications/g16/l202.exe)
                          Input orientation:                          
 ---------------------------------------------------------------------
 Center     Atomic      Atomic             Coordinates (Angstroms)
 Number     Number       Type             X           Y           Z
 ---------------------------------------------------------------------
      1          6           0       -1.501978    1.414073    1.452213
      2          1           0       -1.162342    2.453323    1.447960
      3          6           0       -0.321165    0.501322    1.149898
      4          9           0        0.676841    0.649823    2.043563
      5          9           0       -0.674989   -0.799210    1.138377
      6          9           0        0.168174    0.811406   -0.077281
      7          9           0       -2.014262    1.111129    2.702228
      8          1           0       -2.279456    1.255882    0.699940
 ---------------------------------------------------------------------
                    Distance matrix (angstroms):
                    1          2          3          4          5
     1  C    0.000000
     2  H    1.093349   0.000000
     3  C    1.522770   2.146329   0.000000
     4  F    2.383490   2.643851   1.347853   0.000000
     5  F    2.383490   3.303381   1.347853   2.178647   0.000000
     6  F    2.343495   2.606247   1.357046   2.186969   2.186969
     7  F    1.384466   2.024955   2.376588   2.808679   2.808679
     8  H    1.093349   1.800373   2.146329   3.303381   2.643851
                    6          7          8
     6  F    0.000000
     7  F    3.546623   0.000000
     8  H    2.606247   2.024955   0.000000
 Stoichiometry    C2H2F4
 Framework group  CS[SG(C2F2),X(H2F2)]
 Deg. of freedom    11
 Full point group                 CS      NOp   2
 RotChk:  IX=2 Diff= 1.86D-15
 Largest Abelian subgroup         CS      NOp   2
 Largest concise Abelian subgroup CS      NOp   2
                         Standard orientation:                         
 ---------------------------------------------------------------------
 Center     Atomic      Atomic             Coordinates (Angstroms)
 Number     Number       Type             X           Y           Z
 ---------------------------------------------------------------------
      1          6           0        1.160253    0.246187    0.000000
      2          1           0        1.499969    0.765484   -0.900186
      3          6           0       -0.361471    0.189784   -0.000000
      4          9           0       -0.845975   -0.438975   -1.089324
      5          9           0       -0.845975   -0.438975    1.089324
      6          9           0       -0.845975    1.457392   -0.000000
      7          9           0        1.672077   -1.040197    0.000000
      8          1           0        1.499969    0.765484    0.900186
 ---------------------------------------------------------------------
 Rotational constants (GHZ):           5.2572871           2.7486329           2.7090496
 Leave Link  202 at Thu Apr  2 15:12:27 2026, MaxMem=  1073741824 cpu:               0.0 elap:               0.0
 (Enter /Users/yarger/Applications/g16/l301.exe)
 Standard basis: 6-31+G(d) (6D, 7F)
 Ernie: Thresh=  0.10000D-02 Tol=  0.10000D-05 Strict=F.
 There are    77 symmetry adapted cartesian basis functions of A'  symmetry.
 There are    41 symmetry adapted cartesian basis functions of A"  symmetry.
 There are    77 symmetry adapted basis functions of A'  symmetry.
 There are    41 symmetry adapted basis functions of A"  symmetry.
   118 basis functions,   200 primitive gaussians,   118 cartesian basis functions
    25 alpha electrons       25 beta electrons
       nuclear repulsion energy       270.1908572828 Hartrees.
 IExCor=  402 DFT=T Ex+Corr=B3LYP ExCW=0 ScaHFX=  0.200000
 ScaDFX=  0.800000  0.720000  1.000000  0.810000 ScalE2=  1.000000  1.000000
 IRadAn=      5 IRanWt=     -1 IRanGd=            0 ICorTp=0 IEmpDi=  4
 NAtoms=    8 NActive=    8 NUniq=    6 SFac= 1.78D+00 NAtFMM=   60 NAOKFM=F Big=F
 Integral buffers will be    131072 words long.
 Raffenetti 2 integral format.
 Two-electron integral symmetry is turned on.
 Leave Link  301 at Thu Apr  2 15:12:27 2026, MaxMem=  1073741824 cpu:               0.1 elap:               0.0
 (Enter /Users/yarger/Applications/g16/l302.exe)
 NPDir=0 NMtPBC=     1 NCelOv=     1 NCel=       1 NClECP=     1 NCelD=      1
         NCelK=      1 NCelE2=     1 NClLst=     1 CellRange=     0.0.
 One-electron integrals computed using PRISM.
 One-electron integral symmetry used in STVInt
 NBasis=   118 RedAO= T EigKep=  1.98D-04  NBF=    77    41
 NBsUse=   118 1.00D-06 EigRej= -1.00D+00 NBFU=    77    41
 Precomputing XC quadrature grid using
 IXCGrd= 4 IRadAn=           5 IRanWt=          -1 IRanGd=           0 AccXCQ= 0.00D+00.
 Generated NRdTot=       0 NPtTot=           0 NUsed=           0 NTot=          32
 NSgBfM=   118   118   118   118   118 MxSgAt=     8 MxSgA2=     8.
 Leave Link  302 at Thu Apr  2 15:12:27 2026, MaxMem=  1073741824 cpu:               0.4 elap:               0.1
 (Enter /Users/yarger/Applications/g16/l303.exe)
 DipDrv:  MaxL=1.
 Leave Link  303 at Thu Apr  2 15:12:27 2026, MaxMem=  1073741824 cpu:               0.1 elap:               0.0
 (Enter /Users/yarger/Applications/g16/l401.exe)
 Initial guess from the checkpoint file:  "1112Tetrafluoroethane_Opt_Freq_DFT_B3LYP_631pd_Gaussian16.chk"
 B after Tr=     0.000000    0.000000    0.000000
         Rot=    1.000000   -0.000000    0.000000    0.000000 Ang=   0.00 deg.
 Guess basis will be translated and rotated to current coordinates.
 JPrj=2 DoOrth=T DoCkMO=T.
 Initial guess orbital symmetries:
       Occupied  (A') (A') (A") (A') (A') (A') (A') (A') (A") (A')
                 (A') (A') (A") (A') (A') (A') (A") (A') (A") (A')
                 (A') (A") (A") (A") (A')
       Virtual   (A') (A') (A') (A") (A") (A') (A') (A') (A") (A')
                 (A') (A') (A') (A") (A') (A") (A') (A') (A') (A")
                 (A") (A') (A") (A') (A') (A") (A') (A') (A') (A")
                 (A') (A') (A') (A") (A') (A') (A") (A") (A') (A')
                 (A") (A') (A') (A') (A") (A') (A") (A') (A") (A")
                 (A') (A') (A') (A") (A') (A") (A') (A') (A") (A')
                 (A") (A") (A') (A") (A') (A') (A') (A") (A") (A')
                 (A") (A') (A') (A") (A') (A') (A") (A') (A") (A')
                 (A") (A') (A') (A') (A") (A') (A') (A') (A') (A')
                 (A") (A') (A')
 The electronic state of the initial guess is 1-A'.
 Leave Link  401 at Thu Apr  2 15:12:27 2026, MaxMem=  1073741824 cpu:               0.2 elap:               0.1
 (Enter /Users/yarger/Applications/g16/l502.exe)
 Keep R1 ints in memory in symmetry-blocked form, NReq=37119245.
 FoFCou: FMM=F IPFlag=           0 FMFlag=           0 FMFlg1=           0
         NFxFlg=           0 DoJE=F BraDBF=F KetDBF=F FulRan=T
         wScrn=  0.000000 ICntrl=       600 IOpCl=  0 I1Cent=           0 NGrid=           0
         NMat0=    1 NMatS0=   7021 NMatT0=    0 NMatD0=    1 NMtDS0=    0 NMtDT0=    0
 Petite list used in FoFCou.
 Closed shell SCF:
 Using DIIS extrapolation, IDIIS=  1040.
 NGot=  1073741824 LenX=  1061244307 LenY=  1061229942
 Requested convergence on RMS density matrix=1.00D-08 within 128 cycles.
 Requested convergence on MAX density matrix=1.00D-06.
 Requested convergence on             energy=1.00D-06.
 No special actions if energy rises.

 Cycle   1  Pass 1  IDiag  1:
 E= -476.809714000350    
 DIIS: error= 1.45D-08 at cycle   1 NSaved=   1.
 NSaved= 1 IEnMin= 1 EnMin= -476.809714000350     IErMin= 1 ErrMin= 1.45D-08
 ErrMax= 1.45D-08  0.00D+00 EMaxC= 1.00D-01 BMatC= 3.08D-14 BMatP= 3.08D-14
 IDIUse=1 WtCom= 1.00D+00 WtEn= 0.00D+00
 Coeff-Com:  0.100D+01
 Coeff:      0.100D+01
 Gap=     0.384 Goal=   None    Shift=    0.000
 RMSDP=2.16D-09 MaxDP=6.32D-08              OVMax= 7.08D-08

 SCF Done:  E(RB3LYP) =  -476.809714000     A.U. after    1 cycles
            NFock=  1  Conv=0.22D-08     -V/T= 2.0078
 KE= 4.730988965094D+02 PE=-1.670421761869D+03 EE= 4.503222940767D+02
 Leave Link  502 at Thu Apr  2 15:12:28 2026, MaxMem=  1073741824 cpu:               2.5 elap:               0.7
 (Enter /Users/yarger/Applications/g16/l801.exe)
 DoSCS=F DFT=T ScalE2(SS,OS)=  1.000000  1.000000
 Range of M.O.s used for correlation:     1   118
 NBasis=   118 NAE=    25 NBE=    25 NFC=     0 NFV=     0
 NROrb=    118 NOA=    25 NOB=    25 NVA=    93 NVB=    93

 **** Warning!!: The largest alpha MO coefficient is  0.27270586D+02

 Leave Link  801 at Thu Apr  2 15:12:28 2026, MaxMem=  1073741824 cpu:               0.1 elap:               0.0
 (Enter /Users/yarger/Applications/g16/l1002.exe)
 Minotr:  Closed shell wavefunction.
          Direct CPHF calculation.
          Differentiating once with respect to electric field.
                with respect to dipole field.
          Electric field/nuclear overlap derivatives assumed to be zero.
          Using symmetry in CPHF.
          Requested convergence is 1.0D-08 RMS, and 1.0D-07 maximum.
          Secondary convergence is 1.0D-12 RMS, and 1.0D-12 maximum.
          NewPWx=F KeepS1=T KeepF1=T KeepIn=T MapXYZ=F SortEE=F KeepMc=T.
         2455 words used for storage of precomputed grid.
 Keep R1 ints in memory in symmetry-blocked form, NReq=37122690.
 FoFCou: FMM=F IPFlag=           0 FMFlag=           0 FMFlg1=           0
         NFxFlg=           0 DoJE=F BraDBF=F KetDBF=F FulRan=T
         wScrn=  0.000000 ICntrl=       600 IOpCl=  0 I1Cent=           0 NGrid=           0
         NMat0=    1 NMatS0=   7021 NMatT0=    0 NMatD0=    1 NMtDS0=    0 NMtDT0=    0
 Petite list used in FoFCou.
 Two-electron integral symmetry used by symmetrizing perturbed Fock matrices.
          MDV=    1073741824 using IRadAn=       1.
          Solving linear equations simultaneously, MaxMat=       0.
          There are     3 degrees of freedom in the 1st order CPHF.  IDoFFX=0 NUNeed=     3.
      3 vectors produced by pass  0 Test12= 7.75D-14 3.33D-08 XBig12= 1.44D+01 1.29D+00.
 AX will form     3 AO Fock derivatives at one time.
      3 vectors produced by pass  1 Test12= 7.75D-14 3.33D-08 XBig12= 3.73D+00 3.57D-01.
      3 vectors produced by pass  2 Test12= 7.75D-14 3.33D-08 XBig12= 6.29D-01 1.62D-01.
      3 vectors produced by pass  3 Test12= 7.75D-14 3.33D-08 XBig12= 3.95D-02 5.08D-02.
      3 vectors produced by pass  4 Test12= 7.75D-14 3.33D-08 XBig12= 4.24D-03 1.20D-02.
      3 vectors produced by pass  5 Test12= 7.75D-14 3.33D-08 XBig12= 2.75D-04 3.43D-03.
      3 vectors produced by pass  6 Test12= 7.75D-14 3.33D-08 XBig12= 1.01D-04 2.13D-03.
      3 vectors produced by pass  7 Test12= 7.75D-14 3.33D-08 XBig12= 3.38D-06 2.94D-04.
      3 vectors produced by pass  8 Test12= 7.75D-14 3.33D-08 XBig12= 5.01D-08 4.02D-05.
      3 vectors produced by pass  9 Test12= 7.75D-14 3.33D-08 XBig12= 1.08D-09 5.98D-06.
      2 vectors produced by pass 10 Test12= 7.75D-14 3.33D-08 XBig12= 9.94D-12 6.07D-07.
      1 vectors produced by pass 11 Test12= 7.75D-14 3.33D-08 XBig12= 1.63D-13 8.36D-08.
 InvSVY:  IOpt=1 It=  1 EMax= 1.33D-15
 Solved reduced A of dimension    33 with     3 vectors.
 End of Minotr F.D. properties file   721 does not exist.
 End of Minotr F.D. properties file   722 does not exist.
 End of Minotr F.D. properties file   788 does not exist.
 Leave Link 1002 at Thu Apr  2 15:12:30 2026, MaxMem=  1073741824 cpu:               7.3 elap:               1.9
 (Enter /Users/yarger/Applications/g16/l1101.exe)
 Using compressed storage, NAtomX=     8.
 Will process      9 centers per pass.
 Leave Link 1101 at Thu Apr  2 15:12:30 2026, MaxMem=  1073741824 cpu:               0.3 elap:               0.1
 (Enter /Users/yarger/Applications/g16/l1102.exe)
 Symmetrizing basis deriv contribution to polar:
 IMax=3 JMax=2 DiffMx= 0.00D+00
 Leave Link 1102 at Thu Apr  2 15:12:30 2026, MaxMem=  1073741824 cpu:               0.1 elap:               0.0
 (Enter /Users/yarger/Applications/g16/l1110.exe)
 Forming Gx(P) for the SCF density, NAtomX=     8.
 Integral derivatives from FoFJK, PRISM(SPDF).
 Do as many integral derivatives as possible in FoFJK.
 G2DrvN: MDV=    1073741112.
 G2DrvN: will do     9 centers at a time, making    1 passes.
 PxScal for G2LodP:  IOpCl= 0 ISclPx=1 IMOff=     1 NMtTot=     4 NTT=    7021 ScalPx= 3.35D+00
 Calling FoFCou, ICntrl=  3107 FMM=F I1Cent=   0 AccDes= 0.00D+00.
 FoFJK:  IHMeth= 1 ICntrl=    3107 DoSepK=F KAlg= 0 I1Cent=           0 FoldK=F
 IRaf=         0 NMat=       1 IRICut=       1 DoRegI=T DoRafI=F ISym2E= 1 IDoP0=0 IntGTp=1.
 FoFCou: FMM=F IPFlag=           0 FMFlag=      100000 FMFlg1=           0
         NFxFlg=           0 DoJE=F BraDBF=F KetDBF=F FulRan=T
         wScrn=  0.000000 ICntrl=      3107 IOpCl=  0 I1Cent=           0 NGrid=           0
         NMat0=    1 NMatS0=      1 NMatT0=    0 NMatD0=    4 NMtDS0=    3 NMtDT0=    0
 Petite list used in FoFCou.
 End of G2Drv F.D. properties file   721 does not exist.
 End of G2Drv F.D. properties file   722 does not exist.
 End of G2Drv F.D. properties file   788 does not exist.
 Leave Link 1110 at Thu Apr  2 15:12:35 2026, MaxMem=  1073741824 cpu:              20.9 elap:               5.3
 (Enter /Users/yarger/Applications/g16/l1002.exe)
 Minotr:  Closed shell wavefunction.
          IDoAtm=11111111
          Direct CPHF calculation.
          Differentiating once with respect to electric field.
                with respect to dipole field.
          Differentiating once with respect to nuclear coordinates.
          Using symmetry in CPHF.
          Requested convergence is 1.0D-08 RMS, and 1.0D-07 maximum.
          Secondary convergence is 1.0D-12 RMS, and 1.0D-12 maximum.
          NewPWx=T KeepS1=F KeepF1=F KeepIn=T MapXYZ=F SortEE=F KeepMc=T.
         2455 words used for storage of precomputed grid.
 Keep R1 ints in memory in symmetry-blocked form, NReq=37122874.
 FoFCou: FMM=F IPFlag=           0 FMFlag=           0 FMFlg1=           0
         NFxFlg=           0 DoJE=F BraDBF=F KetDBF=F FulRan=T
         wScrn=  0.000000 ICntrl=       600 IOpCl=  0 I1Cent=           0 NGrid=           0
         NMat0=    1 NMatS0=   7021 NMatT0=    0 NMatD0=    1 NMtDS0=    0 NMtDT0=    0
 Petite list used in FoFCou.
          MDV=    1073741824 using IRadAn=       1.
          Solving linear equations simultaneously, MaxMat=       0.
          There are    21 degrees of freedom in the 1st order CPHF.  IDoFFX=4 NUNeed=    21.
 Will reuse    3 saved solutions.
     18 vectors produced by pass  0 Test12= 1.11D-14 4.76D-09 XBig12= 1.48D-01 9.95D-02.
 AX will form    18 AO Fock derivatives at one time.
     18 vectors produced by pass  1 Test12= 1.11D-14 4.76D-09 XBig12= 2.15D-02 2.31D-02.
     18 vectors produced by pass  2 Test12= 1.11D-14 4.76D-09 XBig12= 6.26D-04 5.53D-03.
     18 vectors produced by pass  3 Test12= 1.11D-14 4.76D-09 XBig12= 7.67D-06 5.50D-04.
     18 vectors produced by pass  4 Test12= 1.11D-14 4.76D-09 XBig12= 2.73D-08 3.28D-05.
     18 vectors produced by pass  5 Test12= 1.11D-14 4.76D-09 XBig12= 7.17D-11 1.27D-06.
      6 vectors produced by pass  6 Test12= 1.11D-14 4.76D-09 XBig12= 1.21D-13 4.69D-08.
 InvSVY:  IOpt=1 It=  1 EMax= 2.78D-16
 Solved reduced A of dimension   114 with    21 vectors.
 FullF1:  Do perturbations      1 to      21.
 Isotropic polarizability for W=    0.000000       28.47 Bohr**3.
 FullF1:  Do perturbations      1 to       6.
 End of Minotr F.D. properties file   721 does not exist.
 End of Minotr F.D. properties file   722 does not exist.
 End of Minotr F.D. properties file   788 does not exist.
 Leave Link 1002 at Thu Apr  2 15:12:42 2026, MaxMem=  1073741824 cpu:              26.5 elap:               6.7
 (Enter /Users/yarger/Applications/g16/l601.exe)
 Copying SCF densities to generalized density rwf, IOpCl= 0 IROHF=0.

 **********************************************************************

            Population analysis using the SCF density.

 **********************************************************************

 Orbital symmetries:
       Occupied  (A') (A') (A") (A') (A') (A') (A') (A') (A") (A')
                 (A') (A') (A") (A') (A') (A') (A") (A') (A") (A')
                 (A') (A") (A") (A") (A')
       Virtual   (A') (A') (A') (A") (A") (A') (A') (A') (A") (A')
                 (A') (A') (A') (A") (A') (A") (A') (A') (A') (A")
                 (A") (A') (A") (A') (A') (A") (A') (A') (A') (A")
                 (A') (A') (A') (A") (A') (A') (A") (A") (A') (A')
                 (A") (A') (A') (A') (A") (A') (A") (A') (A") (A")
                 (A') (A') (A') (A") (A') (A") (A') (A') (A") (A')
                 (A") (A") (A') (A") (A') (A') (A') (A") (A") (A')
                 (A") (A') (A') (A") (A') (A') (A") (A') (A") (A')
                 (A") (A') (A') (A') (A") (A') (A') (A') (A') (A')
                 (A") (A') (A')
 The electronic state is 1-A'.
 Alpha  occ. eigenvalues --  -24.76841 -24.76548 -24.76548 -24.73571 -10.46742
 Alpha  occ. eigenvalues --  -10.31563  -1.33898  -1.25335  -1.25175  -1.23627
 Alpha  occ. eigenvalues --   -0.80808  -0.69740  -0.62038  -0.61968  -0.59507
 Alpha  occ. eigenvalues --   -0.53371  -0.53160  -0.49132  -0.49094  -0.46407
 Alpha  occ. eigenvalues --   -0.45314  -0.45214  -0.43511  -0.39185  -0.38509
 Alpha virt. eigenvalues --   -0.00128   0.01005   0.03587   0.03623   0.06199
 Alpha virt. eigenvalues --    0.07332   0.08019   0.09517   0.12861   0.12980
 Alpha virt. eigenvalues --    0.17845   0.18153   0.19991   0.21015   0.21786
 Alpha virt. eigenvalues --    0.22751   0.24868   0.26956   0.27711   0.28132
 Alpha virt. eigenvalues --    0.29644   0.30569   0.31940   0.33148   0.34303
 Alpha virt. eigenvalues --    0.34959   0.35381   0.36647   0.41610   0.42358
 Alpha virt. eigenvalues --    0.44080   0.58771   0.68793   0.70313   0.75155
 Alpha virt. eigenvalues --    0.77441   0.78706   0.90130   0.99236   1.15208
 Alpha virt. eigenvalues --    1.17746   1.20918   1.35695   1.50028   1.50580
 Alpha virt. eigenvalues --    1.52591   1.52593   1.56661   1.56761   1.57559
 Alpha virt. eigenvalues --    1.59055   1.62964   1.63870   1.64019   1.65746
 Alpha virt. eigenvalues --    1.66852   1.67657   1.72274   1.78117   1.79853
 Alpha virt. eigenvalues --    1.79999   1.80769   1.82268   1.86153   1.90278
 Alpha virt. eigenvalues --    1.91866   1.99172   1.99564   2.02319   2.03863
 Alpha virt. eigenvalues --    2.04211   2.08613   2.10103   2.15004   2.20115
 Alpha virt. eigenvalues --    2.32838   2.32924   2.36561   2.47850   2.48984
 Alpha virt. eigenvalues --    2.74269   2.77762   2.80586   3.05681   3.10535
 Alpha virt. eigenvalues --    3.16922   3.26920   4.27127   4.58319   5.33284
 Alpha virt. eigenvalues --    5.42450   5.55746   6.19253
          Condensed to atoms (all electrons):
               1          2          3          4          5          6
     1  C    5.147860   0.390322   0.346533  -0.082070  -0.082070  -0.085464
     2  H    0.390322   0.509226  -0.043539  -0.008406   0.008205   0.000959
     3  C    0.346533  -0.043539   4.308240   0.205108   0.205108   0.173550
     4  F   -0.082070  -0.008406   0.205108   9.262391  -0.054874  -0.039317
     5  F   -0.082070   0.008205   0.205108  -0.054874   9.262391  -0.039317
     6  F   -0.085464   0.000959   0.173550  -0.039317  -0.039317   9.284537
     7  F    0.135745  -0.042506  -0.059533   0.006509   0.006509   0.006724
     8  H    0.390322  -0.037926  -0.043539   0.008205  -0.008406   0.000959
               7          8
     1  C    0.135745   0.390322
     2  H   -0.042506  -0.037926
     3  C   -0.059533  -0.043539
     4  F    0.006509   0.008205
     5  F    0.006509  -0.008406
     6  F    0.006724   0.000959
     7  F    9.285561  -0.042506
     8  H   -0.042506   0.509226
 Mulliken charges:
               1
     1  C   -0.161179
     2  H    0.223666
     3  C    0.908073
     4  F   -0.297546
     5  F   -0.297546
     6  F   -0.302630
     7  F   -0.296502
     8  H    0.223666
 Sum of Mulliken charges =  -0.00000
 Mulliken charges with hydrogens summed into heavy atoms:
               1
     1  C    0.286153
     3  C    0.908073
     4  F   -0.297546
     5  F   -0.297546
     6  F   -0.302630
     7  F   -0.296502
 APT charges:
               1
     1  C    0.500813
     2  H    0.004869
     3  C    1.602460
     4  F   -0.544499
     5  F   -0.544499
     6  F   -0.549465
     7  F   -0.474548
     8  H    0.004869
 Sum of APT charges =   0.00000
 APT charges with hydrogens summed into heavy atoms:
               1
     1  C    0.510550
     3  C    1.602460
     4  F   -0.544499
     5  F   -0.544499
     6  F   -0.549465
     7  F   -0.474548
 Electronic spatial extent (au):  <R**2>=            484.1682
 Charge=             -0.0000 electrons
 Dipole moment (field-independent basis, Debye):
    X=              1.4076    Y=              1.6852    Z=             -0.0000  Tot=              2.1957
 Quadrupole moment (field-independent basis, Debye-Ang):
   XX=            -32.8093   YY=            -34.2756   ZZ=            -32.2455
   XY=              3.4674   XZ=              0.0000   YZ=              0.0000
 Traceless Quadrupole moment (field-independent basis, Debye-Ang):
   XX=              0.3008   YY=             -1.1654   ZZ=              0.8646
   XY=              3.4674   XZ=              0.0000   YZ=              0.0000
 Octapole moment (field-independent basis, Debye-Ang**2):
  XXX=             -6.4762  YYY=             -3.9388  ZZZ=             -0.0000  XYY=             -1.8002
  XXY=              3.9078  XXZ=             -0.0000  XZZ=              1.1897  YZZ=              0.7202
  YYZ=             -0.0000  XYZ=              0.0000
 Hexadecapole moment (field-independent basis, Debye-Ang**3):
 XXXX=           -240.8867 YYYY=           -143.1612 ZZZZ=           -101.5585 XXXY=             34.0513
 XXXZ=             -0.0000 YYYX=             28.9759 YYYZ=              0.0000 ZZZX=              0.0000
 ZZZY=              0.0000 XXYY=            -66.2774 XXZZ=            -54.8705 YYZZ=            -39.7173
 XXYZ=              0.0000 YYXZ=             -0.0000 ZZXY=              9.9220
 N-N= 2.701908572828D+02 E-N=-1.670421759689D+03  KE= 4.730988965094D+02
 Symmetry A'   KE= 3.569663728113D+02
 Symmetry A"   KE= 1.161325236980D+02
  Exact polarizability:  28.404  -0.567  29.240   0.000  -0.000  27.777
 Approx polarizability:  33.330  -0.741  39.085   0.000   0.000  36.848
 No NMR shielding tensors so no spin-rotation constants.
 Leave Link  601 at Thu Apr  2 15:12:42 2026, MaxMem=  1073741824 cpu:               0.3 elap:               0.1
 (Enter /Users/yarger/Applications/g16/l701.exe)
 ... and contract with generalized density number  0.
 Compute integral second derivatives.
 Leave Link  701 at Thu Apr  2 15:12:42 2026, MaxMem=  1073741824 cpu:               0.3 elap:               0.1
 (Enter /Users/yarger/Applications/g16/l702.exe)
 L702 exits ... SP integral derivatives will be done elsewhere.
 Leave Link  702 at Thu Apr  2 15:12:43 2026, MaxMem=  1073741824 cpu:               0.1 elap:               0.0
 (Enter /Users/yarger/Applications/g16/l703.exe)
 Integral derivatives from FoFJK, PRISM(SPDF).
 Compute integral second derivatives, UseDBF=F ICtDFT=           0.
 Calling FoFJK, ICntrl=    100127 FMM=F ISym2X=1 I1Cent= 0 IOpClX= 0 NMat=1 NMatS=1 NMatT=0.
 FoFJK:  IHMeth= 1 ICntrl=  100127 DoSepK=F KAlg= 0 I1Cent=           0 FoldK=F
 IRaf=         0 NMat=       1 IRICut=       1 DoRegI=T DoRafI=F ISym2E= 1 IDoP0=0 IntGTp=1.
 FoFCou: FMM=F IPFlag=           0 FMFlag=      100000 FMFlg1=         800
         NFxFlg=           0 DoJE=F BraDBF=F KetDBF=F FulRan=T
         wScrn=  0.000000 ICntrl=    100127 IOpCl=  0 I1Cent=           0 NGrid=           0
         NMat0=    1 NMatS0=      1 NMatT0=    0 NMatD0=    1 NMtDS0=    0 NMtDT0=    0
 Petite list used in FoFCou.
 Leave Link  703 at Thu Apr  2 15:12:49 2026, MaxMem=  1073741824 cpu:              25.8 elap:               6.5
 (Enter /Users/yarger/Applications/g16/l716.exe)
 Dipole        = 5.53801476D-01 6.62997359D-01-5.82708002D-15
 Polarizability= 2.84040451D+01-5.67494401D-01 2.92396535D+01
                 3.37522488D-14-1.36755962D-14 2.77773345D+01
 HyperPolar    = 2.67575115D+00 1.09488490D+01 8.55047277D+00
                 2.18092845D+01 3.92835868D-10 1.14964246D-10
                 2.66610404D-10 1.46125398D+01 2.48694245D+01
                 8.72866280D-10
 Full mass-weighted force constant matrix:
 Low frequencies ---   -2.3240    0.0006    0.0008    0.0011    2.4011    5.7296
 Low frequencies ---  107.4409  216.3297  346.6078
 Diagonal vibrational polarizability:
        7.1621202       9.3478130      21.8867690
 Diagonal vibrational hyperpolarizability:
        8.8035840       6.2414859       0.0000007
 Harmonic frequencies (cm**-1), IR intensities (KM/Mole), Raman scattering
 activities (A**4/AMU), depolarization ratios for plane and unpolarized
 incident light, reduced masses (AMU), force constants (mDyne/A),
 and normal coordinates:
                      1                      2                      3
                     A"                     A'                     A"
 Frequencies --    107.4408               216.3297               346.6078
 Red. masses --      4.9090                15.9919                 3.3980
 Frc consts  --      0.0334                 0.4409                 0.2405
 IR Inten    --      6.4791                 3.3347                 1.6113
 Raman Activ --      0.0480                 0.0658                 0.2274
 Depolar (P) --      0.7500                 0.5638                 0.7500
 Depolar (U) --      0.8571                 0.7211                 0.8571
  Atom  AN      X      Y      Z        X      Y      Z        X      Y      Z
     1   6     0.00   0.00  -0.23    -0.07  -0.11  -0.00     0.00  -0.00  -0.21
     2   1    -0.06  -0.39  -0.48    -0.26   0.04   0.01    -0.32  -0.28  -0.49
     3   6     0.00   0.00  -0.07    -0.11  -0.17  -0.00     0.00   0.00   0.08
     4   9    -0.15   0.11  -0.08    -0.39  -0.01   0.03     0.20  -0.05   0.01
     5   9     0.15  -0.11  -0.08    -0.39  -0.01  -0.03    -0.20   0.05   0.01
     6   9    -0.00  -0.00   0.09     0.36   0.03  -0.00     0.00  -0.00   0.13
     7   9    -0.00  -0.00   0.30     0.57   0.16   0.00     0.00   0.00  -0.02
     8   1     0.06   0.39  -0.48    -0.26   0.04  -0.01     0.32   0.28  -0.49
                      4                      5                      6
                     A'                     A"                     A'
 Frequencies --    401.3246               518.6489               534.1478
 Red. masses --     13.6655                 8.1124                11.1317
 Frc consts  --      1.2968                 1.2857                 1.8713
 IR Inten    --      0.6778                 1.7681                 8.3006
 Raman Activ --      1.4568                 0.7470                 1.4752
 Depolar (P) --      0.5259                 0.7500                 0.5133
 Depolar (U) --      0.6893                 0.8571                 0.6784
  Atom  AN      X      Y      Z        X      Y      Z        X      Y      Z
     1   6    -0.16   0.26  -0.00    -0.00  -0.00   0.02     0.28   0.02   0.00
     2   1    -0.20   0.30  -0.00     0.40   0.20   0.29     0.43  -0.08  -0.00
     3   6     0.03  -0.06   0.00    -0.00  -0.00  -0.24     0.08   0.24  -0.00
     4   9     0.01  -0.27   0.14    -0.06  -0.30  -0.14    -0.08  -0.14   0.38
     5   9     0.01  -0.27  -0.14     0.06   0.30  -0.14    -0.08  -0.14  -0.38
     6   9     0.48   0.12  -0.00     0.00  -0.00   0.37    -0.21   0.25   0.00
     7   9    -0.39   0.26   0.00    -0.00   0.00   0.03     0.10  -0.13   0.00
     8   1    -0.20   0.30   0.00    -0.40  -0.20   0.29     0.43  -0.08   0.00
                      7                      8                      9
                     A'                     A'                     A"
 Frequencies --    649.8174               833.1727               976.6888
 Red. masses --      9.6455                 7.4496                 2.0395
 Frc consts  --      2.3997                 3.0469                 1.1462
 IR Inten    --     33.1227                19.3973                79.1702
 Raman Activ --      1.8497                 7.2516                 2.9149
 Depolar (P) --      0.6260                 0.0375                 0.7500
 Depolar (U) --      0.7700                 0.0724                 0.8571
  Atom  AN      X      Y      Z        X      Y      Z        X      Y      Z
     1   6    -0.37  -0.21  -0.00     0.39   0.16  -0.00    -0.00  -0.00   0.20
     2   1    -0.43  -0.17   0.01     0.53   0.07  -0.01    -0.58  -0.30  -0.19
     3   6    -0.26   0.08   0.00    -0.04   0.01   0.00    -0.00   0.00   0.13
     4   9     0.16  -0.13  -0.09    -0.11  -0.15  -0.27    -0.05  -0.05  -0.08
     5   9     0.16  -0.13   0.09    -0.11  -0.15   0.27     0.05   0.05  -0.08
     6   9    -0.03   0.44  -0.00    -0.03   0.19   0.00     0.00  -0.00  -0.00
     7   9     0.16  -0.08   0.00    -0.03  -0.02   0.00     0.00   0.00  -0.03
     8   1    -0.43  -0.17  -0.01     0.53   0.07   0.01     0.58   0.30  -0.19
                     10                     11                     12
                     A'                     A'                     A"
 Frequencies --   1094.1178              1159.1337              1193.1914
 Red. masses --      7.2440                 9.6315                 2.1569
 Frc consts  --      5.1093                 7.6245                 1.8092
 IR Inten    --    100.2282               298.9908               116.9419
 Raman Activ --      4.4035                 2.2640                 2.3556
 Depolar (P) --      0.4160                 0.7351                 0.7500
 Depolar (U) --      0.5875                 0.8473                 0.8571
  Atom  AN      X      Y      Z        X      Y      Z        X      Y      Z
     1   6    -0.14   0.55  -0.00    -0.08  -0.01   0.00    -0.00  -0.00  -0.15
     2   1    -0.19   0.48  -0.04     0.32  -0.19   0.04    -0.16   0.63   0.16
     3   6    -0.10  -0.06   0.00    -0.24   0.74  -0.00    -0.00   0.00   0.25
     4   9     0.01   0.01   0.01    -0.01  -0.08  -0.05    -0.02  -0.03  -0.06
     5   9     0.01   0.01  -0.01    -0.01  -0.08   0.05     0.02   0.03  -0.06
     6   9     0.04  -0.03  -0.00     0.13  -0.27   0.00     0.00  -0.00  -0.02
     7   9     0.11  -0.36   0.00     0.05  -0.02  -0.00     0.00   0.00   0.05
     8   1    -0.19   0.48   0.04     0.32  -0.19  -0.04     0.16  -0.63   0.16
                     13                     14                     15
                     A'                     A"                     A'
 Frequencies --   1293.2006              1309.5285              1446.5701
 Red. masses --      4.1372                 1.4930                 1.6028
 Frc consts  --      4.0765                 1.5084                 1.9761
 IR Inten    --    148.3630               113.3966                 8.2078
 Raman Activ --      2.5798                 5.3498                 0.4766
 Depolar (P) --      0.4428                 0.7500                 0.6961
 Depolar (U) --      0.6138                 0.8571                 0.8208
  Atom  AN      X      Y      Z        X      Y      Z        X      Y      Z
     1   6    -0.10  -0.03  -0.00     0.00   0.00  -0.01     0.18  -0.08   0.00
     2   1    -0.55   0.26  -0.00     0.57  -0.39  -0.00    -0.54   0.43  -0.00
     3   6     0.45   0.18   0.00    -0.00  -0.00   0.19    -0.12   0.03  -0.00
     4   9    -0.06  -0.05  -0.06    -0.01  -0.01  -0.04     0.01   0.00   0.01
     5   9    -0.06  -0.05   0.06     0.01   0.01  -0.04     0.01   0.00  -0.01
     6   9    -0.05   0.02  -0.00     0.00   0.00  -0.01     0.01  -0.01   0.00
     7   9     0.01  -0.04  -0.00    -0.00   0.00  -0.03    -0.02  -0.01   0.00
     8   1    -0.55   0.26   0.00    -0.57   0.39  -0.00    -0.54   0.43   0.00
                     16                     17                     18
                     A'                     A'                     A"
 Frequencies --   1509.0688              3098.5825              3160.8207
 Red. masses --      1.0899                 1.0559                 1.1126
 Frc consts  --      1.4624                 5.9733                 6.5491
 IR Inten    --      5.3160                12.7376                 7.7635
 Raman Activ --      6.2971                97.7711                49.8956
 Depolar (P) --      0.7487                 0.0799                 0.7500
 Depolar (U) --      0.8563                 0.1480                 0.8571
  Atom  AN      X      Y      Z        X      Y      Z        X      Y      Z
     1   6    -0.05  -0.07   0.00     0.04   0.05   0.00     0.00  -0.00  -0.10
     2   1     0.31   0.47   0.43    -0.22  -0.32   0.59    -0.23  -0.33   0.58
     3   6     0.00  -0.01  -0.00    -0.00   0.00  -0.00    -0.00   0.00  -0.00
     4   9     0.00   0.00   0.00    -0.00  -0.00  -0.00     0.00   0.00   0.00
     5   9     0.00   0.00  -0.00    -0.00  -0.00   0.00    -0.00  -0.00   0.00
     6   9    -0.00   0.00   0.00     0.00  -0.00   0.00     0.00  -0.00   0.00
     7   9     0.00  -0.01   0.00    -0.00   0.00   0.00     0.00  -0.00   0.00
     8   1     0.31   0.47  -0.43    -0.22  -0.32  -0.59     0.23   0.33   0.58

 -------------------
 - Thermochemistry -
 -------------------
 Temperature   298.150 Kelvin.  Pressure   1.00000 Atm.
 Atom     1 has atomic number  6 and mass  12.00000
 Atom     2 has atomic number  1 and mass   1.00783
 Atom     3 has atomic number  6 and mass  12.00000
 Atom     4 has atomic number  9 and mass  18.99840
 Atom     5 has atomic number  9 and mass  18.99840
 Atom     6 has atomic number  9 and mass  18.99840
 Atom     7 has atomic number  9 and mass  18.99840
 Atom     8 has atomic number  1 and mass   1.00783
 Molecular mass:   102.00926 amu.
 Principal axes and moments of inertia in atomic units:
                           1         2         3
     Eigenvalues --   343.28374 656.59594 666.18978
           X            0.87133   0.49069   0.00000
           Y           -0.49069   0.87133   0.00000
           Z            0.00000  -0.00000   1.00000
 This molecule is an asymmetric top.
 Rotational symmetry number  1.
 Rotational temperatures (Kelvin)      0.25231     0.13191     0.13001
 Rotational constants (GHZ):           5.25729     2.74863     2.70905
 Zero-point vibrational energy     118719.8 (Joules/Mol)
                                   28.37470 (Kcal/Mol)
 Warning -- explicit consideration of   6 degrees of freedom as
           vibrations may cause significant error
 Vibrational temperatures:    154.58   311.25   498.69   577.42   746.22
          (Kelvin)            768.52   934.94  1198.75  1405.24  1574.19
                             1667.73  1716.74  1860.63  1884.12  2081.29
                             2171.21  4458.17  4547.72
 
 Zero-point correction=                           0.045218 (Hartree/Particle)
 Thermal correction to Energy=                    0.050730
 Thermal correction to Enthalpy=                  0.051674
 Thermal correction to Gibbs Free Energy=         0.015653
 Sum of electronic and zero-point Energies=           -476.764496
 Sum of electronic and thermal Energies=              -476.758984
 Sum of electronic and thermal Enthalpies=            -476.758040
 Sum of electronic and thermal Free Energies=         -476.794061
 
                     E (Thermal)             CV                S
                      KCal/Mol        Cal/Mol-Kelvin    Cal/Mol-Kelvin
 Total                   31.834             18.268             75.814
 Electronic               0.000              0.000              0.000
 Translational            0.889              2.981             39.777
 Rotational               0.889              2.981             26.510
 Vibrational             30.056             12.307              9.527
 Vibration     1          0.606              1.943              3.315
 Vibration     2          0.645              1.816              1.990
 Vibration     3          0.725              1.582              1.182
 Vibration     4          0.767              1.467              0.958
 Vibration     5          0.874              1.209              0.613
 Vibration     6          0.889              1.174              0.578
                       Q            Log10(Q)             Ln(Q)
 Total Bot       0.631178D-07         -7.199848        -16.578264
 Total V=0       0.397149D+14         13.598954         31.312748
 Vib (Bot)       0.112362D-19        -19.949382        -45.935150
 Vib (Bot)    1  0.190730D+01          0.280419          0.645687
 Vib (Bot)    2  0.915757D+00         -0.038220         -0.088004
 Vib (Bot)    3  0.533468D+00         -0.272892         -0.628356
 Vib (Bot)    4  0.443689D+00         -0.352922         -0.812632
 Vib (Bot)    5  0.311605D+00         -0.506396         -1.166020
 Vib (Bot)    6  0.298251D+00         -0.525418         -1.209820
 Vib (V=0)       0.707001D+01          0.849420          1.955862
 Vib (V=0)    1  0.247175D+01          0.393004          0.904925
 Vib (V=0)    2  0.154337D+01          0.188469          0.433965
 Vib (V=0)    3  0.123116D+01          0.090313          0.207953
 Vib (V=0)    4  0.116848D+01          0.067620          0.155700
 Vib (V=0)    5  0.108915D+01          0.037088          0.085397
 Vib (V=0)    6  0.108220D+01          0.034306          0.078993
 Electronic      0.100000D+01          0.000000          0.000000
 Translational   0.404961D+08          7.607413         17.516716
 Rotational      0.138714D+06          5.142120         11.840170
 
                                                  r134a - 1,1,1,2-Tetrafluoroetha
 ne
                                                             IR Spectrum
 
     3  3                                                               1 1     11   11  1                                           
     1  0                                                               5 4     32   11  0   9     8      6    55   4  3    2   1    
     6  9                                                               0 4     19   95  9   7     3      5    31   0  4    1   0    
     1  9                                                               9 7     03   39  4   7     3      0    49   1  7    6   7    
 
     X  X                                                               X X     XX   XX  X   X     X      X    XX   X  X    X   X    
                                                                                XX   XX  X   X            X                          
                                                                                XX   XX  X   X                                       
                                                                                XX   XX  X   X                                       
                                                                                XX   XX  X   X                                       
                                                                                XX   XX  X                                           
                                                                                XX   XX  X                                           
                                                                                XX   XX                                              
                                                                                 X    X                                              
                                                                                 X    X                                              
                                                                                      X                                              
                                                                                      X                                              
                                                                                      X                                              
                                                                                      X                                              
                                                                                      X                                              
                                                                                      X                                              
                                                                                      X                                              
                                                                                      X                                              
                                                                                      X                                              
                                                                                      X                                              
 
 
                                                  r134a - 1,1,1,2-Tetrafluoroetha
 ne
                                                            Raman Spectrum
 
     3  3                                                               1 1     11   11  1                                           
     1  0                                                               5 4     32   11  0   9     8      6    55   4  3    2   1    
     6  9                                                               0 4     19   95  9   7     3      5    31   0  4    1   0    
     1  9                                                               9 7     03   39  4   7     3      0    49   1  7    6   7    
 
     X  X                                                               X X     XX   XX  X   X     X      X    XX   X  X    X        
     X  X                                                                                                                            
     X  X                                                                                                                            
     X  X                                                                                                                            
     X  X                                                                                                                            
     X  X                                                                                                                            
     X  X                                                                                                                            
     X  X                                                                                                                            
     X  X                                                                                                                            
     X  X                                                                                                                            
        X                                                                                                                            
        X                                                                                                                            
        X                                                                                                                            
        X                                                                                                                            
        X                                                                                                                            
        X                                                                                                                            
        X                                                                                                                            
        X                                                                                                                            
        X                                                                                                                            
        X                                                                                                                            
 
 ***** Axes restored to original set *****
 -------------------------------------------------------------------
 Center     Atomic                   Forces (Hartrees/Bohr)
 Number     Number              X              Y              Z
 -------------------------------------------------------------------
      1        6          -0.000001214   -0.000012754    0.000022230
      2        1           0.000001449    0.000001949   -0.000003759
      3        6          -0.000005904   -0.000000994    0.000010409
      4        9          -0.000004022   -0.000002888   -0.000001160
      5        9           0.000002057    0.000003628    0.000002911
      6        9           0.000002992    0.000005751   -0.000013675
      7        9           0.000003980    0.000004202   -0.000012671
      8        1           0.000000663    0.000001107   -0.000004285
 -------------------------------------------------------------------
 Cartesian Forces:  Max     0.000022230 RMS     0.000007409
 Force constants in Cartesian coordinates: 
                1             2             3             4             5 
      1  0.555720D+00
      2  0.534611D-01  0.594907D+00
      3  0.630097D-01  0.167036D-01  0.534376D+00
      4 -0.812876D-01 -0.776650D-01 -0.640054D-02  0.811396D-01
      5 -0.744398D-01 -0.299074D+00 -0.934797D-02  0.850313D-01  0.319172D+00
      6 -0.662297D-02 -0.165909D-01 -0.501415D-01 -0.333553D-02  0.357190D-02
      7 -0.153068D+00  0.622984D-01  0.175876D-01  0.102638D-01 -0.105845D-01
      8  0.694145D-01 -0.122851D+00 -0.262870D-01  0.245156D-01 -0.202910D-01
      9  0.619604D-02 -0.156596D-01 -0.586988D-01  0.454750D-03 -0.119348D-02
     10 -0.324080D-01 -0.407383D-02 -0.391062D-01  0.668211D-03  0.180773D-03
     11  0.159755D-01  0.739742D-02  0.136192D-01 -0.154274D-02  0.228946D-02
     12 -0.852257D-02 -0.185323D-02 -0.791298D-02  0.294289D-03  0.370519D-04
     13  0.961766D-02  0.216352D-01  0.116274D-02 -0.327037D-02  0.312090D-02
     14 -0.163727D-01 -0.480059D-01  0.495945D-02  0.733553D-02 -0.288205D-02
     15 -0.672617D-03 -0.638794D-02  0.546462D-02  0.134184D-02 -0.648620D-03
     16 -0.525593D-02 -0.942177D-02  0.326725D-01  0.147507D-03  0.114563D-02
     17  0.451013D-02  0.849679D-02 -0.989627D-02 -0.114158D-02  0.217096D-02
     18  0.103701D-01  0.109100D-01 -0.264296D-01 -0.941702D-03 -0.351485D-03
     19 -0.913195D-01 -0.177745D-01  0.651453D-01 -0.398286D-02 -0.432929D-02
     20 -0.183659D-01 -0.763856D-01  0.428517D-01 -0.137578D-01 -0.423301D-03
     21  0.660920D-01  0.419686D-01 -0.232638D+00  0.993453D-02  0.869010D-02
     22 -0.201998D+00 -0.284596D-01 -0.134071D+00 -0.367829D-02 -0.125043D-03
     23 -0.341829D-01 -0.644850D-01 -0.326028D-01 -0.227754D-01 -0.961724D-03
     24 -0.129850D+00 -0.290905D-01 -0.164020D+00 -0.134764D-02 -0.757496D-03
                6             7             8             9            10 
      6  0.598454D-01
      7 -0.576772D-02  0.572768D+00
      8 -0.346566D-02 -0.487593D-01  0.553858D+00
      9  0.192982D-02 -0.607691D-02  0.129077D-01  0.504846D+00
     10  0.506039D-03 -0.204000D+00  0.656869D-02 -0.853456D-01  0.240693D+00
     11  0.479547D-03 -0.881030D-03 -0.758936D-01 -0.464536D-02  0.273762D-01
     12  0.250500D-03 -0.962734D-01 -0.995914D-03 -0.139091D+00  0.156151D+00
     13  0.183040D-02 -0.814144D-01 -0.263005D-01 -0.902755D-03 -0.204373D-01
     14 -0.179344D-02 -0.135016D-01 -0.265503D+00 -0.105669D-01 -0.369164D-01
     15  0.201058D-03  0.146195D-02 -0.622768D-02 -0.720678D-01 -0.221230D-01
     16 -0.461219D-04 -0.117349D+00 -0.206669D-02  0.722154D-01  0.181537D-01
     17 -0.943379D-04 -0.688245D-02 -0.762738D-01  0.183865D-01  0.243449D-02
     18 -0.214427D-03  0.799246D-01  0.111945D-01 -0.208491D+00 -0.162103D-01
     19  0.183688D-01 -0.104352D-01 -0.144925D-01  0.340118D-01  0.281365D-02
     20  0.376601D-01  0.194089D-02  0.309310D-02 -0.129655D-01 -0.116112D-02
     21 -0.149342D-01  0.770496D-02  0.115766D-01 -0.332343D-01  0.298077D-02
     22 -0.493290D-02 -0.167648D-01 -0.887970D-02 -0.205528D-01 -0.548327D-02
     23 -0.197672D-01  0.163696D-01  0.386000D-02  0.137367D-01  0.559125D-02
     24  0.306333D-02  0.143893D-02  0.129741D-02  0.480741D-02  0.314705D-02
               11            12            13            14            15 
     11  0.779278D-01
     12  0.209168D-01  0.212517D+00
     13 -0.484436D-01 -0.211126D-01  0.926940D-01
     14 -0.225598D-01 -0.248697D-01  0.817365D-01  0.364514D+00
     15 -0.336713D-01 -0.152029D-02  0.311631D-02 -0.496515D-03  0.739301D-01
     16  0.347692D-02 -0.301743D-01 -0.517782D-03 -0.237597D-01  0.173933D-01
     17  0.117060D-01  0.630296D-02 -0.309827D-01 -0.318559D-01  0.483162D-01
     18  0.593841D-02 -0.716222D-01  0.166607D-01  0.363368D-01 -0.938875D-02
     19  0.346743D-03 -0.291834D-03  0.128304D-02  0.150307D-02 -0.196683D-02
     20  0.729678D-03 -0.617535D-03  0.276263D-03  0.526853D-02 -0.351906D-03
     21 -0.140378D-02  0.625020D-02 -0.861730D-03 -0.364970D-02  0.324196D-02
     22  0.369200D-02 -0.708859D-04  0.204514D-02 -0.246667D-04  0.144908D-02
     23 -0.159700D-02  0.107953D-02 -0.104202D-02  0.102391D-02 -0.532188D-03
     24 -0.123351D-02  0.112891D-02  0.106897D-03  0.799212D-04  0.139119D-03
               16            17            18            19            20 
     16  0.110922D+00
     17  0.271050D-01  0.861594D-01
     18 -0.983538D-01 -0.597552D-01  0.316659D+00
     19 -0.745678D-02  0.455725D-02  0.686348D-02  0.937644D-01
     20  0.498065D-02 -0.446634D-04 -0.412678D-02  0.245799D-01  0.633637D-01
     21  0.618570D-02 -0.349446D-02 -0.161997D-02 -0.109678D+00 -0.634298D-01
     22  0.135642D-02  0.399904D-03  0.168688D-02  0.153332D-01  0.150703D-02
     23 -0.146004D-02 -0.358765D-03 -0.146347D-03  0.560933D-02  0.439855D-02
     24  0.107314D-03  0.234613D-03  0.110638D-02 -0.124527D-01  0.979622D-03
               21            22            23            24 
     21  0.312007D+00
     22  0.176418D-01  0.209190D+00
     23  0.974240D-02  0.318901D-01  0.581200D-01
     24 -0.390722D-01  0.138850D+00  0.284900D-01  0.192847D+00
 FormGI is forming the generalized inverse of G from B-inverse, IUseBI=4.
 Force constants in internal coordinates: 
                1             2             3             4             5 
      1  0.346396D+00
      2  0.292653D-02  0.283159D+00
      3  0.133584D-01  0.184922D-01  0.372549D+00
      4  0.281893D-02  0.292653D-02  0.133584D-01  0.346396D+00
      5  0.548988D-03  0.183197D-01  0.514060D-02 -0.692506D-04  0.387175D+00
      6 -0.692507D-04  0.183197D-01  0.514060D-02  0.548988D-03  0.539119D-01
      7  0.136511D-02  0.182951D-01  0.431573D-02  0.136511D-02  0.526372D-01
      8  0.635435D-02  0.130414D-01 -0.241930D-01 -0.825580D-02 -0.171599D-02
      9 -0.871863D-03 -0.120848D-01  0.140092D-01  0.119102D-02  0.853995D-03
     10  0.385530D-02 -0.150362D-01  0.228355D-02  0.385530D-02 -0.329270D-02
     11 -0.233278D-02  0.133963D-01  0.184885D-01 -0.233278D-02 -0.731791D-02
     12 -0.825580D-02  0.130414D-01 -0.241930D-01  0.635435D-02  0.118349D-01
     13  0.119102D-02 -0.120848D-01  0.140092D-01 -0.871863D-03 -0.491381D-03
     14 -0.277639D-02  0.162518D-01 -0.430903D-02  0.470571D-02  0.148986D-01
     15  0.470571D-02  0.162518D-01 -0.430903D-02 -0.277639D-02 -0.289160D-01
     16 -0.138292D-02  0.106354D-01  0.169452D-01 -0.138292D-02 -0.266752D-01
     17 -0.347514D-03 -0.170474D-01 -0.893969D-03 -0.347514D-03  0.189236D-01
     18  0.836160D-04 -0.142522D-01 -0.382433D-02 -0.343702D-03  0.195127D-01
     19 -0.343702D-03 -0.142522D-01 -0.382433D-02  0.836160D-04  0.400075D-02
     20 -0.185138D-02  0.458698D-03  0.172452D-01 -0.264666D-02 -0.105113D-02
     21 -0.903998D-03  0.186357D-02  0.983210D-02 -0.169928D-02  0.133917D-01
     22  0.667926D-03  0.116114D-02  0.135387D-01 -0.421858D-02 -0.170112D-01
     23 -0.322663D-02 -0.702438D-03  0.370656D-02  0.227926D-02  0.332339D-02
     24 -0.227926D-02  0.702438D-03 -0.370656D-02  0.322663D-02  0.177663D-01
     25 -0.707332D-03  0.000000D+00  0.000000D+00  0.707332D-03 -0.126367D-01
     26  0.169928D-02 -0.186358D-02 -0.983210D-02  0.903998D-03  0.116155D-02
     27  0.264666D-02 -0.458699D-03 -0.172452D-01  0.185138D-02  0.156044D-01
     28  0.421858D-02 -0.116114D-02 -0.135387D-01 -0.667926D-03 -0.147985D-01
                6             7             8             9            10 
      6  0.387175D+00
      7  0.526372D-01  0.371179D+00
      8  0.118349D-01 -0.308638D-02  0.112604D+00
      9 -0.491381D-03 -0.592087D-02 -0.457253D-01  0.719180D-01
     10 -0.329270D-02  0.476005D-03 -0.425530D-01  0.139885D-01  0.527864D-01
     11 -0.731791D-02  0.178620D-01 -0.169620D-01 -0.669140D-01  0.427441D-02
     12 -0.171599D-02 -0.308638D-02 -0.146160D-01  0.701345D-02 -0.425530D-01
     13  0.853995D-03 -0.592087D-02  0.701345D-02  0.185339D-01  0.139885D-01
     14 -0.289160D-01 -0.259894D-01 -0.102533D-01  0.592841D-02 -0.398810D-02
     15  0.148986D-01 -0.259894D-01  0.235781D-01 -0.452507D-02 -0.398810D-02
     16 -0.266752D-01  0.204685D-01 -0.892364D-02 -0.729804D-02  0.414042D-02
     17  0.189236D-01  0.453263D-02 -0.446138D-02  0.285868D-03  0.258206D-02
     18  0.400075D-02  0.148914D-01  0.342824D-02  0.209875D-02  0.771211D-03
     19  0.195127D-01  0.148914D-01 -0.373161D-02  0.379188D-02  0.771211D-03
     20 -0.156044D-01  0.175164D-01 -0.606184D-02  0.881301D-02 -0.485724D-02
     21 -0.116155D-02 -0.142884D-01 -0.219946D-02  0.102026D-01 -0.728439D-02
     22  0.147985D-01  0.161400D-02  0.186796D-02  0.733144D-02 -0.607082D-02
     23 -0.177663D-01  0.159024D-01 -0.813292D-02 -0.111804D-01  0.121358D-02
     24 -0.332339D-02 -0.159024D-01 -0.427053D-02 -0.979086D-02 -0.121358D-02
     25  0.126367D-01  0.000000D+00 -0.203114D-03 -0.126620D-01  0.000000D+00
     26 -0.133917D-01  0.142884D-01  0.229148D-02  0.205352D-02  0.728439D-02
     27  0.105113D-02 -0.175164D-01  0.615386D-02  0.344310D-02  0.485724D-02
     28  0.170112D-01 -0.161400D-02  0.102213D-01  0.571948D-03  0.607082D-02
               11            12            13            14            15 
     11  0.166448D+00
     12 -0.169620D-01  0.112604D+00
     13 -0.669140D-01 -0.457253D-01  0.719180D-01
     14 -0.109348D-01  0.235781D-01 -0.452507D-02  0.176090D+00
     15 -0.109348D-01 -0.102533D-01  0.592841D-02 -0.604233D-02  0.176090D+00
     16  0.288204D-01 -0.892364D-02 -0.729804D-02  0.867156D-03  0.867155D-03
     17  0.587444D-02 -0.446138D-02  0.285869D-03 -0.904936D-01 -0.904936D-01
     18 -0.647640D-02 -0.373161D-02  0.379188D-02 -0.823176D-01 -0.761253D-02
     19 -0.647640D-02  0.342824D-02  0.209875D-02 -0.761253D-02 -0.823176D-01
     20  0.119651D-01 -0.615386D-02 -0.344310D-02 -0.222367D-02 -0.676565D-02
     21  0.374287D-02 -0.229148D-02 -0.205352D-02  0.342577D-02 -0.111621D-02
     22  0.785397D-02 -0.102213D-01 -0.571948D-03 -0.920603D-02  0.586616D-02
     23  0.411110D-02  0.427053D-02  0.979086D-02  0.328342D-02 -0.893286D-02
     24 -0.411110D-02  0.813292D-02  0.111804D-01  0.893286D-02 -0.328342D-02
     25  0.000000D+00  0.203113D-03  0.126620D-01 -0.369894D-02  0.369894D-02
     26 -0.374287D-02  0.219946D-02 -0.102026D-01  0.111621D-02 -0.342577D-02
     27 -0.119651D-01  0.606184D-02 -0.881301D-02  0.676565D-02  0.222367D-02
     28 -0.785397D-02 -0.186796D-02 -0.733144D-02 -0.586616D-02  0.920603D-02
               16            17            18            19            20 
     16  0.176297D+00
     17 -0.903166D-02  0.126052D+00
     18 -0.892788D-01  0.365916D-01  0.116350D+00
     19 -0.892788D-01  0.365916D-01  0.367629D-01  0.116350D+00
     20  0.821654D-02 -0.151570D-01  0.173121D-01 -0.431011D-03  0.266963D-01
     21 -0.227091D-02  0.175020D-01 -0.326802D-03 -0.180699D-01  0.465513D-03
     22  0.297281D-02  0.117250D-02 -0.179225D-01  0.171647D-01  0.114394D-02
     23  0.524372D-02 -0.163295D-01  0.165627D-01  0.107626D-02  0.124542D-01
     24 -0.524372D-02  0.163295D-01 -0.107626D-02 -0.165627D-01 -0.137766D-01
     25  0.000000D+00  0.000000D+00 -0.186720D-01  0.186720D-01 -0.130981D-01
     26  0.227091D-02 -0.175020D-01  0.180699D-01  0.326802D-03  0.132012D-01
     27 -0.821653D-02  0.151570D-01  0.431011D-03 -0.173121D-01 -0.130296D-01
     28 -0.297281D-02 -0.117250D-02 -0.171647D-01  0.179225D-01 -0.123512D-01
               21            22            23            24            25 
     21  0.249012D-01
     22  0.246370D-03  0.271708D-01
     23 -0.128790D-01 -0.136167D-01  0.285234D-01
     24  0.115567D-01 -0.145143D-01  0.319018D-02  0.285234D-01
     25 -0.130981D-01  0.124102D-01  0.245249D-02  0.245249D-02  0.279608D-01
     26 -0.112345D-01 -0.114536D-01  0.115567D-01 -0.128790D-01 -0.130981D-01
     27  0.132012D-01 -0.123512D-01 -0.137766D-01  0.124542D-01 -0.130981D-01
     28 -0.114536D-01  0.145733D-01 -0.145143D-01 -0.136167D-01  0.124102D-01
               26            27            28 
     26  0.249012D-01
     27  0.465513D-03  0.266963D-01
     28  0.246371D-03  0.114394D-02  0.271708D-01
 Leave Link  716 at Thu Apr  2 15:12:49 2026, MaxMem=  1073741824 cpu:               0.1 elap:               0.0
 (Enter /Users/yarger/Applications/g16/l103.exe)

 GradGradGradGradGradGradGradGradGradGradGradGradGradGradGradGradGradGrad
 Berny optimization.
 Red2BG is reusing G-inverse.
 Internal  Forces:  Max     0.000014705 RMS     0.000004747
 Search for a local minimum.
 Step number   1 out of a maximum of    2
 All quantities printed in internal units (Hartrees-Bohrs-Radians)
 Second derivative matrix not updated -- analytic derivatives used.
 ITU=  0
     Eigenvalues ---    0.00284   0.05087   0.07194   0.09119   0.09738
     Eigenvalues ---    0.14297   0.14652   0.19499   0.22651   0.24322
     Eigenvalues ---    0.26601   0.34051   0.34417   0.35318   0.35856
     Eigenvalues ---    0.36666   0.40328   0.51127
 Angle between quadratic step and forces=  44.58 degrees.
 Linear search not attempted -- first point.
 Iteration  1 RMS(Cart)=  0.00003646 RMS(Int)=  0.00000000
 Iteration  2 RMS(Cart)=  0.00000000 RMS(Int)=  0.00000000
 ITry= 1 IFail=0 DXMaxC= 8.54D-05 DCOld= 1.00D+10 DXMaxT= 3.00D-01 DXLimC= 3.00D+00 Rises=F
 ClnCor:  largest displacement from symmetrization is 5.37D-09 for atom     5.
 Variable       Old X    -DE/DX   Delta X   Delta X   Delta X     New X
                                 (Linear)    (Quad)   (Total)
    R1        2.06613   0.00000   0.00000   0.00001   0.00001   2.06614
    R2        2.87762  -0.00001   0.00000  -0.00002  -0.00002   2.87759
    R3        2.61626  -0.00001   0.00000  -0.00005  -0.00005   2.61621
    R4        2.06613   0.00000   0.00000   0.00001   0.00001   2.06614
    R5        2.54707  -0.00000   0.00000  -0.00001  -0.00001   2.54706
    R6        2.54707  -0.00000   0.00000  -0.00001  -0.00001   2.54706
    R7        2.56445   0.00001   0.00000   0.00005   0.00005   2.56449
    A1        1.90508  -0.00000   0.00000  -0.00003  -0.00003   1.90505
    A2        1.90334   0.00000   0.00000   0.00003   0.00003   1.90337
    A3        1.93451  -0.00000   0.00000  -0.00005  -0.00005   1.93446
    A4        1.91242   0.00001   0.00000   0.00005   0.00005   1.91247
    A5        1.90508  -0.00000   0.00000  -0.00003  -0.00003   1.90505
    A6        1.90334   0.00000   0.00000   0.00003   0.00003   1.90337
    A7        1.95681   0.00000   0.00000   0.00002   0.00002   1.95682
    A8        1.95681   0.00000   0.00000   0.00002   0.00002   1.95682
    A9        1.89883  -0.00001   0.00000  -0.00004  -0.00004   1.89880
   A10        1.88215  -0.00000   0.00000  -0.00001  -0.00001   1.88214
   A11        1.88326   0.00000   0.00000   0.00001   0.00001   1.88327
   A12        1.88326   0.00000   0.00000   0.00001   0.00001   1.88327
    D1        1.02313   0.00000   0.00000   0.00005   0.00005   1.02318
    D2       -3.13994   0.00000   0.00000   0.00005   0.00005  -3.13989
    D3       -1.05840   0.00000   0.00000   0.00005   0.00005  -1.05836
    D4       -1.06006   0.00000   0.00000  -0.00000  -0.00000  -1.06006
    D5        1.06006  -0.00000   0.00000   0.00000   0.00000   1.06006
    D6       -3.14159   0.00000   0.00000   0.00000  -0.00000  -3.14159
    D7        3.13994  -0.00000   0.00000  -0.00005  -0.00005   3.13989
    D8       -1.02313  -0.00000   0.00000  -0.00005  -0.00005  -1.02318
    D9        1.05840  -0.00000   0.00000  -0.00005  -0.00005   1.05836
         Item               Value     Threshold  Converged?
 Maximum Force            0.000015     0.000015     YES
 RMS     Force            0.000005     0.000010     YES
 Maximum Displacement     0.000085     0.000060     NO 
 RMS     Displacement     0.000036     0.000040     YES
 Predicted change in Energy=-1.569771D-09
                           ----------------------------
                           ! Non-Optimized Parameters !
                           ! (Angstroms and Degrees)  !
 --------------------------                            --------------------------
 ! Name  Definition              Value          Derivative Info.                !
 --------------------------------------------------------------------------------
 ! R1    R(1,2)                  1.0934         -DE/DX =    0.0                 !
 ! R2    R(1,3)                  1.5228         -DE/DX =    0.0                 !
 ! R3    R(1,7)                  1.3844         -DE/DX =    0.0                 !
 ! R4    R(1,8)                  1.0934         -DE/DX =    0.0                 !
 ! R5    R(3,4)                  1.3478         -DE/DX =    0.0                 !
 ! R6    R(3,5)                  1.3478         -DE/DX =    0.0                 !
 ! R7    R(3,6)                  1.3571         -DE/DX =    0.0                 !
 ! A1    A(2,1,3)              109.1511         -DE/DX =    0.0                 !
 ! A2    A(2,1,7)              109.0549         -DE/DX =    0.0                 !
 ! A3    A(2,1,8)              110.8364         -DE/DX =    0.0                 !
 ! A4    A(3,1,7)              109.5766         -DE/DX =    0.0                 !
 ! A5    A(3,1,8)              109.1511         -DE/DX =    0.0                 !
 ! A6    A(7,1,8)              109.0549         -DE/DX =    0.0                 !
 ! A7    A(1,3,4)              112.1177         -DE/DX =    0.0                 !
 ! A8    A(1,3,5)              112.1177         -DE/DX =    0.0                 !
 ! A9    A(1,3,6)              108.793          -DE/DX =    0.0                 !
 ! A10   A(4,3,5)              107.8385         -DE/DX =    0.0                 !
 ! A11   A(4,3,6)              107.9035         -DE/DX =    0.0                 !
 ! A12   A(5,3,6)              107.9035         -DE/DX =    0.0                 !
 ! D1    D(2,1,3,4)             58.6237         -DE/DX =    0.0                 !
 ! D2    D(2,1,3,5)           -179.9024         -DE/DX =    0.0                 !
 ! D3    D(2,1,3,6)            -60.6394         -DE/DX =    0.0                 !
 ! D4    D(7,1,3,4)            -60.7369         -DE/DX =    0.0                 !
 ! D5    D(7,1,3,5)             60.7369         -DE/DX =    0.0                 !
 ! D6    D(7,1,3,6)           -180.0            -DE/DX =    0.0                 !
 ! D7    D(8,1,3,4)            179.9024         -DE/DX =    0.0                 !
 ! D8    D(8,1,3,5)            -58.6237         -DE/DX =    0.0                 !
 ! D9    D(8,1,3,6)             60.6394         -DE/DX =    0.0                 !
 --------------------------------------------------------------------------------
 GradGradGradGradGradGradGradGradGradGradGradGradGradGradGradGradGradGrad

 Leave Link  103 at Thu Apr  2 15:12:49 2026, MaxMem=  1073741824 cpu:               0.0 elap:               0.0
 (Enter /Users/yarger/Applications/g16/l9999.exe)

 ----------------------------------------------------------------------

 Electric dipole moment (input orientation):
 (Debye = 10**-18 statcoulomb cm , SI units = C m)
                  (au)            (Debye)         (10**-30 SI)
   Tot        0.863864D+00      0.219572D+01      0.732415D+01
   x         -0.373071D+00     -0.948253D+00     -0.316303D+01
   y          0.632379D+00      0.160735D+01      0.536153D+01
   z         -0.455166D+00     -0.115692D+01     -0.385906D+01

 Dipole polarizability, Alpha (input orientation).
 (esu units = cm**3 , SI units = C**2 m**2 J**-1)
 Alpha(0;0):
               (au)            (10**-24 esu)      (10**-40 SI)
   iso        0.284737D+02      0.421936D+01      0.469468D+01
   aniso      0.160650D+01      0.238059D+00      0.264876D+00
   xx         0.282473D+02      0.418581D+01      0.465734D+01
   yx        -0.467278D-01     -0.692435D-02     -0.770437D-02
   yy         0.280003D+02      0.414922D+01      0.461663D+01
   zx        -0.626993D+00     -0.929107D-01     -0.103377D+00
   zy        -0.287193D+00     -0.425576D-01     -0.473517D-01
   zz         0.291734D+02      0.432306D+01      0.481005D+01

 First dipole hyperpolarizability, Beta (input orientation).
 ||, _|_  parallel and perpendicular components, (z) with respect to z axis,
 vector components x,y,z.  Values do not include the 1/n! factor of 1/2.
 (esu units = statvolt**-1 cm**4 , SI units = C**3 m**3 J**-2)
 Beta(0;0,0):
               (au)            (10**-30 esu)      (10**-50 SI)
   || (z)    -0.268318D+02     -0.231806D+00     -0.860325D-01
   _|_(z)    -0.894394D+01     -0.772687D-01     -0.286775D-01
   x         -0.451565D+02     -0.390117D+00     -0.144788D+00
   y          0.125934D+03      0.108797D+01      0.403791D+00
   z         -0.134159D+03     -0.115903D+01     -0.430163D+00
   ||         0.378931D+02      0.327367D+00      0.121499D+00
   xxx       -0.102661D+02     -0.886911D-01     -0.329168D-01
   xxy        0.290821D+01      0.251246D-01      0.932476D-02
   yxy        0.690163D+01      0.596247D-01      0.221291D-01
   yyy        0.379412D+02      0.327782D+00      0.121653D+00
   xxz       -0.167830D+02     -0.144992D+00     -0.538122D-01
   yxz       -0.421527D-01     -0.364167D-03     -0.135157D-03
   yyz       -0.658787D+01     -0.569141D-01     -0.211231D-01
   zxz       -0.116877D+02     -0.100973D+00     -0.374750D-01
   zyz        0.112870D+01      0.975109D-02      0.361902D-02
   zzz       -0.213489D+02     -0.184438D+00     -0.684522D-01

 ----------------------------------------------------------------------

 Dipole orientation:
     6         -3.12351633         -3.15562331          1.73597219
     1         -2.15000256         -4.55727912          2.90067172
     6         -1.27506925         -2.07992465         -0.18933264
     9         -0.29069565         -3.88879456         -1.68819061
     9         -2.36147490         -0.33043200         -1.68819061
     9          0.65952609         -0.95409224          1.06215647
     9         -5.11201720         -4.31282589          0.49034962
     1         -3.86123648         -1.61674806          2.90067172

 Electric dipole moment (dipole orientation):
 (Debye = 10**-18 statcoulomb cm , SI units = C m)
                  (au)            (Debye)         (10**-30 SI)
   Tot        0.863864D+00      0.219572D+01      0.732415D+01
   x          0.000000D+00      0.000000D+00      0.000000D+00
   y          0.000000D+00      0.000000D+00      0.000000D+00
   z          0.863864D+00      0.219572D+01      0.732415D+01

 Dipole polarizability, Alpha (dipole orientation).
 (esu units = cm**3 , SI units = C**2 m**2 J**-1)
 Alpha(0;0):
               (au)            (10**-24 esu)      (10**-40 SI)
   iso        0.284737D+02      0.421936D+01      0.469468D+01
   aniso      0.160650D+01      0.238059D+00      0.264876D+00
   xx         0.289192D+02      0.428538D+01      0.476813D+01
   yx         0.664497D+00      0.984683D-01      0.109561D+00
   yy         0.281640D+02      0.417348D+01      0.464362D+01
   zx         0.442668D+00      0.655966D-01      0.729860D-01
   zy         0.257609D+00      0.381737D-01      0.424740D-01
   zz         0.283378D+02      0.419923D+01      0.467227D+01

 First dipole hyperpolarizability, Beta (dipole orientation).
 ||, _|_  parallel and perpendicular components, (z) with respect to z axis,
 vector components x,y,z.  Values do not include the 1/n! factor of 1/2.
 (esu units = statvolt**-1 cm**4 , SI units = C**3 m**3 J**-2)
 Beta(0;0,0):
               (au)            (10**-30 esu)      (10**-50 SI)
   || (z)     0.364755D+02      0.315120D+00      0.116954D+00
   _|_(z)     0.121585D+02      0.105040D+00      0.389845D-01
   x          0.443719D+02      0.383339D+00      0.142272D+00
   y          0.258221D+02      0.223083D+00      0.827951D-01
   z          0.182377D+03      0.157560D+01      0.584768D+00
   ||         0.378931D+02      0.327367D+00      0.121499D+00
   xxx        0.881473D+01      0.761524D-01      0.282632D-01
   xxy        0.373210D+00      0.322424D-02      0.119665D-02
   yxy        0.291988D+01      0.252255D-01      0.936219D-02
   yyy        0.645571D+01      0.557723D-01      0.206994D-01
   xxz        0.848895D+01      0.733379D-01      0.272187D-01
   yxz       -0.116189D+02     -0.100378D+00     -0.372543D-01
   yyz        0.216929D+02      0.187410D+00      0.695553D-01
   zxz        0.305604D+01      0.264018D-01      0.979876D-02
   zyz        0.177845D+01      0.153644D-01      0.570236D-02
   zzz        0.306106D+02      0.264452D+00      0.981488D-01

 ----------------------------------------------------------------------
 1\1\GINC-MACBOOKPRO\Freq\RB3LYP\6-31+G(d)\C2H2F4\ROOT\02-Apr-2026\0\\#
 P Geom=AllCheck Guess=TCheck SCRF=Check GenChk RB3LYP/6-31+G(d) Freq\\
 r134a - 1,1,1,2-Tetrafluoroethane\\0,1\C,-1.5019782068,1.4140727882,1.
 4522132219\H,-1.1623418876,2.4533229443,1.4479599862\C,-0.3211654866,0
 .5013218426,1.1498981311\F,0.6768406589,0.6498234508,2.0435633857\F,-0
 .6749892109,-0.7992098272,1.1383773081\F,0.1681738344,0.8114060264,-0.
 0772813841\F,-2.0142624154,1.1111293686,2.7022282403\H,-2.2794561898,1
 .2558824709,0.699939591\\Version=EM64M-G16RevA.03\State=1-A'\HF=-476.8
 09714\RMSD=2.160e-09\RMSF=7.409e-06\ZeroPoint=0.045218\Thermal=0.05073
 02\Dipole=-0.3730713,0.6323793,-0.4551657\DipoleDeriv=0.3895743,0.0874
 699,-0.2314314,0.0963262,0.2947446,-0.0900328,-0.2456086,-0.0768066,0.
 8181187,0.0337703,-0.0389097,0.0375787,-0.0392417,-0.0461058,0.0237923
 ,0.0259948,-0.0273384,0.026942,1.5172916,0.1369975,0.0872633,0.1551152
 ,1.6115384,-0.05391,0.0582604,-0.0268527,1.6785499,-0.7222101,-0.04081
 33,-0.3615347,0.0120715,-0.3304297,-0.0330309,-0.2866096,-0.0623745,-0
 .5808557,-0.3760158,-0.0772309,0.0107655,-0.1683965,-0.960681,-0.00328
 23,-0.0028793,-0.0311082,-0.2967987,-0.4363625,-0.0519328,0.2802987,-0
 .0038116,-0.3536401,0.0846103,0.2032657,0.1564758,-0.8583925,-0.389373
 7,-0.0122331,0.2310255,-0.0289718,-0.2827112,0.099167,0.257821,0.07416
 9,-0.7515592,-0.016674,-0.0033475,-0.0539656,-0.0230912,0.0672849,-0.0
 273137,-0.0102443,-0.0061645,-0.0360044\Polar=28.2472569,-0.0467278,28
 .000332,-0.6269926,-0.2871927,29.1734442\PolarDeriv=0.6438175,0.983365
 4,-2.8931077,1.48707,-0.0640077,2.7193744,1.3902771,-2.119036,-4.33936
 09,-0.2217939,0.3820424,0.9882919,1.9297945,-0.130365,0.984676,3.70457
 99,0.4069588,-0.4776471,1.1507298,1.5902166,1.655923,-0.5448318,-0.147
 1283,0.1615128,0.9259627,0.9815685,8.1143462,-0.0035244,-0.1803357,0.8
 439955,-0.2311076,-0.1710765,-0.0877759,0.0589214,1.6308002,-0.0088003
 ,-0.5412799,-0.9619544,1.6653722,-0.8265611,0.2912147,-2.3492262,-0.70
 73006,1.1950078,2.6832203,-0.1384518,-0.0324072,-0.3233135,-1.6120429,
 0.6391838,-0.3089643,-1.9144047,-0.6989379,1.105142,4.8573762,0.319289
 2,0.6161915,2.1347841,-0.0254437,1.5240736,0.1603746,1.4998874,0.23218
 47,0.2651724,1.1776859,0.1597853,1.9288872,0.1357933,0.5383664,2.42127
 59,0.1093343,3.6496343,-0.845843,-2.0164404,-1.0430963,-0.0976093,-0.0
 15842,-0.1115094,-0.7912933,-0.8892073,-7.2313898,-0.0088418,-0.168795
 3,-1.0700706,0.050188,-0.0707666,0.1081842,-0.3811432,-1.769481,-0.066
 6106,2.1169672,0.4792273,0.3705782,-2.1897926,-0.0992875,1.4084857,0.1
 357173,0.8527345,0.7699734,-0.228726,-1.7721225,0.6608896,-1.1964838,-
 0.3958319,-0.6812834,1.9126026,0.6991983,-6.4484745,-2.4687818,-0.2902
 37,0.1498308,2.6160713,-0.0353091,-1.4806143,-0.4458745,-0.7090422,-0.
 4194734,0.3672028,1.7124704,-0.6074863,1.4791515,-0.146146,0.1286913,-
 3.0530714,-0.194465,6.4242647,-4.9129862,-0.1034667,-0.5216917,-2.5791
 304,0.0958036,-1.8720965,-0.6678633,-0.8119127,0.1904994,-0.0310373,-1
 .118538,-0.6520919,-2.3483869,0.139209,-0.6818942,-2.7487605,-0.183407
 6,-4.1775086\HyperPolar=-10.2660941,2.9082066,6.9016267,37.9411612,-16
 .7829627,-0.0421527,-6.58787,-11.6877013,1.1287,-21.348863\Quadrupole=
 0.0222129,1.5743849,-1.5965978,-0.6781315,2.0124231,-0.4784885\PG=CS [
 SG(C2F2),X(H2F2)]\NImag=0\\0.55571973,0.05346107,0.59490697,0.06300972
 ,0.01670364,0.53437642,-0.08128756,-0.07766496,-0.00640054,0.08113956,
 -0.07443976,-0.29907411,-0.00934797,0.08503128,0.31917176,-0.00662297,
 -0.01659091,-0.05014150,-0.00333553,0.00357190,0.05984544,-0.15306823,
 0.06229840,0.01758757,0.01026380,-0.01058450,-0.00576772,0.57276768,0.
 06941449,-0.12285062,-0.02628701,0.02451559,-0.02029100,-0.00346566,-0
 .04875933,0.55385847,0.00619604,-0.01565965,-0.05869879,0.00045475,-0.
 00119348,0.00192982,-0.00607691,0.01290771,0.50484580,-0.03240805,-0.0
 0407383,-0.03910623,0.00066821,0.00018077,0.00050604,-0.20399985,0.006
 56869,-0.08534556,0.24069290,0.01597550,0.00739742,0.01361920,-0.00154
 274,0.00228946,0.00047955,-0.00088103,-0.07589360,-0.00464536,0.027376
 19,0.07792779,-0.00852257,-0.00185323,-0.00791298,0.00029429,0.0000370
 5,0.00025050,-0.09627336,-0.00099591,-0.13909140,0.15615127,0.02091680
 ,0.21251721,0.00961766,0.02163518,0.00116274,-0.00327037,0.00312090,0.
 00183040,-0.08141441,-0.02630053,-0.00090276,-0.02043727,-0.04844358,-
 0.02111261,0.09269399,-0.01637271,-0.04800588,0.00495945,0.00733553,-0
 .00288205,-0.00179344,-0.01350159,-0.26550259,-0.01056690,-0.03691644,
 -0.02255976,-0.02486966,0.08173648,0.36451378,-0.00067262,-0.00638794,
 0.00546462,0.00134184,-0.00064862,0.00020106,0.00146195,-0.00622768,-0
 .07206784,-0.02212303,-0.03367131,-0.00152029,0.00311631,-0.00049652,0
 .07393013,-0.00525593,-0.00942177,0.03267250,0.00014751,0.00114563,-0.
 00004612,-0.11734899,-0.00206669,0.07221545,0.01815367,0.00347692,-0.0
 3017432,-0.00051778,-0.02375967,0.01739330,0.11092188,0.00451013,0.008
 49679,-0.00989627,-0.00114158,0.00217096,-0.00009434,-0.00688245,-0.07
 627376,0.01838653,0.00243449,0.01170601,0.00630296,-0.03098270,-0.0318
 5595,0.04831616,0.02710496,0.08615938,0.01037013,0.01091002,-0.0264295
 9,-0.00094170,-0.00035148,-0.00021443,0.07992458,0.01119453,-0.2084907
 0,-0.01621032,0.00593841,-0.07162216,0.01666075,0.03633684,-0.00938875
 ,-0.09835381,-0.05975519,0.31665921,-0.09131948,-0.01777449,0.06514531
 ,-0.00398286,-0.00432929,0.01836880,-0.01043522,-0.01449252,0.03401176
 ,0.00281365,0.00034674,-0.00029183,0.00128304,0.00150307,-0.00196683,-
 0.00745678,0.00455725,0.00686348,0.09376441,-0.01836585,-0.07638561,0.
 04285174,-0.01375777,-0.00042330,0.03766011,0.00194089,0.00309310,-0.0
 1296550,-0.00116112,0.00072968,-0.00061754,0.00027626,0.00526853,-0.00
 035191,0.00498065,-0.00004466,-0.00412678,0.02457991,0.06336371,0.0660
 9197,0.04196859,-0.23263813,0.00993453,0.00869010,-0.01493422,0.007704
 96,0.01157660,-0.03323430,0.00298077,-0.00140378,0.00625020,-0.0008617
 3,-0.00364970,0.00324196,0.00618570,-0.00349446,-0.00161997,-0.1096780
 1,-0.06342976,0.31200661,-0.20199815,-0.02845960,-0.13407106,-0.003678
 29,-0.00012504,-0.00493290,-0.01676479,-0.00887970,-0.02055278,-0.0054
 8327,0.00369200,-0.00007089,0.00204514,-0.00002467,0.00144908,0.001356
 42,0.00039990,0.00168688,0.01533323,0.00150703,0.01764182,0.20918971,-
 0.03418286,-0.06448496,-0.03260279,-0.02277535,-0.00096172,-0.01976721
 ,0.01636962,0.00386000,0.01373666,0.00559125,-0.00159700,0.00107953,-0
 .00104202,0.00102391,-0.00053219,-0.00146004,-0.00035877,-0.00014635,0
 .00560933,0.00439855,0.00974240,0.03189008,0.05812000,-0.12984971,-0.0
 2909052,-0.16402006,-0.00134764,-0.00075750,0.00306333,0.00143893,0.00
 129741,0.00480741,0.00314705,-0.00123351,0.00112891,0.00010690,0.00007
 992,0.00013912,0.00010731,0.00023461,0.00110638,-0.01245269,0.00097962
 ,-0.03907216,0.13884984,0.02848996,0.19284706\\0.00000121,0.00001275,-
 0.00002223,-0.00000145,-0.00000195,0.00000376,0.00000590,0.00000099,-0
 .00001041,0.00000402,0.00000289,0.00000116,-0.00000206,-0.00000363,-0.
 00000291,-0.00000299,-0.00000575,0.00001368,-0.00000398,-0.00000420,0.
 00001267,-0.00000066,-0.00000111,0.00000429\\\@


 THOSE WHO ARE UNABLE TO LEARN FROM PAST MEETINGS
 ARE CONDEMNED TO REPEAT THEM.
 Job cpu time:       0 days  0 hours  1 minutes 26.1 seconds.
 Elapsed time:       0 days  0 hours  0 minutes 21.9 seconds.
 File lengths (MBytes):  RWF=     17 Int=      0 D2E=      0 Chk=      2 Scr=      1
 Normal termination of Gaussian 16 at Thu Apr  2 15:12:49 2026.
