 Entering Gaussian System, Link 0=g16
 Input=/Users/yarger/Downloads/1112Tetrafluoroethane_Opt_Freq_DFT_WB97XD_pVDZ_Gaussian16.gjf
 Output=/Users/yarger/Downloads/1112Tetrafluoroethane_Opt_Freq_DFT_WB97XD_pVDZ_Gaussian16.log
 Initial command:
 /Users/yarger/Applications/g16/l1.exe "/Users/yarger/Applications/scratch/Gau-83968.inp" -scrdir="/Users/yarger/Applications/scratch/"
 Entering Link 1 = /Users/yarger/Applications/g16/l1.exe PID=     83969.
  
 Copyright (c) 1988,1990,1992,1993,1995,1998,2003,2009,2016,
            Gaussian, Inc.  All Rights Reserved.
  
 This is part of the Gaussian(R) 16 program.  It is based on
 the Gaussian(R) 09 system (copyright 2009, Gaussian, Inc.),
 the Gaussian(R) 03 system (copyright 2003, Gaussian, Inc.),
 the Gaussian(R) 98 system (copyright 1998, Gaussian, Inc.),
 the Gaussian(R) 94 system (copyright 1995, Gaussian, Inc.),
 the Gaussian 92(TM) system (copyright 1992, Gaussian, Inc.),
 the Gaussian 90(TM) system (copyright 1990, Gaussian, Inc.),
 the Gaussian 88(TM) system (copyright 1988, Gaussian, Inc.),
 the Gaussian 86(TM) system (copyright 1986, Carnegie Mellon
 University), and the Gaussian 82(TM) system (copyright 1983,
 Carnegie Mellon University). Gaussian is a federally registered
 trademark of Gaussian, Inc.
  
 This software contains proprietary and confidential information,
 including trade secrets, belonging to Gaussian, Inc.
  
 This software is provided under written license and may be
 used, copied, transmitted, or stored only in accord with that
 written license.
  
 The following legend is applicable only to US Government
 contracts under FAR:
  
                    RESTRICTED RIGHTS LEGEND
  
 Use, reproduction and disclosure by the US Government is
 subject to restrictions as set forth in subparagraphs (a)
 and (c) of the Commercial Computer Software - Restricted
 Rights clause in FAR 52.227-19.
  
 Gaussian, Inc.
 340 Quinnipiac St., Bldg. 40, Wallingford CT 06492
  
  
 ---------------------------------------------------------------
 Warning -- This program may not be used in any manner that
 competes with the business of Gaussian, Inc. or will provide
 assistance to any competitor of Gaussian, Inc.  The licensee
 of this program is prohibited from giving any competitor of
 Gaussian, Inc. access to this program.  By using this program,
 the user acknowledges that Gaussian, Inc. is engaged in the
 business of creating and licensing software in the field of
 computational chemistry and represents and warrants to the
 licensee that it is not a competitor of Gaussian, Inc. and that
 it will not use this program in any manner prohibited above.
 ---------------------------------------------------------------
  

 Cite this work as:
 Gaussian 16, Revision A.03,
 M. J. Frisch, G. W. Trucks, H. B. Schlegel, G. E. Scuseria, 
 M. A. Robb, J. R. Cheeseman, G. Scalmani, V. Barone, 
 G. A. Petersson, H. Nakatsuji, X. Li, M. Caricato, A. V. Marenich, 
 J. Bloino, B. G. Janesko, R. Gomperts, B. Mennucci, H. P. Hratchian, 
 J. V. Ortiz, A. F. Izmaylov, J. L. Sonnenberg, D. Williams-Young, 
 F. Ding, F. Lipparini, F. Egidi, J. Goings, B. Peng, A. Petrone, 
 T. Henderson, D. Ranasinghe, V. G. Zakrzewski, J. Gao, N. Rega, 
 G. Zheng, W. Liang, M. Hada, M. Ehara, K. Toyota, R. Fukuda, 
 J. Hasegawa, M. Ishida, T. Nakajima, Y. Honda, O. Kitao, H. Nakai, 
 T. Vreven, K. Throssell, J. A. Montgomery, Jr., J. E. Peralta, 
 F. Ogliaro, M. J. Bearpark, J. J. Heyd, E. N. Brothers, K. N. Kudin, 
 V. N. Staroverov, T. A. Keith, R. Kobayashi, J. Normand, 
 K. Raghavachari, A. P. Rendell, J. C. Burant, S. S. Iyengar, 
 J. Tomasi, M. Cossi, J. M. Millam, M. Klene, C. Adamo, R. Cammi, 
 J. W. Ochterski, R. L. Martin, K. Morokuma, O. Farkas, 
 J. B. Foresman, and D. J. Fox, Gaussian, Inc., Wallingford CT, 2016.
 
 ******************************************
 Gaussian 16:  EM64M-G16RevA.03 25-Dec-2016
                 2-Apr-2026 
 ******************************************
 %nprocshared=4
 Will use up to    4 processors via shared memory.
 %mem=8GB
 %chk=1112Tetrafluoroethane_Opt_Freq_DFT_WB97XD_pVDZ_Gaussian16.chk
 ----------------------------------------------------------------------
 #p opt=tight freq=raman wb97xd/aug-cc-pvdz guess=save geom=connectivit
 y polar
 ----------------------------------------------------------------------
 1/7=10,18=20,19=15,26=3,38=1,57=2/1,3;
 2/9=110,12=2,17=6,18=5,40=1/2;
 3/5=16,7=10,11=2,25=1,30=1,71=1,74=-58/1,2,3;
 4//1;
 5/5=2,38=5,98=1/2;
 6/7=2,8=2,9=2,10=2,28=1/1;
 7//1,2,3,16;
 1/7=10,18=20,19=15,26=3/3(2);
 2/9=110/2;
 99//99;
 2/9=110/2;
 3/5=16,7=10,11=2,25=1,30=1,71=1,74=-58/1,2,3;
 4/5=5,16=3,69=1/1;
 5/5=2,38=5,98=1/2;
 7//1,2,3,16;
 1/7=10,18=20,19=15,26=3/3(-5);
 2/9=110/2;
 6/7=2,8=2,9=2,10=2,19=2,28=1/1;
 99/9=1/99;
 Leave Link    1 at Thu Apr  2 15:47:23 2026, MaxMem=  1073741824 cpu:               0.1 elap:               0.0
 (Enter /Users/yarger/Applications/g16/l101.exe)
 ---------------------------------
 r134a - 1,1,1,2-Tetrafluoroethane
 ---------------------------------
 Symbolic Z-matrix:
 Charge =  0 Multiplicity = 1
 C                    -1.50144   1.41061   1.45695 
 H                    -1.18245   2.43192   1.44839 
 C                    -0.30505   0.49643   1.13366 
 F                     0.66039   0.67411   2.06041 
 F                    -0.70751  -0.79214   1.14446 
 F                     0.18076   0.80592  -0.08728 
 F                    -1.98724   1.10112   2.6779 
 H                    -2.26664   1.26978   0.72242 
 
 ITRead=  0  0  0  0  0  0  0  0
 MicOpt= -1 -1 -1 -1 -1 -1 -1 -1
 NAtoms=      8 NQM=        8 NQMF=       0 NMMI=      0 NMMIF=      0
                NMic=       0 NMicF=      0.
                    Isotopes and Nuclear Properties:
 (Nuclear quadrupole moments (NQMom) in fm**2, nuclear magnetic moments (NMagM)
  in nuclear magnetons)

  Atom         1           2           3           4           5           6           7           8
 IAtWgt=          12           1          12          19          19          19          19           1
 AtmWgt=  12.0000000   1.0078250  12.0000000  18.9984033  18.9984033  18.9984033  18.9984033   1.0078250
 NucSpn=           0           1           0           1           1           1           1           1
 AtZEff=  -0.0000000  -0.0000000  -0.0000000  -0.0000000  -0.0000000  -0.0000000  -0.0000000  -0.0000000
 NQMom=    0.0000000   0.0000000   0.0000000   0.0000000   0.0000000   0.0000000   0.0000000   0.0000000
 NMagM=    0.0000000   2.7928460   0.0000000   2.6288670   2.6288670   2.6288670   2.6288670   2.7928460
 AtZNuc=   6.0000000   1.0000000   6.0000000   9.0000000   9.0000000   9.0000000   9.0000000   1.0000000
 Leave Link  101 at Thu Apr  2 15:47:24 2026, MaxMem=  1073741824 cpu:               0.7 elap:               0.2
 (Enter /Users/yarger/Applications/g16/l103.exe)

 GradGradGradGradGradGradGradGradGradGradGradGradGradGradGradGradGradGrad
 Berny optimization.
 Initialization pass.
                           ----------------------------
                           !    Initial Parameters    !
                           ! (Angstroms and Degrees)  !
 --------------------------                            --------------------------
 ! Name  Definition              Value          Derivative Info.                !
 --------------------------------------------------------------------------------
 ! R1    R(1,2)                  1.07           estimate D2E/DX2                !
 ! R2    R(1,3)                  1.54           estimate D2E/DX2                !
 ! R3    R(1,7)                  1.35           estimate D2E/DX2                !
 ! R4    R(1,8)                  1.07           estimate D2E/DX2                !
 ! R5    R(3,4)                  1.35           estimate D2E/DX2                !
 ! R6    R(3,5)                  1.35           estimate D2E/DX2                !
 ! R7    R(3,6)                  1.35           estimate D2E/DX2                !
 ! A1    A(2,1,3)              109.4712         estimate D2E/DX2                !
 ! A2    A(2,1,7)              109.4712         estimate D2E/DX2                !
 ! A3    A(2,1,8)              109.4712         estimate D2E/DX2                !
 ! A4    A(3,1,7)              109.4712         estimate D2E/DX2                !
 ! A5    A(3,1,8)              109.4712         estimate D2E/DX2                !
 ! A6    A(7,1,8)              109.4712         estimate D2E/DX2                !
 ! A7    A(1,3,4)              109.4712         estimate D2E/DX2                !
 ! A8    A(1,3,5)              109.4712         estimate D2E/DX2                !
 ! A9    A(1,3,6)              109.4712         estimate D2E/DX2                !
 ! A10   A(4,3,5)              109.4712         estimate D2E/DX2                !
 ! A11   A(4,3,6)              109.4712         estimate D2E/DX2                !
 ! A12   A(5,3,6)              109.4712         estimate D2E/DX2                !
 ! D1    D(2,1,3,4)             60.0            estimate D2E/DX2                !
 ! D2    D(2,1,3,5)            180.0            estimate D2E/DX2                !
 ! D3    D(2,1,3,6)            -60.0            estimate D2E/DX2                !
 ! D4    D(7,1,3,4)            -60.0            estimate D2E/DX2                !
 ! D5    D(7,1,3,5)             60.0            estimate D2E/DX2                !
 ! D6    D(7,1,3,6)            180.0            estimate D2E/DX2                !
 ! D7    D(8,1,3,4)           -180.0            estimate D2E/DX2                !
 ! D8    D(8,1,3,5)            -60.0            estimate D2E/DX2                !
 ! D9    D(8,1,3,6)             60.0            estimate D2E/DX2                !
 --------------------------------------------------------------------------------
 Trust Radius=3.00D-01 FncErr=1.00D-07 GrdErr=1.00D-06 EigMax=2.50D+02 EigMin=1.00D-04
 Number of steps in this run=     38 maximum allowed number of steps=    100.
 GradGradGradGradGradGradGradGradGradGradGradGradGradGradGradGradGradGrad

 Leave Link  103 at Thu Apr  2 15:47:24 2026, MaxMem=  1073741824 cpu:               0.0 elap:               0.0
 (Enter /Users/yarger/Applications/g16/l202.exe)
                          Input orientation:                          
 ---------------------------------------------------------------------
 Center     Atomic      Atomic             Coordinates (Angstroms)
 Number     Number       Type             X           Y           Z
 ---------------------------------------------------------------------
      1          6           0       -1.501439    1.410611    1.456949
      2          1           0       -1.182454    2.431922    1.448389
      3          6           0       -0.305047    0.496427    1.133662
      4          9           0        0.660391    0.674113    2.060407
      5          9           0       -0.707506   -0.792142    1.144463
      6          9           0        0.180758    0.805915   -0.087285
      7          9           0       -1.987244    1.101123    2.677896
      8          1           0       -2.266638    1.269779    0.722418
 ---------------------------------------------------------------------
                    Distance matrix (angstroms):
                    1          2          3          4          5
     1  C    0.000000
     2  H    1.070000   0.000000
     3  C    1.540000   2.148263   0.000000
     4  F    2.362224   2.619262   1.350000   0.000000
     5  F    2.362224   3.273001   1.350000   2.204541   0.000000
     6  F    2.362224   2.619262   1.350000   2.204541   2.204541
     7  F    1.350000   1.982524   2.362224   2.752017   2.752017
     8  H    1.070000   1.747303   2.148263   3.273001   2.619262
                    6          7          8
     6  F    0.000000
     7  F    3.526131   0.000000
     8  H    2.619262   1.982524   0.000000
 Stoichiometry    C2H2F4
 Framework group  CS[SG(C2F2),X(H2F2)]
 Deg. of freedom    11
 Full point group                 CS      NOp   2
 Largest Abelian subgroup         CS      NOp   2
 Largest concise Abelian subgroup CS      NOp   2
                         Standard orientation:                         
 ---------------------------------------------------------------------
 Center     Atomic      Atomic             Coordinates (Angstroms)
 Number     Number       Type             X           Y           Z
 ---------------------------------------------------------------------
      1          6           0        0.803253   -0.868125   -0.000000
      2          1           0        1.420351   -0.896813   -0.873651
      3          6           0       -0.026516    0.429212    0.000000
      4          9           0       -0.805098    0.465407   -1.102270
      5          9           0       -0.805098    0.465407    1.102270
      6          9           0        0.803253    1.494099   -0.000000
      7          9           0       -0.026516   -1.933012   -0.000000
      8          1           0        1.420351   -0.896813    0.873651
 ---------------------------------------------------------------------
 Rotational constants (GHZ):           5.2497613           2.7740143           2.7610135
 Leave Link  202 at Thu Apr  2 15:47:24 2026, MaxMem=  1073741824 cpu:               0.0 elap:               0.0
 (Enter /Users/yarger/Applications/g16/l301.exe)
 Standard basis: Aug-CC-pVDZ (5D, 7F)
 Ernie: Thresh=  0.10000D-02 Tol=  0.10000D-05 Strict=F.
 Ernie:  12 primitive shells out of 164 were deleted.
 There are   106 symmetry adapted cartesian basis functions of A'  symmetry.
 There are    62 symmetry adapted cartesian basis functions of A"  symmetry.
 There are    96 symmetry adapted basis functions of A'  symmetry.
 There are    60 symmetry adapted basis functions of A"  symmetry.
   156 basis functions,   280 primitive gaussians,   168 cartesian basis functions
    25 alpha electrons       25 beta electrons
       nuclear repulsion energy       271.2438406540 Hartrees.
 IExCor= 4639 DFT=T Ex+Corr=wB97XD ExCW=0 ScaHFX=  1.000000
 ScaDFX=  1.000000  1.000000  1.000000  1.000000 ScalE2=  1.000000  1.000000
 IRadAn=      5 IRanWt=     -1 IRanGd=            0 ICorTp=0 IEmpDi=121
 HFx  wShort=  0.000000 wLong=  0.200000 cFull=  0.222036 cShort=  0.000000 cLong=  0.777964
 DFx  wShort=  0.000000 wLong=  0.200000 cFull=  0.000000 cShort=  0.000000 cLong=  1.000000
 NAtoms=    8 NActive=    8 NUniq=    6 SFac= 1.78D+00 NAtFMM=   60 NAOKFM=F Big=F
 Integral buffers will be    131072 words long.
 Raffenetti 2 integral format.
 Two-electron integral symmetry is turned on.
 R6Disp:  Grimme-D2 Dispersion energy=       -0.0021561211 Hartrees.
 Nuclear repulsion after empirical dispersion term =      271.2416845329 Hartrees.
 Leave Link  301 at Thu Apr  2 15:47:24 2026, MaxMem=  1073741824 cpu:               0.1 elap:               0.0
 (Enter /Users/yarger/Applications/g16/l302.exe)
 NPDir=0 NMtPBC=     1 NCelOv=     1 NCel=       1 NClECP=     1 NCelD=      1
         NCelK=      1 NCelE2=     1 NClLst=     1 CellRange=     0.0.
 One-electron integrals computed using PRISM.
 One-electron integral symmetry used in STVInt
 NBasis=   156 RedAO= T EigKep=  1.80D-04  NBF=    96    60
 NBsUse=   156 1.00D-06 EigRej= -1.00D+00 NBFU=    96    60
 Precomputing XC quadrature grid using
 IXCGrd= 4 IRadAn=           5 IRanWt=          -1 IRanGd=           0 AccXCQ= 0.00D+00.
 Generated NRdTot=       0 NPtTot=           0 NUsed=           0 NTot=          32
 NSgBfM=   168   168   168   168   168 MxSgAt=     8 MxSgA2=     8.
 Leave Link  302 at Thu Apr  2 15:47:24 2026, MaxMem=  1073741824 cpu:               0.5 elap:               0.1
 (Enter /Users/yarger/Applications/g16/l303.exe)
 DipDrv:  MaxL=1.
 Leave Link  303 at Thu Apr  2 15:47:24 2026, MaxMem=  1073741824 cpu:               0.1 elap:               0.0
 (Enter /Users/yarger/Applications/g16/l401.exe)
 ExpMin= 2.97D-02 ExpMax= 1.47D+04 ExpMxC= 5.03D+02 IAcc=3 IRadAn=         5 AccDes= 0.00D+00
 Harris functional with IExCor= 4639 and IRadAn=       5 diagonalized for initial guess.
 HarFok:  IExCor= 4639 AccDes= 0.00D+00 IRadAn=         5 IDoV= 1 UseB2=F ITyADJ=14
 ICtDFT=  3500011 ScaDFX=  1.000000  1.000000  1.000000  1.000000
 FoFCou: FMM=F IPFlag=           0 FMFlag=      100000 FMFlg1=           0
         NFxFlg=           0 DoJE=T BraDBF=F KetDBF=T FulRan=T
         wScrn=  0.000000 ICntrl=       500 IOpCl=  0 I1Cent=   200000004 NGrid=           0
         NMat0=    1 NMatS0=      1 NMatT0=    0 NMatD0=    1 NMtDS0=    0 NMtDT0=    0
 Petite list used in FoFCou.
 Harris En= -461.180360833734    
 JPrj=0 DoOrth=F DoCkMO=F.
 Initial guess orbital symmetries:
       Occupied  (A') (A') (A") (A') (A') (A') (A') (A') (A") (A')
                 (A') (A') (A") (A') (A') (A") (A') (A') (A") (A')
                 (A') (A") (A") (A") (A')
       Virtual   (A') (A") (A') (A') (A") (A') (A') (A') (A") (A')
                 (A') (A") (A') (A') (A") (A') (A") (A') (A") (A')
                 (A") (A') (A') (A') (A') (A") (A") (A') (A') (A")
                 (A') (A') (A") (A') (A') (A") (A") (A') (A') (A')
                 (A") (A') (A') (A") (A') (A') (A") (A") (A') (A')
                 (A') (A") (A') (A') (A") (A') (A") (A') (A") (A")
                 (A') (A") (A') (A") (A') (A') (A") (A') (A") (A')
                 (A") (A') (A") (A') (A') (A') (A") (A") (A') (A')
                 (A") (A") (A') (A') (A") (A') (A") (A') (A') (A")
                 (A') (A") (A') (A") (A') (A') (A') (A") (A') (A')
                 (A") (A') (A') (A") (A') (A') (A") (A') (A") (A')
                 (A') (A") (A') (A") (A') (A") (A') (A") (A') (A')
                 (A") (A') (A") (A') (A") (A') (A') (A') (A") (A')
                 (A")
 The electronic state of the initial guess is 1-A'.
 Leave Link  401 at Thu Apr  2 15:47:24 2026, MaxMem=  1073741824 cpu:               1.3 elap:               0.4
 (Enter /Users/yarger/Applications/g16/l502.exe)
 Keep R1 ints in memory in symmetry-blocked form, NReq=225262371.
 FoFCou: FMM=F IPFlag=           0 FMFlag=           0 FMFlg1=           0
         NFxFlg=           0 DoJE=F BraDBF=F KetDBF=F FulRan=T
         wScrn=  0.000000 ICntrl=       600 IOpCl=  0 I1Cent=           0 NGrid=           0
         NMat0=    1 NMatS0=  12246 NMatT0=    0 NMatD0=    1 NMtDS0=    0 NMtDT0=    0
 Petite list used in FoFCou.
 Closed shell SCF:
 Using DIIS extrapolation, IDIIS=  1040.
 NGot=  1073741824 LenX=  1036027171 LenY=  1035998506
 Requested convergence on RMS density matrix=1.00D-08 within 128 cycles.
 Requested convergence on MAX density matrix=1.00D-06.
 Requested convergence on             energy=1.00D-06.
 No special actions if energy rises.

 Cycle   1  Pass 1  IDiag  1:
 E= -476.354878818038    
 DIIS: error= 4.44D-02 at cycle   1 NSaved=   1.
 NSaved= 1 IEnMin= 1 EnMin= -476.354878818038     IErMin= 1 ErrMin= 4.44D-02
 ErrMax= 4.44D-02  0.00D+00 EMaxC= 1.00D-01 BMatC= 6.05D-01 BMatP= 6.05D-01
 IDIUse=3 WtCom= 5.56D-01 WtEn= 4.44D-01
 Coeff-Com:  0.100D+01
 Coeff-En:   0.100D+01
 Coeff:      0.100D+01
 Gap=     0.656 Goal=   None    Shift=    0.000
 GapD=    0.656 DampG=2.000 DampE=0.500 DampFc=1.0000 IDamp=-1.
 RMSDP=5.75D-03 MaxDP=1.33D-01              OVMax= 1.42D-01

 Cycle   2  Pass 1  IDiag  1:
 E= -476.460373646894     Delta-E=       -0.105494828856 Rises=F Damp=F
 DIIS: error= 3.60D-02 at cycle   2 NSaved=   2.
 NSaved= 2 IEnMin= 2 EnMin= -476.460373646894     IErMin= 2 ErrMin= 3.60D-02
 ErrMax= 3.60D-02  0.00D+00 EMaxC= 1.00D-01 BMatC= 4.44D-01 BMatP= 6.05D-01
 IDIUse=3 WtCom= 6.40D-01 WtEn= 3.60D-01
 Coeff-Com:  0.459D+00 0.541D+00
 Coeff-En:   0.401D+00 0.599D+00
 Coeff:      0.438D+00 0.562D+00
 Gap=     0.641 Goal=   None    Shift=    0.000
 RMSDP=2.34D-03 MaxDP=8.44D-02 DE=-1.05D-01 OVMax= 8.40D-02

 Cycle   3  Pass 1  IDiag  1:
 E= -476.704924766034     Delta-E=       -0.244551119140 Rises=F Damp=F
 DIIS: error= 6.30D-03 at cycle   3 NSaved=   3.
 NSaved= 3 IEnMin= 3 EnMin= -476.704924766034     IErMin= 3 ErrMin= 6.30D-03
 ErrMax= 6.30D-03  0.00D+00 EMaxC= 1.00D-01 BMatC= 1.26D-02 BMatP= 4.44D-01
 IDIUse=3 WtCom= 9.37D-01 WtEn= 6.30D-02
 Coeff-Com:  0.109D+00 0.192D+00 0.699D+00
 Coeff-En:   0.000D+00 0.000D+00 0.100D+01
 Coeff:      0.102D+00 0.180D+00 0.718D+00
 Gap=     0.496 Goal=   None    Shift=    0.000
 RMSDP=7.19D-04 MaxDP=1.89D-02 DE=-2.45D-01 OVMax= 2.22D-02

 Cycle   4  Pass 1  IDiag  1:
 E= -476.712779920701     Delta-E=       -0.007855154667 Rises=F Damp=F
 DIIS: error= 2.39D-03 at cycle   4 NSaved=   4.
 NSaved= 4 IEnMin= 4 EnMin= -476.712779920701     IErMin= 4 ErrMin= 2.39D-03
 ErrMax= 2.39D-03  0.00D+00 EMaxC= 1.00D-01 BMatC= 1.75D-03 BMatP= 1.26D-02
 IDIUse=3 WtCom= 9.76D-01 WtEn= 2.39D-02
 Coeff-Com: -0.108D-01-0.897D-02 0.269D+00 0.751D+00
 Coeff-En:   0.000D+00 0.000D+00 0.256D-01 0.974D+00
 Coeff:     -0.106D-01-0.876D-02 0.263D+00 0.756D+00
 Gap=     0.493 Goal=   None    Shift=    0.000
 RMSDP=2.36D-04 MaxDP=5.16D-03 DE=-7.86D-03 OVMax= 6.06D-03

 Cycle   5  Pass 1  IDiag  1:
 E= -476.713971871137     Delta-E=       -0.001191950436 Rises=F Damp=F
 DIIS: error= 1.70D-04 at cycle   5 NSaved=   5.
 NSaved= 5 IEnMin= 5 EnMin= -476.713971871137     IErMin= 5 ErrMin= 1.70D-04
 ErrMax= 1.70D-04  0.00D+00 EMaxC= 1.00D-01 BMatC= 1.13D-05 BMatP= 1.75D-03
 IDIUse=3 WtCom= 9.98D-01 WtEn= 1.70D-03
 Coeff-Com: -0.401D-02-0.609D-02 0.384D-01 0.138D+00 0.834D+00
 Coeff-En:   0.000D+00 0.000D+00 0.000D+00 0.000D+00 0.100D+01
 Coeff:     -0.401D-02-0.608D-02 0.383D-01 0.137D+00 0.834D+00
 Gap=     0.492 Goal=   None    Shift=    0.000
 RMSDP=3.62D-05 MaxDP=8.61D-04 DE=-1.19D-03 OVMax= 1.01D-03

 Cycle   6  Pass 1  IDiag  1:
 E= -476.713980500913     Delta-E=       -0.000008629776 Rises=F Damp=F
 DIIS: error= 1.20D-04 at cycle   6 NSaved=   6.
 NSaved= 6 IEnMin= 6 EnMin= -476.713980500913     IErMin= 6 ErrMin= 1.20D-04
 ErrMax= 1.20D-04  0.00D+00 EMaxC= 1.00D-01 BMatC= 3.78D-06 BMatP= 1.13D-05
 IDIUse=3 WtCom= 9.99D-01 WtEn= 1.20D-03
 Coeff-Com: -0.632D-03-0.200D-02-0.109D-01-0.197D-01 0.369D+00 0.664D+00
 Coeff-En:   0.000D+00 0.000D+00 0.000D+00 0.000D+00 0.000D+00 0.100D+01
 Coeff:     -0.631D-03-0.200D-02-0.108D-01-0.196D-01 0.369D+00 0.664D+00
 Gap=     0.492 Goal=   None    Shift=    0.000
 RMSDP=1.29D-05 MaxDP=3.19D-04 DE=-8.63D-06 OVMax= 3.60D-04

 Cycle   7  Pass 1  IDiag  1:
 E= -476.713983153943     Delta-E=       -0.000002653031 Rises=F Damp=F
 DIIS: error= 2.57D-05 at cycle   7 NSaved=   7.
 NSaved= 7 IEnMin= 7 EnMin= -476.713983153943     IErMin= 7 ErrMin= 2.57D-05
 ErrMax= 2.57D-05  0.00D+00 EMaxC= 1.00D-01 BMatC= 2.16D-07 BMatP= 3.78D-06
 IDIUse=1 WtCom= 1.00D+00 WtEn= 0.00D+00
 Coeff-Com:  0.702D-04-0.396D-03-0.761D-02-0.190D-01 0.626D-01 0.239D+00
 Coeff-Com:  0.725D+00
 Coeff:      0.702D-04-0.396D-03-0.761D-02-0.190D-01 0.626D-01 0.239D+00
 Coeff:      0.725D+00
 Gap=     0.492 Goal=   None    Shift=    0.000
 RMSDP=4.00D-06 MaxDP=9.75D-05 DE=-2.65D-06 OVMax= 1.18D-04

 Cycle   8  Pass 1  IDiag  1:
 E= -476.713983319129     Delta-E=       -0.000000165186 Rises=F Damp=F
 DIIS: error= 5.43D-06 at cycle   8 NSaved=   8.
 NSaved= 8 IEnMin= 8 EnMin= -476.713983319129     IErMin= 8 ErrMin= 5.43D-06
 ErrMax= 5.43D-06  0.00D+00 EMaxC= 1.00D-01 BMatC= 1.30D-08 BMatP= 2.16D-07
 IDIUse=1 WtCom= 1.00D+00 WtEn= 0.00D+00
 Coeff-Com:  0.732D-04 0.160D-04-0.146D-02-0.399D-02-0.144D-01 0.134D-01
 Coeff-Com:  0.215D+00 0.791D+00
 Coeff:      0.732D-04 0.160D-04-0.146D-02-0.399D-02-0.144D-01 0.134D-01
 Coeff:      0.215D+00 0.791D+00
 Gap=     0.492 Goal=   None    Shift=    0.000
 RMSDP=1.12D-06 MaxDP=2.85D-05 DE=-1.65D-07 OVMax= 3.64D-05

 Cycle   9  Pass 1  IDiag  1:
 E= -476.713983332501     Delta-E=       -0.000000013372 Rises=F Damp=F
 DIIS: error= 1.10D-06 at cycle   9 NSaved=   9.
 NSaved= 9 IEnMin= 9 EnMin= -476.713983332501     IErMin= 9 ErrMin= 1.10D-06
 ErrMax= 1.10D-06  0.00D+00 EMaxC= 1.00D-01 BMatC= 4.19D-10 BMatP= 1.30D-08
 IDIUse=1 WtCom= 1.00D+00 WtEn= 0.00D+00
 Coeff-Com:  0.676D-05 0.262D-04 0.238D-03 0.542D-03-0.547D-02-0.113D-01
 Coeff-Com: -0.116D-01 0.115D+00 0.912D+00
 Coeff:      0.676D-05 0.262D-04 0.238D-03 0.542D-03-0.547D-02-0.113D-01
 Coeff:     -0.116D-01 0.115D+00 0.912D+00
 Gap=     0.492 Goal=   None    Shift=    0.000
 RMSDP=2.82D-07 MaxDP=6.29D-06 DE=-1.34D-08 OVMax= 9.44D-06

 Cycle  10  Pass 1  IDiag  1:
 E= -476.713983332985     Delta-E=       -0.000000000484 Rises=F Damp=F
 DIIS: error= 5.24D-07 at cycle  10 NSaved=  10.
 NSaved=10 IEnMin=10 EnMin= -476.713983332985     IErMin=10 ErrMin= 5.24D-07
 ErrMax= 5.24D-07  0.00D+00 EMaxC= 1.00D-01 BMatC= 1.13D-10 BMatP= 4.19D-10
 IDIUse=1 WtCom= 1.00D+00 WtEn= 0.00D+00
 Coeff-Com: -0.197D-05 0.115D-04 0.189D-03 0.459D-03-0.126D-02-0.522D-02
 Coeff-Com: -0.185D-01-0.749D-02 0.375D+00 0.656D+00
 Coeff:     -0.197D-05 0.115D-04 0.189D-03 0.459D-03-0.126D-02-0.522D-02
 Coeff:     -0.185D-01-0.749D-02 0.375D+00 0.656D+00
 Gap=     0.492 Goal=   None    Shift=    0.000
 RMSDP=7.22D-08 MaxDP=1.52D-06 DE=-4.84D-10 OVMax= 1.91D-06

 Cycle  11  Pass 1  IDiag  1:
 E= -476.713983333062     Delta-E=       -0.000000000077 Rises=F Damp=F
 DIIS: error= 1.44D-07 at cycle  11 NSaved=  11.
 NSaved=11 IEnMin=11 EnMin= -476.713983333062     IErMin=11 ErrMin= 1.44D-07
 ErrMax= 1.44D-07  0.00D+00 EMaxC= 1.00D-01 BMatC= 8.44D-12 BMatP= 1.13D-10
 IDIUse=1 WtCom= 1.00D+00 WtEn= 0.00D+00
 Coeff-Com: -0.108D-05 0.199D-05 0.303D-04 0.671D-04 0.260D-03-0.131D-03
 Coeff-Com: -0.366D-02-0.164D-01-0.288D-02 0.210D+00 0.813D+00
 Coeff:     -0.108D-05 0.199D-05 0.303D-04 0.671D-04 0.260D-03-0.131D-03
 Coeff:     -0.366D-02-0.164D-01-0.288D-02 0.210D+00 0.813D+00
 Gap=     0.492 Goal=   None    Shift=    0.000
 RMSDP=3.18D-08 MaxDP=6.77D-07 DE=-7.74D-11 OVMax= 7.90D-07

 Cycle  12  Pass 1  IDiag  1:
 E= -476.713983333074     Delta-E=       -0.000000000012 Rises=F Damp=F
 DIIS: error= 1.72D-08 at cycle  12 NSaved=  12.
 NSaved=12 IEnMin=12 EnMin= -476.713983333074     IErMin=12 ErrMin= 1.72D-08
 ErrMax= 1.72D-08  0.00D+00 EMaxC= 1.00D-01 BMatC= 9.95D-14 BMatP= 8.44D-12
 IDIUse=1 WtCom= 1.00D+00 WtEn= 0.00D+00
 Coeff-Com:  0.139D-06-0.146D-06-0.824D-05-0.212D-04 0.574D-04 0.221D-03
 Coeff-Com:  0.778D-03-0.684D-03-0.182D-01-0.182D-01 0.300D-01 0.101D+01
 Coeff:      0.139D-06-0.146D-06-0.824D-05-0.212D-04 0.574D-04 0.221D-03
 Coeff:      0.778D-03-0.684D-03-0.182D-01-0.182D-01 0.300D-01 0.101D+01
 Gap=     0.492 Goal=   None    Shift=    0.000
 RMSDP=6.57D-09 MaxDP=1.71D-07 DE=-1.23D-11 OVMax= 2.07D-07

 SCF Done:  E(RwB97XD) =  -476.713983333     A.U. after   12 cycles
            NFock= 12  Conv=0.66D-08     -V/T= 2.0053
 KE= 4.742019651923D+02 PE=-1.673867100931D+03 EE= 4.517094678730D+02
 Leave Link  502 at Thu Apr  2 15:47:30 2026, MaxMem=  1073741824 cpu:              22.9 elap:               5.9
 (Enter /Users/yarger/Applications/g16/l601.exe)
 Copying SCF densities to generalized density rwf, IOpCl= 0 IROHF=0.

 **********************************************************************

            Population analysis using the SCF density.

 **********************************************************************

 Orbital symmetries:
       Occupied  (A') (A") (A') (A') (A') (A') (A') (A') (A") (A')
                 (A') (A') (A') (A") (A') (A') (A") (A') (A") (A')
                 (A') (A") (A") (A") (A')
       Virtual   (A') (A") (A') (A') (A") (A') (A') (A') (A") (A')
                 (A") (A') (A') (A") (A') (A') (A') (A") (A') (A')
                 (A") (A') (A") (A') (A') (A") (A') (A") (A') (A')
                 (A") (A") (A') (A') (A') (A") (A") (A') (A') (A')
                 (A") (A') (A') (A") (A') (A") (A') (A') (A") (A')
                 (A') (A") (A') (A') (A") (A') (A") (A') (A") (A")
                 (A') (A") (A') (A") (A') (A') (A") (A") (A') (A')
                 (A") (A') (A") (A') (A') (A') (A") (A") (A') (A")
                 (A') (A') (A') (A") (A") (A') (A") (A') (A') (A")
                 (A') (A") (A') (A") (A') (A') (A') (A") (A') (A')
                 (A") (A') (A') (A') (A") (A') (A") (A') (A') (A")
                 (A') (A") (A') (A") (A') (A") (A') (A') (A") (A')
                 (A") (A') (A") (A') (A") (A') (A') (A') (A") (A')
                 (A")
 The electronic state is 1-A'.
 Alpha  occ. eigenvalues --  -24.89258 -24.88621 -24.88620 -24.85747 -10.56976
 Alpha  occ. eigenvalues --  -10.40959  -1.43828  -1.35779  -1.35206  -1.34785
 Alpha  occ. eigenvalues --   -0.89663  -0.79146  -0.70980  -0.70874  -0.68468
 Alpha  occ. eigenvalues --   -0.62422  -0.62223  -0.57652  -0.57591  -0.55188
 Alpha  occ. eigenvalues --   -0.53923  -0.53881  -0.52181  -0.46837  -0.45575
 Alpha virt. eigenvalues --    0.03616   0.05448   0.07615   0.08350   0.11487
 Alpha virt. eigenvalues --    0.11732   0.12229   0.14655   0.15389   0.16437
 Alpha virt. eigenvalues --    0.19305   0.19717   0.21253   0.24945   0.25111
 Alpha virt. eigenvalues --    0.25657   0.26361   0.27379   0.29888   0.30806
 Alpha virt. eigenvalues --    0.30939   0.31982   0.33094   0.33886   0.35914
 Alpha virt. eigenvalues --    0.36311   0.37318   0.37863   0.38742   0.41816
 Alpha virt. eigenvalues --    0.42550   0.43012   0.44417   0.45325   0.48564
 Alpha virt. eigenvalues --    0.49807   0.53895   0.55231   0.56482   0.58318
 Alpha virt. eigenvalues --    0.61056   0.61543   0.67329   0.69095   0.70560
 Alpha virt. eigenvalues --    0.72662   0.73157   0.74965   0.75850   0.83658
 Alpha virt. eigenvalues --    0.84678   0.92475   0.99709   1.01718   1.02861
 Alpha virt. eigenvalues --    1.11070   1.13302   1.18709   1.23947   1.26278
 Alpha virt. eigenvalues --    1.30991   1.32453   1.33127   1.33522   1.33801
 Alpha virt. eigenvalues --    1.36676   1.36823   1.40500   1.41271   1.44237
 Alpha virt. eigenvalues --    1.46684   1.50472   1.51983   1.52264   1.54022
 Alpha virt. eigenvalues --    1.56526   1.57295   1.64632   1.66030   1.70438
 Alpha virt. eigenvalues --    1.70807   1.74182   1.75652   1.75682   1.78370
 Alpha virt. eigenvalues --    1.80738   1.81482   1.91705   1.96263   1.97484
 Alpha virt. eigenvalues --    2.01264   2.04885   2.10506   2.13948   2.18206
 Alpha virt. eigenvalues --    2.21340   2.24415   2.31166   2.35383   2.45005
 Alpha virt. eigenvalues --    2.47197   2.49334   2.61847   2.63047   2.63183
 Alpha virt. eigenvalues --    2.72277   2.78149   3.31081   3.37154   3.37425
 Alpha virt. eigenvalues --    3.50088   4.51098   4.54885   4.55133   4.56558
 Alpha virt. eigenvalues --    4.57920   4.59235   4.63333   4.63613   4.65117
 Alpha virt. eigenvalues --    4.67028   4.68878   4.69383   4.70196   4.72730
 Alpha virt. eigenvalues --    4.74768   4.76189   4.80930   4.81291   4.90135
 Alpha virt. eigenvalues --    4.91086
          Condensed to atoms (all electrons):
               1          2          3          4          5          6
     1  C    4.083475   0.258855   0.526651  -0.002326  -0.002326  -0.004877
     2  H    0.258855   1.258697  -0.127951   0.000562   0.036943   0.002564
     3  C    0.526651  -0.127951   4.366544   0.016614   0.016614   0.019092
     4  F   -0.002326   0.000562   0.016614   9.480582  -0.053232  -0.049903
     5  F   -0.002326   0.036943   0.016614  -0.053232   9.480582  -0.049903
     6  F   -0.004877   0.002564   0.019092  -0.049903  -0.049903   9.490018
     7  F    0.063473  -0.070724   0.005413  -0.000107  -0.000107   0.016914
     8  H    0.258855  -0.143135  -0.127951   0.036943   0.000562   0.002564
               7          8
     1  C    0.063473   0.258855
     2  H   -0.070724  -0.143135
     3  C    0.005413  -0.127951
     4  F   -0.000107   0.036943
     5  F   -0.000107   0.000562
     6  F    0.016914   0.002564
     7  F    9.462702  -0.070724
     8  H   -0.070724   1.258697
 Mulliken charges:
               1
     1  C    0.818219
     2  H   -0.215811
     3  C    1.304974
     4  F   -0.429132
     5  F   -0.429132
     6  F   -0.426468
     7  F   -0.406839
     8  H   -0.215811
 Sum of Mulliken charges =  -0.00000
 Mulliken charges with hydrogens summed into heavy atoms:
               1
     1  C    0.386597
     3  C    1.304974
     4  F   -0.429132
     5  F   -0.429132
     6  F   -0.426468
     7  F   -0.406839
 Electronic spatial extent (au):  <R**2>=            478.4526
 Charge=             -0.0000 electrons
 Dipole moment (field-independent basis, Debye):
    X=              2.0025    Y=             -0.2995    Z=              0.0000  Tot=              2.0248
 Quadrupole moment (field-independent basis, Debye-Ang):
   XX=            -30.5297   YY=            -35.1988   ZZ=            -31.9619
   XY=             -2.1325   XZ=             -0.0000   YZ=             -0.0000
 Traceless Quadrupole moment (field-independent basis, Debye-Ang):
   XX=              2.0338   YY=             -2.6353   ZZ=              0.6016
   XY=             -2.1325   XZ=             -0.0000   YZ=             -0.0000
 Octapole moment (field-independent basis, Debye-Ang**2):
  XXX=             -2.7465  YYY=              7.8252  ZZZ=              0.0000  XYY=             -1.4066
  XXY=             -1.9873  XXZ=             -0.0000  XZZ=              0.9983  YZZ=             -0.6856
  YYZ=             -0.0000  XYZ=             -0.0000
 Hexadecapole moment (field-independent basis, Debye-Ang**3):
 XXXX=           -114.8526 YYYY=           -264.1557 ZZZZ=           -101.0146 XXXY=              6.2458
 XXXZ=             -0.0000 YYYX=              6.2162 YYYZ=              0.0000 ZZZX=              0.0000
 ZZZY=             -0.0000 XXYY=            -59.4341 XXZZ=            -34.3636 YYZZ=            -58.1150
 XXYZ=              0.0000 YYXZ=              0.0000 ZZXY=              1.8565
 N-N= 2.712416845329D+02 E-N=-1.673867101685D+03  KE= 4.742019651923D+02
 Symmetry A'   KE= 3.579428843237D+02
 Symmetry A"   KE= 1.162590808686D+02
 No NMR shielding tensors so no spin-rotation constants.
 Leave Link  601 at Thu Apr  2 15:47:30 2026, MaxMem=  1073741824 cpu:               0.3 elap:               0.1
 (Enter /Users/yarger/Applications/g16/l701.exe)
 ... and contract with generalized density number  0.
 Compute integral first derivatives.
 R6Disp: Adding Grimme-D2 dispersion energy 1st derivatives to the gradient.
 Leave Link  701 at Thu Apr  2 15:47:30 2026, MaxMem=  1073741824 cpu:               0.3 elap:               0.1
 (Enter /Users/yarger/Applications/g16/l702.exe)
 L702 exits ... SP integral derivatives will be done elsewhere.
 Leave Link  702 at Thu Apr  2 15:47:31 2026, MaxMem=  1073741824 cpu:               0.1 elap:               0.0
 (Enter /Users/yarger/Applications/g16/l703.exe)
 Integral derivatives from FoFJK, PRISM(SPDF).
 Compute integral first derivatives, UseDBF=F ICtDFT=           0.
 Calling FoFJK, ICntrl=      2127 FMM=F ISym2X=1 I1Cent= 0 IOpClX= 0 NMat=1 NMatS=1 NMatT=0.
 FoFJK:  IHMeth= 1 ICntrl=    2127 DoSepK=T KAlg= 0 I1Cent=           0 FoldK=F
 IRaf=         1 NMat=       1 IRICut=       1 DoRegI=T DoRafI=F ISym2E= 1 IDoP0=0 IntGTp=1.
 FoFCou: FMM=F IPFlag=           0 FMFlag=      100000 FMFlg1=         800
         NFxFlg=           0 DoJE=F BraDBF=F KetDBF=F FulRan=T
         wScrn=  0.000000 ICntrl=      2527 IOpCl=  0 I1Cent=           0 NGrid=           0
         NMat0=    1 NMatS0=      1 NMatT0=    0 NMatD0=    1 NMtDS0=    0 NMtDT0=    0
 Petite list used in FoFCou.
 Leave Link  703 at Thu Apr  2 15:47:33 2026, MaxMem=  1073741824 cpu:              10.3 elap:               2.6
 (Enter /Users/yarger/Applications/g16/l716.exe)
 Dipole        = 7.87859747D-01-1.17821465D-01 1.99840144D-15
 ***** Axes restored to original set *****
 -------------------------------------------------------------------
 Center     Atomic                   Forces (Hartrees/Bohr)
 Number     Number              X              Y              Z
 -------------------------------------------------------------------
      1        6           0.018473869   -0.011979599   -0.008412293
      2        1           0.008406805    0.018589775   -0.000035053
      3        6          -0.018519679    0.011435383    0.009351893
      4        9          -0.000604045   -0.007520518   -0.009850539
      5        9           0.011147379    0.005075893   -0.001981779
      6        9           0.001305627   -0.005392465    0.006682466
      7        9          -0.006817730   -0.005431751    0.018877002
      8        1          -0.013392227   -0.004776717   -0.014631698
 -------------------------------------------------------------------
 Cartesian Forces:  Max     0.018877002 RMS     0.010733425
 Leave Link  716 at Thu Apr  2 15:47:33 2026, MaxMem=  1073741824 cpu:               0.1 elap:               0.0
 (Enter /Users/yarger/Applications/g16/l103.exe)

 GradGradGradGradGradGradGradGradGradGradGradGradGradGradGradGradGradGrad
 Berny optimization.
 FormGI is forming the generalized inverse of G from B-inverse, IUseBI=4.
 Internal  Forces:  Max     0.020772012 RMS     0.008885773
 Search for a local minimum.
 Step number   1 out of a maximum of   38
 All quantities printed in internal units (Hartrees-Bohrs-Radians)
 RMS Force = .88858D-02 SwitMx=.10000D-02 MixMth= 1
 Mixed Optimization -- RFO/linear search
 Second derivative matrix not updated -- first step.
 ITU=  0
     Eigenvalues ---    0.00237   0.05720   0.05976   0.08850   0.08850
     Eigenvalues ---    0.16000   0.16000   0.22461   0.25000   0.25000
     Eigenvalues ---    0.25000   0.28519   0.37230   0.37230   0.55021
     Eigenvalues ---    0.55021   0.55021   0.55021
 RFO step:  Lambda=-6.35209151D-03 EMin= 2.36824250D-03
 Linear search not attempted -- first point.
 Iteration  1 RMS(Cart)=  0.03174762 RMS(Int)=  0.00108811
 Iteration  2 RMS(Cart)=  0.00112893 RMS(Int)=  0.00047097
 Iteration  3 RMS(Cart)=  0.00000090 RMS(Int)=  0.00047097
 ITry= 1 IFail=0 DXMaxC= 7.70D-02 DCOld= 1.00D+10 DXMaxT= 3.00D-01 DXLimC= 3.00D+00 Rises=F
 ClnCor:  largest displacement from symmetrization is 7.57D-09 for atom     5.
 Variable       Old X    -DE/DX   Delta X   Delta X   Delta X     New X
                                 (Linear)    (Quad)   (Total)
    R1        2.02201   0.02025   0.00000   0.05348   0.05348   2.07549
    R2        2.91018  -0.00820   0.00000  -0.02813  -0.02813   2.88205
    R3        2.55113   0.02077   0.00000   0.03732   0.03732   2.58845
    R4        2.02201   0.02025   0.00000   0.05348   0.05348   2.07549
    R5        2.55113  -0.00818   0.00000  -0.01471  -0.01471   2.53643
    R6        2.55113  -0.00818   0.00000  -0.01471  -0.01471   2.53643
    R7        2.55113  -0.00681   0.00000  -0.01223  -0.01223   2.53890
    A1        1.91063  -0.00262   0.00000  -0.01573  -0.01581   1.89482
    A2        1.91063   0.00162   0.00000   0.00864   0.00859   1.91922
    A3        1.91063   0.00280   0.00000   0.01798   0.01786   1.92850
    A4        1.91063  -0.00079   0.00000  -0.00380  -0.00384   1.90679
    A5        1.91063  -0.00262   0.00000  -0.01573  -0.01581   1.89482
    A6        1.91063   0.00162   0.00000   0.00864   0.00859   1.91922
    A7        1.91063   0.01310   0.00000   0.05243   0.05134   1.96197
    A8        1.91063   0.01310   0.00000   0.05243   0.05134   1.96197
    A9        1.91063   0.00446   0.00000   0.01475   0.01442   1.92505
   A10        1.91063  -0.01210   0.00000  -0.04187  -0.04353   1.86710
   A11        1.91063  -0.00928   0.00000  -0.03888  -0.03919   1.87145
   A12        1.91063  -0.00928   0.00000  -0.03888  -0.03919   1.87145
    D1        1.04720  -0.00073   0.00000  -0.00785  -0.00821   1.03898
    D2        3.14159   0.00050   0.00000   0.00509   0.00542  -3.13618
    D3       -1.04720  -0.00011   0.00000  -0.00138  -0.00140  -1.04860
    D4       -1.04720  -0.00061   0.00000  -0.00647  -0.00681  -1.05401
    D5        1.04720   0.00061   0.00000   0.00647   0.00681   1.05401
    D6        3.14159  -0.00000   0.00000  -0.00000   0.00000   3.14159
    D7       -3.14159  -0.00050   0.00000  -0.00509  -0.00542   3.13618
    D8       -1.04720   0.00073   0.00000   0.00785   0.00821  -1.03898
    D9        1.04720   0.00011   0.00000   0.00138   0.00140   1.04860
         Item               Value     Threshold  Converged?
 Maximum Force            0.020772     0.000015     NO 
 RMS     Force            0.008886     0.000010     NO 
 Maximum Displacement     0.076961     0.000060     NO 
 RMS     Displacement     0.031651     0.000040     NO 
 Predicted change in Energy=-3.243029D-03
 Lowest energy point so far.  Saving SCF results.
 GradGradGradGradGradGradGradGradGradGradGradGradGradGradGradGradGradGrad

 Leave Link  103 at Thu Apr  2 15:47:33 2026, MaxMem=  1073741824 cpu:               0.0 elap:               0.0
 (Enter /Users/yarger/Applications/g16/l202.exe)
                          Input orientation:                          
 ---------------------------------------------------------------------
 Center     Atomic      Atomic             Coordinates (Angstroms)
 Number     Number       Type             X           Y           Z
 ---------------------------------------------------------------------
      1          6           0       -1.510397    1.416893    1.460271
      2          1           0       -1.164164    2.459103    1.446721
      3          6           0       -0.326473    0.507806    1.147445
      4          9           0        0.671980    0.644505    2.033986
      5          9           0       -0.666779   -0.790518    1.137551
      6          9           0        0.175486    0.796799   -0.064818
      7          9           0       -2.004824    1.104424    2.698867
      8          1           0       -2.284007    1.258737    0.696874
 ---------------------------------------------------------------------
                    Distance matrix (angstroms):
                    1          2          3          4          5
     1  C    0.000000
     2  H    1.098300   0.000000
     3  C    1.525115   2.144494   0.000000
     4  F    2.385058   2.647465   1.342218   0.000000
     5  F    2.385058   3.301971   1.342218   2.157583   0.000000
     6  F    2.356399   2.615849   1.343526   2.162100   2.162100
     7  F    1.369750   2.027248   2.362144   2.796225   2.796225
     8  H    1.098300   1.804771   2.144494   3.301971   2.647465
                    6          7          8
     6  F    0.000000
     7  F    3.533602   0.000000
     8  H    2.615849   2.027248   0.000000
 Stoichiometry    C2H2F4
 Framework group  CS[SG(C2F2),X(H2F2)]
 Deg. of freedom    11
 Full point group                 CS      NOp   2
 RotChk:  IX=2 Diff= 1.38D+00
 Largest Abelian subgroup         CS      NOp   2
 Largest concise Abelian subgroup CS      NOp   2
                         Standard orientation:                         
 ---------------------------------------------------------------------
 Center     Atomic      Atomic             Coordinates (Angstroms)
 Number     Number       Type             X           Y           Z
 ---------------------------------------------------------------------
      1          6           0        1.174048    0.234591   -0.000000
      2          1           0        1.510961    0.762277   -0.902386
      3          6           0       -0.350614    0.197393    0.000000
      4          9           0       -0.847265   -0.427984   -1.078791
      5          9           0       -0.847265   -0.427984    1.078791
      6          9           0       -0.847265    1.445751    0.000000
      7          9           0        1.657071   -1.047167   -0.000000
      8          1           0        1.510961    0.762277    0.902386
 ---------------------------------------------------------------------
 Rotational constants (GHZ):           5.3547492           2.7667768           2.7271193
 Leave Link  202 at Thu Apr  2 15:47:33 2026, MaxMem=  1073741824 cpu:               0.0 elap:               0.0
 (Enter /Users/yarger/Applications/g16/l301.exe)
 Standard basis: Aug-CC-pVDZ (5D, 7F)
 Ernie: Thresh=  0.10000D-02 Tol=  0.10000D-05 Strict=F.
 Ernie:  12 primitive shells out of 164 were deleted.
 There are   106 symmetry adapted cartesian basis functions of A'  symmetry.
 There are    62 symmetry adapted cartesian basis functions of A"  symmetry.
 There are    96 symmetry adapted basis functions of A'  symmetry.
 There are    60 symmetry adapted basis functions of A"  symmetry.
   156 basis functions,   280 primitive gaussians,   168 cartesian basis functions
    25 alpha electrons       25 beta electrons
       nuclear repulsion energy       271.5508982874 Hartrees.
 IExCor= 4639 DFT=T Ex+Corr=wB97XD ExCW=0 ScaHFX=  1.000000
 ScaDFX=  1.000000  1.000000  1.000000  1.000000 ScalE2=  1.000000  1.000000
 IRadAn=      5 IRanWt=     -1 IRanGd=            0 ICorTp=0 IEmpDi=121
 HFx  wShort=  0.000000 wLong=  0.200000 cFull=  0.222036 cShort=  0.000000 cLong=  0.777964
 DFx  wShort=  0.000000 wLong=  0.200000 cFull=  0.000000 cShort=  0.000000 cLong=  1.000000
 NAtoms=    8 NActive=    8 NUniq=    6 SFac= 1.78D+00 NAtFMM=   60 NAOKFM=F Big=F
 Integral buffers will be    131072 words long.
 Raffenetti 2 integral format.
 Two-electron integral symmetry is turned on.
 R6Disp:  Grimme-D2 Dispersion energy=       -0.0021744579 Hartrees.
 Nuclear repulsion after empirical dispersion term =      271.5487238295 Hartrees.
 Leave Link  301 at Thu Apr  2 15:47:33 2026, MaxMem=  1073741824 cpu:               0.1 elap:               0.0
 (Enter /Users/yarger/Applications/g16/l302.exe)
 NPDir=0 NMtPBC=     1 NCelOv=     1 NCel=       1 NClECP=     1 NCelD=      1
         NCelK=      1 NCelE2=     1 NClLst=     1 CellRange=     0.0.
 One-electron integrals computed using PRISM.
 One-electron integral symmetry used in STVInt
 NBasis=   156 RedAO= T EigKep=  1.66D-04  NBF=    96    60
 NBsUse=   156 1.00D-06 EigRej= -1.00D+00 NBFU=    96    60
 Precomputing XC quadrature grid using
 IXCGrd= 4 IRadAn=           5 IRanWt=          -1 IRanGd=           0 AccXCQ= 0.00D+00.
 Generated NRdTot=       0 NPtTot=           0 NUsed=           0 NTot=          32
 NSgBfM=   168   168   168   168   168 MxSgAt=     8 MxSgA2=     8.
 Leave Link  302 at Thu Apr  2 15:47:33 2026, MaxMem=  1073741824 cpu:               0.4 elap:               0.1
 (Enter /Users/yarger/Applications/g16/l303.exe)
 DipDrv:  MaxL=1.
 Leave Link  303 at Thu Apr  2 15:47:34 2026, MaxMem=  1073741824 cpu:               0.1 elap:               0.0
 (Enter /Users/yarger/Applications/g16/l401.exe)
 Initial guess from the checkpoint file:  "1112Tetrafluoroethane_Opt_Freq_DFT_WB97XD_pVDZ_Gaussian16.chk"
 B after Tr=     0.000000    0.000000    0.000000
         Rot=    0.873500   -0.000000   -0.000000   -0.486824 Ang= -58.26 deg.
 Guess basis will be translated and rotated to current coordinates.
 JPrj=2 DoOrth=T DoCkMO=T.
 Initial guess orbital symmetries:
       Occupied  (A') (A") (A') (A') (A') (A') (A') (A') (A") (A')
                 (A') (A') (A') (A") (A') (A') (A") (A') (A") (A')
                 (A') (A") (A") (A") (A')
       Virtual   (A') (A") (A') (A') (A") (A') (A') (A') (A") (A')
                 (A") (A') (A') (A") (A') (A') (A') (A") (A') (A')
                 (A") (A') (A") (A') (A') (A") (A') (A") (A') (A')
                 (A") (A") (A') (A') (A') (A") (A") (A') (A') (A')
                 (A") (A') (A') (A") (A') (A") (A') (A') (A") (A')
                 (A') (A") (A') (A') (A") (A') (A") (A') (A") (A")
                 (A') (A") (A') (A") (A') (A') (A") (A") (A') (A')
                 (A") (A') (A") (A') (A') (A') (A") (A") (A') (A")
                 (A') (A') (A') (A") (A") (A') (A") (A') (A') (A")
                 (A') (A") (A') (A") (A') (A') (A') (A") (A') (A')
                 (A") (A') (A') (A') (A") (A') (A") (A') (A') (A")
                 (A') (A") (A') (A") (A') (A") (A') (A') (A") (A')
                 (A") (A') (A") (A') (A") (A') (A') (A') (A") (A')
                 (A")
 The electronic state of the initial guess is 1-A'.
 Generating alternative initial guess.
 ExpMin= 2.97D-02 ExpMax= 1.47D+04 ExpMxC= 5.03D+02 IAcc=3 IRadAn=         5 AccDes= 0.00D+00
 Harris functional with IExCor= 4639 and IRadAn=       5 diagonalized for initial guess.
 HarFok:  IExCor= 4639 AccDes= 0.00D+00 IRadAn=         5 IDoV= 1 UseB2=F ITyADJ=14
 ICtDFT=  3500011 ScaDFX=  1.000000  1.000000  1.000000  1.000000
 FoFCou: FMM=F IPFlag=           0 FMFlag=      100000 FMFlg1=           0
         NFxFlg=           0 DoJE=T BraDBF=F KetDBF=T FulRan=T
         wScrn=  0.000000 ICntrl=       500 IOpCl=  0 I1Cent=   200000004 NGrid=           0
         NMat0=    1 NMatS0=      1 NMatT0=    0 NMatD0=    1 NMtDS0=    0 NMtDT0=    0
 Petite list used in FoFCou.
 Harris En= -461.179734217881    
 Leave Link  401 at Thu Apr  2 15:47:34 2026, MaxMem=  1073741824 cpu:               1.5 elap:               0.4
 (Enter /Users/yarger/Applications/g16/l502.exe)
 Keep R1 ints in memory in symmetry-blocked form, NReq=225262371.
 FoFCou: FMM=F IPFlag=           0 FMFlag=           0 FMFlg1=           0
         NFxFlg=           0 DoJE=F BraDBF=F KetDBF=F FulRan=T
         wScrn=  0.000000 ICntrl=       600 IOpCl=  0 I1Cent=           0 NGrid=           0
         NMat0=    1 NMatS0=  12246 NMatT0=    0 NMatD0=    1 NMtDS0=    0 NMtDT0=    0
 Petite list used in FoFCou.
 Closed shell SCF:
 Using DIIS extrapolation, IDIIS=  1040.
 NGot=  1073741824 LenX=  1036027171 LenY=  1035998506
 Requested convergence on RMS density matrix=1.00D-08 within 128 cycles.
 Requested convergence on MAX density matrix=1.00D-06.
 Requested convergence on             energy=1.00D-06.
 No special actions if energy rises.

 Cycle   1  Pass 1  IDiag  1:
 E= -476.713825789350    
 DIIS: error= 4.24D-03 at cycle   1 NSaved=   1.
 NSaved= 1 IEnMin= 1 EnMin= -476.713825789350     IErMin= 1 ErrMin= 4.24D-03
 ErrMax= 4.24D-03  0.00D+00 EMaxC= 1.00D-01 BMatC= 3.13D-03 BMatP= 3.13D-03
 IDIUse=3 WtCom= 9.58D-01 WtEn= 4.24D-02
 Coeff-Com:  0.100D+01
 Coeff-En:   0.100D+01
 Coeff:      0.100D+01
 Gap=     0.506 Goal=   None    Shift=    0.000
 GapD=    0.506 DampG=2.000 DampE=1.000 DampFc=2.0000 IDamp=-1.
 RMSDP=9.64D-04 MaxDP=3.16D-02              OVMax= 1.19D-02

 Cycle   2  Pass 1  IDiag  1:
 E= -476.716467369820     Delta-E=       -0.002641580470 Rises=F Damp=F
 DIIS: error= 5.95D-04 at cycle   2 NSaved=   2.
 NSaved= 2 IEnMin= 2 EnMin= -476.716467369820     IErMin= 2 ErrMin= 5.95D-04
 ErrMax= 5.95D-04  0.00D+00 EMaxC= 1.00D-01 BMatC= 8.96D-05 BMatP= 3.13D-03
 IDIUse=3 WtCom= 9.94D-01 WtEn= 5.95D-03
 Coeff-Com: -0.581D-01 0.106D+01
 Coeff-En:   0.000D+00 0.100D+01
 Coeff:     -0.578D-01 0.106D+01
 Gap=     0.497 Goal=   None    Shift=    0.000
 RMSDP=1.62D-04 MaxDP=4.92D-03 DE=-2.64D-03 OVMax= 3.55D-03

 Cycle   3  Pass 1  IDiag  1:
 E= -476.716585420031     Delta-E=       -0.000118050211 Rises=F Damp=F
 DIIS: error= 3.96D-04 at cycle   3 NSaved=   3.
 NSaved= 3 IEnMin= 3 EnMin= -476.716585420031     IErMin= 3 ErrMin= 3.96D-04
 ErrMax= 3.96D-04  0.00D+00 EMaxC= 1.00D-01 BMatC= 4.13D-05 BMatP= 8.96D-05
 IDIUse=3 WtCom= 9.96D-01 WtEn= 3.96D-03
 Coeff-Com: -0.468D-01 0.423D+00 0.623D+00
 Coeff-En:   0.000D+00 0.000D+00 0.100D+01
 Coeff:     -0.467D-01 0.422D+00 0.625D+00
 Gap=     0.498 Goal=   None    Shift=    0.000
 RMSDP=3.73D-05 MaxDP=1.12D-03 DE=-1.18D-04 OVMax= 1.24D-03

 Cycle   4  Pass 1  IDiag  1:
 E= -476.716615011686     Delta-E=       -0.000029591655 Rises=F Damp=F
 DIIS: error= 1.13D-04 at cycle   4 NSaved=   4.
 NSaved= 4 IEnMin= 4 EnMin= -476.716615011686     IErMin= 4 ErrMin= 1.13D-04
 ErrMax= 1.13D-04  0.00D+00 EMaxC= 1.00D-01 BMatC= 3.36D-06 BMatP= 4.13D-05
 IDIUse=3 WtCom= 9.99D-01 WtEn= 1.13D-03
 Coeff-Com: -0.380D-02-0.445D-01 0.177D+00 0.871D+00
 Coeff-En:   0.000D+00 0.000D+00 0.000D+00 0.100D+01
 Coeff:     -0.380D-02-0.445D-01 0.177D+00 0.872D+00
 Gap=     0.498 Goal=   None    Shift=    0.000
 RMSDP=1.77D-05 MaxDP=5.26D-04 DE=-2.96D-05 OVMax= 5.00D-04

 Cycle   5  Pass 1  IDiag  1:
 E= -476.716618008298     Delta-E=       -0.000002996612 Rises=F Damp=F
 DIIS: error= 4.30D-05 at cycle   5 NSaved=   5.
 NSaved= 5 IEnMin= 5 EnMin= -476.716618008298     IErMin= 5 ErrMin= 4.30D-05
 ErrMax= 4.30D-05  0.00D+00 EMaxC= 1.00D-01 BMatC= 3.00D-07 BMatP= 3.36D-06
 IDIUse=1 WtCom= 1.00D+00 WtEn= 0.00D+00
 Coeff-Com:  0.247D-02-0.534D-01 0.155D-01 0.306D+00 0.730D+00
 Coeff:      0.247D-02-0.534D-01 0.155D-01 0.306D+00 0.730D+00
 Gap=     0.498 Goal=   None    Shift=    0.000
 RMSDP=4.66D-06 MaxDP=1.69D-04 DE=-3.00D-06 OVMax= 1.39D-04

 Cycle   6  Pass 1  IDiag  1:
 E= -476.716618254849     Delta-E=       -0.000000246552 Rises=F Damp=F
 DIIS: error= 3.73D-06 at cycle   6 NSaved=   6.
 NSaved= 6 IEnMin= 6 EnMin= -476.716618254849     IErMin= 6 ErrMin= 3.73D-06
 ErrMax= 3.73D-06  0.00D+00 EMaxC= 1.00D-01 BMatC= 4.21D-09 BMatP= 3.00D-07
 IDIUse=1 WtCom= 1.00D+00 WtEn= 0.00D+00
 Coeff-Com:  0.373D-03-0.372D-02-0.526D-02-0.107D-01 0.622D-01 0.957D+00
 Coeff:      0.373D-03-0.372D-02-0.526D-02-0.107D-01 0.622D-01 0.957D+00
 Gap=     0.498 Goal=   None    Shift=    0.000
 RMSDP=8.67D-07 MaxDP=2.06D-05 DE=-2.47D-07 OVMax= 2.75D-05

 Cycle   7  Pass 1  IDiag  1:
 E= -476.716618259993     Delta-E=       -0.000000005143 Rises=F Damp=F
 DIIS: error= 2.04D-06 at cycle   7 NSaved=   7.
 NSaved= 7 IEnMin= 7 EnMin= -476.716618259993     IErMin= 7 ErrMin= 2.04D-06
 ErrMax= 2.04D-06  0.00D+00 EMaxC= 1.00D-01 BMatC= 7.74D-10 BMatP= 4.21D-09
 IDIUse=1 WtCom= 1.00D+00 WtEn= 0.00D+00
 Coeff-Com: -0.111D-04 0.184D-02-0.218D-02-0.203D-01-0.191D-01 0.330D+00
 Coeff-Com:  0.709D+00
 Coeff:     -0.111D-04 0.184D-02-0.218D-02-0.203D-01-0.191D-01 0.330D+00
 Coeff:      0.709D+00
 Gap=     0.498 Goal=   None    Shift=    0.000
 RMSDP=2.46D-07 MaxDP=5.59D-06 DE=-5.14D-09 OVMax= 6.21D-06

 Cycle   8  Pass 1  IDiag  1:
 E= -476.716618260545     Delta-E=       -0.000000000553 Rises=F Damp=F
 DIIS: error= 6.00D-07 at cycle   8 NSaved=   8.
 NSaved= 8 IEnMin= 8 EnMin= -476.716618260545     IErMin= 8 ErrMin= 6.00D-07
 ErrMax= 6.00D-07  0.00D+00 EMaxC= 1.00D-01 BMatC= 1.09D-10 BMatP= 7.74D-10
 IDIUse=1 WtCom= 1.00D+00 WtEn= 0.00D+00
 Coeff-Com: -0.309D-04 0.103D-02-0.392D-03-0.716D-02-0.124D-01 0.465D-01
 Coeff-Com:  0.305D+00 0.668D+00
 Coeff:     -0.309D-04 0.103D-02-0.392D-03-0.716D-02-0.124D-01 0.465D-01
 Coeff:      0.305D+00 0.668D+00
 Gap=     0.498 Goal=   None    Shift=    0.000
 RMSDP=6.87D-08 MaxDP=1.64D-06 DE=-5.53D-10 OVMax= 1.88D-06

 Cycle   9  Pass 1  IDiag  1:
 E= -476.716618260614     Delta-E=       -0.000000000068 Rises=F Damp=F
 DIIS: error= 1.01D-07 at cycle   9 NSaved=   9.
 NSaved= 9 IEnMin= 9 EnMin= -476.716618260614     IErMin= 9 ErrMin= 1.01D-07
 ErrMax= 1.01D-07  0.00D+00 EMaxC= 1.00D-01 BMatC= 4.07D-12 BMatP= 1.09D-10
 IDIUse=1 WtCom= 1.00D+00 WtEn= 0.00D+00
 Coeff-Com: -0.116D-04 0.214D-03 0.197D-04-0.978D-03-0.279D-02-0.908D-02
 Coeff-Com:  0.427D-01 0.193D+00 0.777D+00
 Coeff:     -0.116D-04 0.214D-03 0.197D-04-0.978D-03-0.279D-02-0.908D-02
 Coeff:      0.427D-01 0.193D+00 0.777D+00
 Gap=     0.498 Goal=   None    Shift=    0.000
 RMSDP=2.12D-08 MaxDP=4.75D-07 DE=-6.83D-11 OVMax= 6.23D-07

 Cycle  10  Pass 1  IDiag  1:
 E= -476.716618260617     Delta-E=       -0.000000000003 Rises=F Damp=F
 DIIS: error= 2.15D-08 at cycle  10 NSaved=  10.
 NSaved=10 IEnMin=10 EnMin= -476.716618260617     IErMin=10 ErrMin= 2.15D-08
 ErrMax= 2.15D-08  0.00D+00 EMaxC= 1.00D-01 BMatC= 2.50D-13 BMatP= 4.07D-12
 IDIUse=1 WtCom= 1.00D+00 WtEn= 0.00D+00
 Coeff-Com: -0.159D-07-0.391D-04 0.378D-04 0.378D-03 0.329D-03-0.664D-02
 Coeff-Com: -0.156D-01-0.875D-02 0.183D+00 0.847D+00
 Coeff:     -0.159D-07-0.391D-04 0.378D-04 0.378D-03 0.329D-03-0.664D-02
 Coeff:     -0.156D-01-0.875D-02 0.183D+00 0.847D+00
 Gap=     0.498 Goal=   None    Shift=    0.000
 RMSDP=7.58D-09 MaxDP=1.64D-07 DE=-3.30D-12 OVMax= 1.66D-07

 SCF Done:  E(RwB97XD) =  -476.716618261     A.U. after   10 cycles
            NFock= 10  Conv=0.76D-08     -V/T= 2.0054
 KE= 4.741722878687D+02 PE=-1.674493603779D+03 EE= 4.520559738204D+02
 Leave Link  502 at Thu Apr  2 15:47:39 2026, MaxMem=  1073741824 cpu:              20.8 elap:               5.3
 (Enter /Users/yarger/Applications/g16/l701.exe)
 ... and contract with generalized density number  0.
 Compute integral first derivatives.
 R6Disp: Adding Grimme-D2 dispersion energy 1st derivatives to the gradient.
 Leave Link  701 at Thu Apr  2 15:47:40 2026, MaxMem=  1073741824 cpu:               0.3 elap:               0.1
 (Enter /Users/yarger/Applications/g16/l702.exe)
 L702 exits ... SP integral derivatives will be done elsewhere.
 Leave Link  702 at Thu Apr  2 15:47:40 2026, MaxMem=  1073741824 cpu:               0.1 elap:               0.0
 (Enter /Users/yarger/Applications/g16/l703.exe)
 Integral derivatives from FoFJK, PRISM(SPDF).
 Compute integral first derivatives, UseDBF=F ICtDFT=           0.
 Calling FoFJK, ICntrl=      2127 FMM=F ISym2X=1 I1Cent= 0 IOpClX= 0 NMat=1 NMatS=1 NMatT=0.
 FoFJK:  IHMeth= 1 ICntrl=    2127 DoSepK=T KAlg= 0 I1Cent=           0 FoldK=F
 IRaf=         1 NMat=       1 IRICut=       1 DoRegI=T DoRafI=F ISym2E= 1 IDoP0=0 IntGTp=1.
 FoFCou: FMM=F IPFlag=           0 FMFlag=      100000 FMFlg1=         800
         NFxFlg=           0 DoJE=F BraDBF=F KetDBF=F FulRan=T
         wScrn=  0.000000 ICntrl=      2527 IOpCl=  0 I1Cent=           0 NGrid=           0
         NMat0=    1 NMatS0=      1 NMatT0=    0 NMatD0=    1 NMtDS0=    0 NMtDT0=    0
 Petite list used in FoFCou.
 Leave Link  703 at Thu Apr  2 15:47:42 2026, MaxMem=  1073741824 cpu:              10.5 elap:               2.7
 (Enter /Users/yarger/Applications/g16/l716.exe)
 Dipole        = 5.85634071D-01 6.25714492D-01 2.88657986D-15
 ***** Axes restored to original set *****
 -------------------------------------------------------------------
 Center     Atomic                   Forces (Hartrees/Bohr)
 Number     Number              X              Y              Z
 -------------------------------------------------------------------
      1        6           0.005372898   -0.001083110   -0.006290177
      2        1          -0.000441255   -0.000365218    0.000880934
      3        6           0.003040254   -0.004315683    0.002368201
      4        9          -0.000700314    0.002545213    0.002759338
      5        9          -0.003684566   -0.000653622    0.000761081
      6        9          -0.001560571    0.004171821   -0.004347705
      7        9          -0.001772197   -0.000134636    0.002862176
      8        1          -0.000254248   -0.000164764    0.001006154
 -------------------------------------------------------------------
 Cartesian Forces:  Max     0.006290177 RMS     0.002773012
 Leave Link  716 at Thu Apr  2 15:47:42 2026, MaxMem=  1073741824 cpu:               0.1 elap:               0.0
 (Enter /Users/yarger/Applications/g16/l103.exe)

 GradGradGradGradGradGradGradGradGradGradGradGradGradGradGradGradGradGrad
 Berny optimization.
 Using GEDIIS/GDIIS optimizer.
 FormGI is forming the generalized inverse of G from B-inverse, IUseBI=4.
 Internal  Forces:  Max     0.006100780 RMS     0.002589750
 Search for a local minimum.
 Step number   2 out of a maximum of   38
 All quantities printed in internal units (Hartrees-Bohrs-Radians)
 RMS Force = .25897D-02 SwitMx=.10000D-02 MixMth= 1
 Mixed Optimization -- RFO/linear search
 Update second derivatives using D2CorX and points    1    2
 DE= -2.63D-03 DEPred=-3.24D-03 R= 8.12D-01
 TightC=F SS=  1.41D+00  RLast= 1.42D-01 DXNew= 5.0454D-01 4.2642D-01
 Trust test= 8.12D-01 RLast= 1.42D-01 DXMaxT set to 4.26D-01
 ITU=  1  0
 Use linear search instead of GDIIS.
     Eigenvalues ---    0.00237   0.05819   0.06109   0.07993   0.08381
     Eigenvalues ---    0.16000   0.16051   0.22539   0.24235   0.25000
     Eigenvalues ---    0.27483   0.30888   0.37230   0.38415   0.52694
     Eigenvalues ---    0.55021   0.55021   0.57351
 RFO step:  Lambda=-3.85597799D-04 EMin= 2.36824250D-03
 Quartic linear search produced a step of -0.14113.
 Iteration  1 RMS(Cart)=  0.01120112 RMS(Int)=  0.00012011
 Iteration  2 RMS(Cart)=  0.00011046 RMS(Int)=  0.00006327
 Iteration  3 RMS(Cart)=  0.00000001 RMS(Int)=  0.00006327
 ITry= 1 IFail=0 DXMaxC= 2.72D-02 DCOld= 1.00D+10 DXMaxT= 4.26D-01 DXLimC= 3.00D+00 Rises=F
 ClnCor:  largest displacement from symmetrization is 5.37D-09 for atom     5.
 Variable       Old X    -DE/DX   Delta X   Delta X   Delta X     New X
                                 (Linear)    (Quad)   (Total)
    R1        2.07549  -0.00050  -0.00755   0.00962   0.00207   2.07756
    R2        2.88205  -0.00361   0.00397  -0.01653  -0.01256   2.86949
    R3        2.58845   0.00326  -0.00527   0.01261   0.00734   2.59580
    R4        2.07549  -0.00050  -0.00755   0.00962   0.00207   2.07756
    R5        2.53643   0.00156   0.00208  -0.00053   0.00154   2.53797
    R6        2.53643   0.00156   0.00208  -0.00053   0.00154   2.53797
    R7        2.53890   0.00424   0.00173   0.00415   0.00587   2.54477
    A1        1.89482   0.00049   0.00223   0.00046   0.00270   1.89752
    A2        1.91922  -0.00103  -0.00121  -0.00502  -0.00623   1.91300
    A3        1.92850  -0.00006  -0.00252   0.00665   0.00413   1.93262
    A4        1.90679   0.00120   0.00054   0.00260   0.00315   1.90994
    A5        1.89482   0.00049   0.00223   0.00046   0.00270   1.89752
    A6        1.91922  -0.00103  -0.00121  -0.00502  -0.00623   1.91300
    A7        1.96197  -0.00372  -0.00725  -0.00206  -0.00923   1.95275
    A8        1.96197  -0.00372  -0.00725  -0.00206  -0.00923   1.95275
    A9        1.92505  -0.00610  -0.00203  -0.01923  -0.02134   1.90370
   A10        1.86710   0.00444   0.00614   0.00810   0.01446   1.88156
   A11        1.87145   0.00508   0.00553   0.00847   0.01392   1.88537
   A12        1.87145   0.00508   0.00553   0.00847   0.01392   1.88537
    D1        1.03898  -0.00044   0.00116  -0.00806  -0.00683   1.03216
    D2       -3.13618  -0.00006  -0.00076  -0.00049  -0.00134  -3.13751
    D3       -1.04860  -0.00025   0.00020  -0.00428  -0.00408  -1.05268
    D4       -1.05401  -0.00019   0.00096  -0.00378  -0.00274  -1.05676
    D5        1.05401   0.00019  -0.00096   0.00378   0.00274   1.05676
    D6        3.14159   0.00000   0.00000   0.00000   0.00000   3.14159
    D7        3.13618   0.00006   0.00076   0.00049   0.00134   3.13751
    D8       -1.03898   0.00044  -0.00116   0.00806   0.00683  -1.03216
    D9        1.04860   0.00025  -0.00020   0.00428   0.00408   1.05268
         Item               Value     Threshold  Converged?
 Maximum Force            0.006101     0.000015     NO 
 RMS     Force            0.002590     0.000010     NO 
 Maximum Displacement     0.027201     0.000060     NO 
 RMS     Displacement     0.011264     0.000040     NO 
 Predicted change in Energy=-2.636277D-04
 Lowest energy point so far.  Saving SCF results.
 GradGradGradGradGradGradGradGradGradGradGradGradGradGradGradGradGradGrad

 Leave Link  103 at Thu Apr  2 15:47:42 2026, MaxMem=  1073741824 cpu:               0.0 elap:               0.0
 (Enter /Users/yarger/Applications/g16/l202.exe)
                          Input orientation:                          
 ---------------------------------------------------------------------
 Center     Atomic      Atomic             Coordinates (Angstroms)
 Number     Number       Type             X           Y           Z
 ---------------------------------------------------------------------
      1          6           0       -1.501702    1.411302    1.456237
      2          1           0       -1.155589    2.454746    1.446164
      3          6           0       -0.323471    0.504041    1.148988
      4          9           0        0.668657    0.652230    2.041999
      5          9           0       -0.678051   -0.791313    1.140243
      6          9           0        0.162656    0.811193   -0.068699
      7          9           0       -2.003528    1.104086    2.697472
      8          1           0       -2.278151    1.251465    0.694495
 ---------------------------------------------------------------------
                    Distance matrix (angstroms):
                    1          2          3          4          5
     1  C    0.000000
     2  H    1.099396   0.000000
     3  C    1.518471   2.141491   0.000000
     4  F    2.372713   2.632861   1.343036   0.000000
     5  F    2.372713   3.295228   1.343036   2.170392   0.000000
     6  F    2.335733   2.594965   1.346634   2.176317   2.176317
     7  F    1.373636   2.027080   2.362297   2.788259   2.788259
     8  H    1.099396   1.809154   2.141491   3.295228   2.632861
                    6          7          8
     6  F    0.000000
     7  F    3.525598   0.000000
     8  H    2.594965   2.027080   0.000000
 Stoichiometry    C2H2F4
 Framework group  CS[SG(C2F2),X(H2F2)]
 Deg. of freedom    11
 Full point group                 CS      NOp   2
 RotChk:  IX=2 Diff= 6.45D-03
 Largest Abelian subgroup         CS      NOp   2
 Largest concise Abelian subgroup CS      NOp   2
                         Standard orientation:                         
 ---------------------------------------------------------------------
 Center     Atomic      Atomic             Coordinates (Angstroms)
 Number     Number       Type             X           Y           Z
 ---------------------------------------------------------------------
      1          6           0        1.158100    0.241338   -0.000000
      2          1           0        1.494217    0.768062   -0.904577
      3          6           0       -0.359589    0.192623    0.000000
      4          9           0       -0.840264   -0.435904   -1.085196
      5          9           0       -0.840264   -0.435904    1.085196
      6          9           0       -0.840264    1.450549    0.000000
      7          9           0        1.656402   -1.038728   -0.000000
      8          1           0        1.494217    0.768062    0.904577
 ---------------------------------------------------------------------
 Rotational constants (GHZ):           5.3036678           2.7789396           2.7413151
 Leave Link  202 at Thu Apr  2 15:47:42 2026, MaxMem=  1073741824 cpu:               0.0 elap:               0.0
 (Enter /Users/yarger/Applications/g16/l301.exe)
 Standard basis: Aug-CC-pVDZ (5D, 7F)
 Ernie: Thresh=  0.10000D-02 Tol=  0.10000D-05 Strict=F.
 Ernie:  12 primitive shells out of 164 were deleted.
 There are   106 symmetry adapted cartesian basis functions of A'  symmetry.
 There are    62 symmetry adapted cartesian basis functions of A"  symmetry.
 There are    96 symmetry adapted basis functions of A'  symmetry.
 There are    60 symmetry adapted basis functions of A"  symmetry.
   156 basis functions,   280 primitive gaussians,   168 cartesian basis functions
    25 alpha electrons       25 beta electrons
       nuclear repulsion energy       271.4948195827 Hartrees.
 IExCor= 4639 DFT=T Ex+Corr=wB97XD ExCW=0 ScaHFX=  1.000000
 ScaDFX=  1.000000  1.000000  1.000000  1.000000 ScalE2=  1.000000  1.000000
 IRadAn=      5 IRanWt=     -1 IRanGd=            0 ICorTp=0 IEmpDi=121
 HFx  wShort=  0.000000 wLong=  0.200000 cFull=  0.222036 cShort=  0.000000 cLong=  0.777964
 DFx  wShort=  0.000000 wLong=  0.200000 cFull=  0.000000 cShort=  0.000000 cLong=  1.000000
 NAtoms=    8 NActive=    8 NUniq=    6 SFac= 1.78D+00 NAtFMM=   60 NAOKFM=F Big=F
 Integral buffers will be    131072 words long.
 Raffenetti 2 integral format.
 Two-electron integral symmetry is turned on.
 R6Disp:  Grimme-D2 Dispersion energy=       -0.0021715341 Hartrees.
 Nuclear repulsion after empirical dispersion term =      271.4926480485 Hartrees.
 Leave Link  301 at Thu Apr  2 15:47:42 2026, MaxMem=  1073741824 cpu:               0.1 elap:               0.0
 (Enter /Users/yarger/Applications/g16/l302.exe)
 NPDir=0 NMtPBC=     1 NCelOv=     1 NCel=       1 NClECP=     1 NCelD=      1
         NCelK=      1 NCelE2=     1 NClLst=     1 CellRange=     0.0.
 One-electron integrals computed using PRISM.
 One-electron integral symmetry used in STVInt
 NBasis=   156 RedAO= T EigKep=  1.63D-04  NBF=    96    60
 NBsUse=   156 1.00D-06 EigRej= -1.00D+00 NBFU=    96    60
 Precomputing XC quadrature grid using
 IXCGrd= 4 IRadAn=           5 IRanWt=          -1 IRanGd=           0 AccXCQ= 0.00D+00.
 Generated NRdTot=       0 NPtTot=           0 NUsed=           0 NTot=          32
 NSgBfM=   168   168   168   168   168 MxSgAt=     8 MxSgA2=     8.
 Leave Link  302 at Thu Apr  2 15:47:43 2026, MaxMem=  1073741824 cpu:               0.5 elap:               0.1
 (Enter /Users/yarger/Applications/g16/l303.exe)
 DipDrv:  MaxL=1.
 Leave Link  303 at Thu Apr  2 15:47:43 2026, MaxMem=  1073741824 cpu:               0.1 elap:               0.0
 (Enter /Users/yarger/Applications/g16/l401.exe)
 Initial guess from the checkpoint file:  "1112Tetrafluoroethane_Opt_Freq_DFT_WB97XD_pVDZ_Gaussian16.chk"
 B after Tr=     0.000000    0.000000   -0.000000
         Rot=    0.999999    0.000000    0.000000   -0.001648 Ang=  -0.19 deg.
 Guess basis will be translated and rotated to current coordinates.
 JPrj=2 DoOrth=T DoCkMO=T.
 Initial guess orbital symmetries:
       Occupied  (A') (A") (A') (A') (A') (A') (A') (A') (A") (A')
                 (A') (A') (A') (A") (A') (A') (A") (A') (A") (A')
                 (A') (A") (A") (A") (A')
       Virtual   (A') (A") (A') (A') (A") (A') (A') (A') (A") (A')
                 (A") (A') (A') (A") (A') (A') (A") (A') (A') (A')
                 (A") (A') (A") (A') (A') (A") (A') (A") (A') (A')
                 (A") (A") (A') (A') (A') (A") (A") (A') (A') (A')
                 (A") (A') (A') (A") (A') (A") (A') (A') (A") (A')
                 (A') (A") (A') (A') (A") (A') (A") (A') (A") (A")
                 (A') (A") (A") (A') (A') (A') (A") (A') (A") (A')
                 (A") (A') (A") (A') (A') (A') (A") (A") (A') (A')
                 (A") (A') (A") (A') (A") (A') (A") (A') (A") (A')
                 (A') (A") (A') (A") (A') (A') (A') (A") (A') (A')
                 (A") (A') (A') (A") (A') (A') (A") (A') (A") (A')
                 (A') (A") (A') (A") (A') (A") (A') (A') (A") (A')
                 (A") (A') (A') (A") (A") (A') (A') (A") (A') (A')
                 (A")
 The electronic state of the initial guess is 1-A'.
 Generating alternative initial guess.
 ExpMin= 2.97D-02 ExpMax= 1.47D+04 ExpMxC= 5.03D+02 IAcc=3 IRadAn=         5 AccDes= 0.00D+00
 Harris functional with IExCor= 4639 and IRadAn=       5 diagonalized for initial guess.
 HarFok:  IExCor= 4639 AccDes= 0.00D+00 IRadAn=         5 IDoV= 1 UseB2=F ITyADJ=14
 ICtDFT=  3500011 ScaDFX=  1.000000  1.000000  1.000000  1.000000
 FoFCou: FMM=F IPFlag=           0 FMFlag=      100000 FMFlg1=           0
         NFxFlg=           0 DoJE=T BraDBF=F KetDBF=T FulRan=T
         wScrn=  0.000000 ICntrl=       500 IOpCl=  0 I1Cent=   200000004 NGrid=           0
         NMat0=    1 NMatS0=      1 NMatT0=    0 NMatD0=    1 NMtDS0=    0 NMtDT0=    0
 Petite list used in FoFCou.
 Harris En= -461.181821201036    
 Leave Link  401 at Thu Apr  2 15:47:43 2026, MaxMem=  1073741824 cpu:               1.5 elap:               0.4
 (Enter /Users/yarger/Applications/g16/l502.exe)
 Keep R1 ints in memory in symmetry-blocked form, NReq=225262371.
 FoFCou: FMM=F IPFlag=           0 FMFlag=           0 FMFlg1=           0
         NFxFlg=           0 DoJE=F BraDBF=F KetDBF=F FulRan=T
         wScrn=  0.000000 ICntrl=       600 IOpCl=  0 I1Cent=           0 NGrid=           0
         NMat0=    1 NMatS0=  12246 NMatT0=    0 NMatD0=    1 NMtDS0=    0 NMtDT0=    0
 Petite list used in FoFCou.
 Closed shell SCF:
 Using DIIS extrapolation, IDIIS=  1040.
 NGot=  1073741824 LenX=  1036027171 LenY=  1035998506
 Requested convergence on RMS density matrix=1.00D-08 within 128 cycles.
 Requested convergence on MAX density matrix=1.00D-06.
 Requested convergence on             energy=1.00D-06.
 No special actions if energy rises.

 Cycle   1  Pass 1  IDiag  1:
 E= -476.716562738093    
 DIIS: error= 1.31D-03 at cycle   1 NSaved=   1.
 NSaved= 1 IEnMin= 1 EnMin= -476.716562738093     IErMin= 1 ErrMin= 1.31D-03
 ErrMax= 1.31D-03  0.00D+00 EMaxC= 1.00D-01 BMatC= 3.34D-04 BMatP= 3.34D-04
 IDIUse=3 WtCom= 9.87D-01 WtEn= 1.31D-02
 Coeff-Com:  0.100D+01
 Coeff-En:   0.100D+01
 Coeff:      0.100D+01
 Gap=     0.498 Goal=   None    Shift=    0.000
 GapD=    0.498 DampG=2.000 DampE=1.000 DampFc=2.0000 IDamp=-1.
 RMSDP=2.10D-04 MaxDP=3.35D-03              OVMax= 4.19D-03

 Cycle   2  Pass 1  IDiag  1:
 E= -476.716853159664     Delta-E=       -0.000290421571 Rises=F Damp=F
 DIIS: error= 2.57D-04 at cycle   2 NSaved=   2.
 NSaved= 2 IEnMin= 2 EnMin= -476.716853159664     IErMin= 2 ErrMin= 2.57D-04
 ErrMax= 2.57D-04  0.00D+00 EMaxC= 1.00D-01 BMatC= 8.19D-06 BMatP= 3.34D-04
 IDIUse=3 WtCom= 9.97D-01 WtEn= 2.57D-03
 Coeff-Com: -0.838D-01 0.108D+01
 Coeff-En:   0.000D+00 0.100D+01
 Coeff:     -0.836D-01 0.108D+01
 Gap=     0.497 Goal=   None    Shift=    0.000
 RMSDP=4.83D-05 MaxDP=1.10D-03 DE=-2.90D-04 OVMax= 1.27D-03

 Cycle   3  Pass 1  IDiag  1:
 E= -476.716867556573     Delta-E=       -0.000014396909 Rises=F Damp=F
 DIIS: error= 8.00D-05 at cycle   3 NSaved=   3.
 NSaved= 3 IEnMin= 3 EnMin= -476.716867556573     IErMin= 3 ErrMin= 8.00D-05
 ErrMax= 8.00D-05  0.00D+00 EMaxC= 1.00D-01 BMatC= 1.98D-06 BMatP= 8.19D-06
 IDIUse=1 WtCom= 1.00D+00 WtEn= 0.00D+00
 Coeff-Com: -0.392D-01 0.313D+00 0.726D+00
 Coeff:     -0.392D-01 0.313D+00 0.726D+00
 Gap=     0.497 Goal=   None    Shift=    0.000
 RMSDP=1.00D-05 MaxDP=2.42D-04 DE=-1.44D-05 OVMax= 2.87D-04

 Cycle   4  Pass 1  IDiag  1:
 E= -476.716868915138     Delta-E=       -0.000001358565 Rises=F Damp=F
 DIIS: error= 4.16D-05 at cycle   4 NSaved=   4.
 NSaved= 4 IEnMin= 4 EnMin= -476.716868915138     IErMin= 4 ErrMin= 4.16D-05
 ErrMax= 4.16D-05  0.00D+00 EMaxC= 1.00D-01 BMatC= 5.29D-07 BMatP= 1.98D-06
 IDIUse=1 WtCom= 1.00D+00 WtEn= 0.00D+00
 Coeff-Com:  0.145D-02-0.984D-01 0.319D+00 0.778D+00
 Coeff:      0.145D-02-0.984D-01 0.319D+00 0.778D+00
 Gap=     0.497 Goal=   None    Shift=    0.000
 RMSDP=5.93D-06 MaxDP=1.84D-04 DE=-1.36D-06 OVMax= 1.29D-04

 Cycle   5  Pass 1  IDiag  1:
 E= -476.716869333816     Delta-E=       -0.000000418678 Rises=F Damp=F
 DIIS: error= 4.41D-06 at cycle   5 NSaved=   5.
 NSaved= 5 IEnMin= 5 EnMin= -476.716869333816     IErMin= 5 ErrMin= 4.41D-06
 ErrMax= 4.41D-06  0.00D+00 EMaxC= 1.00D-01 BMatC= 7.50D-09 BMatP= 5.29D-07
 IDIUse=1 WtCom= 1.00D+00 WtEn= 0.00D+00
 Coeff-Com:  0.189D-02-0.380D-01 0.383D-01 0.164D+00 0.833D+00
 Coeff:      0.189D-02-0.380D-01 0.383D-01 0.164D+00 0.833D+00
 Gap=     0.497 Goal=   None    Shift=    0.000
 RMSDP=8.80D-07 MaxDP=2.79D-05 DE=-4.19D-07 OVMax= 2.60D-05

 Cycle   6  Pass 1  IDiag  1:
 E= -476.716869340859     Delta-E=       -0.000000007043 Rises=F Damp=F
 DIIS: error= 2.07D-06 at cycle   6 NSaved=   6.
 NSaved= 6 IEnMin= 6 EnMin= -476.716869340859     IErMin= 6 ErrMin= 2.07D-06
 ErrMax= 2.07D-06  0.00D+00 EMaxC= 1.00D-01 BMatC= 1.02D-09 BMatP= 7.50D-09
 IDIUse=1 WtCom= 1.00D+00 WtEn= 0.00D+00
 Coeff-Com:  0.575D-03-0.839D-02-0.154D-02 0.186D-01 0.298D+00 0.693D+00
 Coeff:      0.575D-03-0.839D-02-0.154D-02 0.186D-01 0.298D+00 0.693D+00
 Gap=     0.497 Goal=   None    Shift=    0.000
 RMSDP=1.98D-07 MaxDP=7.34D-06 DE=-7.04D-09 OVMax= 6.54D-06

 Cycle   7  Pass 1  IDiag  1:
 E= -476.716869341525     Delta-E=       -0.000000000666 Rises=F Damp=F
 DIIS: error= 7.31D-07 at cycle   7 NSaved=   7.
 NSaved= 7 IEnMin= 7 EnMin= -476.716869341525     IErMin= 7 ErrMin= 7.31D-07
 ErrMax= 7.31D-07  0.00D+00 EMaxC= 1.00D-01 BMatC= 1.46D-10 BMatP= 1.02D-09
 IDIUse=1 WtCom= 1.00D+00 WtEn= 0.00D+00
 Coeff-Com: -0.512D-04 0.262D-02-0.579D-02-0.183D-01-0.165D-01 0.272D+00
 Coeff-Com:  0.766D+00
 Coeff:     -0.512D-04 0.262D-02-0.579D-02-0.183D-01-0.165D-01 0.272D+00
 Coeff:      0.766D+00
 Gap=     0.497 Goal=   None    Shift=    0.000
 RMSDP=8.77D-08 MaxDP=2.22D-06 DE=-6.66D-10 OVMax= 2.25D-06

 Cycle   8  Pass 1  IDiag  1:
 E= -476.716869341637     Delta-E=       -0.000000000113 Rises=F Damp=F
 DIIS: error= 1.30D-07 at cycle   8 NSaved=   8.
 NSaved= 8 IEnMin= 8 EnMin= -476.716869341637     IErMin= 8 ErrMin= 1.30D-07
 ErrMax= 1.30D-07  0.00D+00 EMaxC= 1.00D-01 BMatC= 4.00D-12 BMatP= 1.46D-10
 IDIUse=1 WtCom= 1.00D+00 WtEn= 0.00D+00
 Coeff-Com: -0.352D-04 0.104D-02-0.150D-02-0.600D-02-0.161D-01 0.501D-01
 Coeff-Com:  0.222D+00 0.750D+00
 Coeff:     -0.352D-04 0.104D-02-0.150D-02-0.600D-02-0.161D-01 0.501D-01
 Coeff:      0.222D+00 0.750D+00
 Gap=     0.497 Goal=   None    Shift=    0.000
 RMSDP=1.73D-08 MaxDP=5.43D-07 DE=-1.13D-10 OVMax= 5.36D-07

 Cycle   9  Pass 1  IDiag  1:
 E= -476.716869341640     Delta-E=       -0.000000000003 Rises=F Damp=F
 DIIS: error= 2.61D-08 at cycle   9 NSaved=   9.
 NSaved= 9 IEnMin= 9 EnMin= -476.716869341640     IErMin= 9 ErrMin= 2.61D-08
 ErrMax= 2.61D-08  0.00D+00 EMaxC= 1.00D-01 BMatC= 3.28D-13 BMatP= 4.00D-12
 IDIUse=1 WtCom= 1.00D+00 WtEn= 0.00D+00
 Coeff-Com: -0.539D-05 0.231D-04 0.153D-03 0.144D-03-0.318D-02-0.144D-01
 Coeff-Com: -0.159D-01 0.197D+00 0.836D+00
 Coeff:     -0.539D-05 0.231D-04 0.153D-03 0.144D-03-0.318D-02-0.144D-01
 Coeff:     -0.159D-01 0.197D+00 0.836D+00
 Gap=     0.497 Goal=   None    Shift=    0.000
 RMSDP=7.41D-09 MaxDP=1.51D-07 DE=-2.50D-12 OVMax= 1.88D-07

 SCF Done:  E(RwB97XD) =  -476.716869342     A.U. after    9 cycles
            NFock=  9  Conv=0.74D-08     -V/T= 2.0054
 KE= 4.741559342311D+02 PE=-1.674358703122D+03 EE= 4.519932515011D+02
 Leave Link  502 at Thu Apr  2 15:47:48 2026, MaxMem=  1073741824 cpu:              20.2 elap:               5.2
 (Enter /Users/yarger/Applications/g16/l701.exe)
 ... and contract with generalized density number  0.
 Compute integral first derivatives.
 R6Disp: Adding Grimme-D2 dispersion energy 1st derivatives to the gradient.
 Leave Link  701 at Thu Apr  2 15:47:49 2026, MaxMem=  1073741824 cpu:               0.3 elap:               0.1
 (Enter /Users/yarger/Applications/g16/l702.exe)
 L702 exits ... SP integral derivatives will be done elsewhere.
 Leave Link  702 at Thu Apr  2 15:47:49 2026, MaxMem=  1073741824 cpu:               0.1 elap:               0.0
 (Enter /Users/yarger/Applications/g16/l703.exe)
 Integral derivatives from FoFJK, PRISM(SPDF).
 Compute integral first derivatives, UseDBF=F ICtDFT=           0.
 Calling FoFJK, ICntrl=      2127 FMM=F ISym2X=1 I1Cent= 0 IOpClX= 0 NMat=1 NMatS=1 NMatT=0.
 FoFJK:  IHMeth= 1 ICntrl=    2127 DoSepK=T KAlg= 0 I1Cent=           0 FoldK=F
 IRaf=         1 NMat=       1 IRICut=       1 DoRegI=T DoRafI=F ISym2E= 1 IDoP0=0 IntGTp=1.
 FoFCou: FMM=F IPFlag=           0 FMFlag=      100000 FMFlg1=         800
         NFxFlg=           0 DoJE=F BraDBF=F KetDBF=F FulRan=T
         wScrn=  0.000000 ICntrl=      2527 IOpCl=  0 I1Cent=           0 NGrid=           0
         NMat0=    1 NMatS0=      1 NMatT0=    0 NMatD0=    1 NMtDS0=    0 NMtDT0=    0
 Petite list used in FoFCou.
 Leave Link  703 at Thu Apr  2 15:47:51 2026, MaxMem=  1073741824 cpu:              10.5 elap:               2.7
 (Enter /Users/yarger/Applications/g16/l716.exe)
 Dipole        = 5.42587946D-01 6.26002171D-01-3.10862447D-15
 ***** Axes restored to original set *****
 -------------------------------------------------------------------
 Center     Atomic                   Forces (Hartrees/Bohr)
 Number     Number              X              Y              Z
 -------------------------------------------------------------------
      1        6           0.000492141    0.001406473   -0.002986476
      2        1          -0.000736224   -0.001141480    0.000367554
      3        6          -0.000628584   -0.000777576    0.002183498
      4        9          -0.000329697   -0.000543467   -0.000818461
      5        9           0.000794747    0.000661830   -0.000065533
      6        9           0.000708781    0.000118858   -0.001248782
      7        9          -0.000884492    0.000002407    0.001317072
      8        1           0.000583329    0.000272956    0.001251128
 -------------------------------------------------------------------
 Cartesian Forces:  Max     0.002986476 RMS     0.001072533
 Leave Link  716 at Thu Apr  2 15:47:51 2026, MaxMem=  1073741824 cpu:               0.1 elap:               0.0
 (Enter /Users/yarger/Applications/g16/l103.exe)

 GradGradGradGradGradGradGradGradGradGradGradGradGradGradGradGradGradGrad
 Berny optimization.
 Using GEDIIS/GDIIS optimizer.
 FormGI is forming the generalized inverse of G from B-inverse, IUseBI=4.
 Internal  Forces:  Max     0.001514750 RMS     0.000704504
 Search for a local minimum.
 Step number   3 out of a maximum of   38
 All quantities printed in internal units (Hartrees-Bohrs-Radians)
 RMS Force = .70450D-03 SwitMx=.10000D-02 MixMth= 2
 Mixed Optimization -- En-DIIS/RFO-DIIS
 Update second derivatives using D2CorX and points    1    2    3
 DE= -2.51D-04 DEPred=-2.64D-04 R= 9.52D-01
 TightC=F SS=  1.41D+00  RLast= 4.18D-02 DXNew= 7.1715D-01 1.2536D-01
 Trust test= 9.52D-01 RLast= 4.18D-02 DXMaxT set to 4.26D-01
 ITU=  1  1  0
 Use linear search instead of GDIIS.
     Eigenvalues ---    0.00237   0.05801   0.05921   0.08095   0.08660
     Eigenvalues ---    0.15923   0.16000   0.21678   0.23980   0.25000
     Eigenvalues ---    0.28021   0.36705   0.37230   0.38017   0.50038
     Eigenvalues ---    0.55021   0.55233   0.58200
 RFO step:  Lambda=-3.58404068D-05 EMin= 2.36824250D-03
 Quartic linear search produced a step of -0.05176.
 Iteration  1 RMS(Cart)=  0.00295059 RMS(Int)=  0.00000669
 Iteration  2 RMS(Cart)=  0.00000553 RMS(Int)=  0.00000434
 Iteration  3 RMS(Cart)=  0.00000000 RMS(Int)=  0.00000434
 ITry= 1 IFail=0 DXMaxC= 7.04D-03 DCOld= 1.00D+10 DXMaxT= 4.26D-01 DXLimC= 3.00D+00 Rises=F
 ClnCor:  largest displacement from symmetrization is 9.52D-09 for atom     5.
 Variable       Old X    -DE/DX   Delta X   Delta X   Delta X     New X
                                 (Linear)    (Quad)   (Total)
    R1        2.07756  -0.00132  -0.00011  -0.00293  -0.00303   2.07452
    R2        2.86949   0.00074   0.00065   0.00063   0.00128   2.87078
    R3        2.59580   0.00151  -0.00038   0.00370   0.00332   2.59912
    R4        2.07756  -0.00132  -0.00011  -0.00293  -0.00303   2.07452
    R5        2.53797  -0.00085  -0.00008  -0.00128  -0.00136   2.53661
    R6        2.53797  -0.00085  -0.00008  -0.00128  -0.00136   2.53661
    R7        2.54477   0.00141  -0.00030   0.00320   0.00290   2.54767
    A1        1.89752   0.00043  -0.00014   0.00334   0.00320   1.90072
    A2        1.91300  -0.00060   0.00032  -0.00479  -0.00447   1.90852
    A3        1.93262  -0.00027  -0.00021   0.00048   0.00025   1.93288
    A4        1.90994   0.00065  -0.00016   0.00260   0.00244   1.91238
    A5        1.89752   0.00043  -0.00014   0.00334   0.00320   1.90072
    A6        1.91300  -0.00060   0.00032  -0.00479  -0.00447   1.90852
    A7        1.95275   0.00080   0.00048   0.00194   0.00242   1.95517
    A8        1.95275   0.00080   0.00048   0.00194   0.00242   1.95517
    A9        1.90370   0.00017   0.00110  -0.00242  -0.00131   1.90240
   A10        1.88156  -0.00083  -0.00075  -0.00098  -0.00173   1.87983
   A11        1.88537  -0.00052  -0.00072  -0.00030  -0.00101   1.88436
   A12        1.88537  -0.00052  -0.00072  -0.00030  -0.00101   1.88436
    D1        1.03216  -0.00012   0.00035  -0.00302  -0.00268   1.02948
    D2       -3.13751  -0.00006   0.00007  -0.00153  -0.00146  -3.13897
    D3       -1.05268  -0.00009   0.00021  -0.00228  -0.00207  -1.05475
    D4       -1.05676  -0.00003   0.00014  -0.00075  -0.00061  -1.05736
    D5        1.05676   0.00003  -0.00014   0.00075   0.00061   1.05736
    D6       -3.14159  -0.00000  -0.00000   0.00000  -0.00000   3.14159
    D7        3.13751   0.00006  -0.00007   0.00153   0.00146   3.13897
    D8       -1.03216   0.00012  -0.00035   0.00302   0.00268  -1.02948
    D9        1.05268   0.00009  -0.00021   0.00228   0.00207   1.05475
         Item               Value     Threshold  Converged?
 Maximum Force            0.001515     0.000015     NO 
 RMS     Force            0.000705     0.000010     NO 
 Maximum Displacement     0.007044     0.000060     NO 
 RMS     Displacement     0.002952     0.000040     NO 
 Predicted change in Energy=-1.866527D-05
 Lowest energy point so far.  Saving SCF results.
 GradGradGradGradGradGradGradGradGradGradGradGradGradGradGradGradGradGrad

 Leave Link  103 at Thu Apr  2 15:47:51 2026, MaxMem=  1073741824 cpu:               0.0 elap:               0.0
 (Enter /Users/yarger/Applications/g16/l202.exe)
                          Input orientation:                          
 ---------------------------------------------------------------------
 Center     Atomic      Atomic             Coordinates (Angstroms)
 Number     Number       Type             X           Y           Z
 ---------------------------------------------------------------------
      1          6           0       -1.501319    1.411630    1.455139
      2          1           0       -1.157989    2.454323    1.447437
      3          6           0       -0.322768    0.503148    1.149367
      4          9           0        0.670245    0.649734    2.040573
      5          9           0       -0.674891   -0.792123    1.139870
      6          9           0        0.163810    0.810756   -0.069723
      7          9           0       -2.007255    1.107587    2.697434
      8          1           0       -2.279012    1.252694    0.696800
 ---------------------------------------------------------------------
                    Distance matrix (angstroms):
                    1          2          3          4          5
     1  C    0.000000
     2  H    1.097791   0.000000
     3  C    1.519150   2.143251   0.000000
     4  F    2.374638   2.636435   1.342315   0.000000
     5  F    2.374638   3.296574   1.342315   2.167858   0.000000
     6  F    2.336431   2.598123   1.348169   2.176179   2.176179
     7  F    1.375394   2.024214   2.366296   2.794656   2.794656
     8  H    1.097791   1.806671   2.143251   3.296574   2.636435
                    6          7          8
     6  F    0.000000
     7  F    3.529701   0.000000
     8  H    2.598123   2.024214   0.000000
 Stoichiometry    C2H2F4
 Framework group  CS[SG(C2F2),X(H2F2)]
 Deg. of freedom    11
 Full point group                 CS      NOp   2
 RotChk:  IX=2 Diff= 1.22D-03
 Largest Abelian subgroup         CS      NOp   2
 Largest concise Abelian subgroup CS      NOp   2
                         Standard orientation:                         
 ---------------------------------------------------------------------
 Center     Atomic      Atomic             Coordinates (Angstroms)
 Number     Number       Type             X           Y           Z
 ---------------------------------------------------------------------
      1          6           0        1.158063    0.243029   -0.000000
      2          1           0        1.496006    0.767362   -0.903335
      3          6           0       -0.360201    0.191163    0.000000
      4          9           0       -0.842374   -0.436864   -1.083929
      5          9           0       -0.842374   -0.436864    1.083929
      6          9           0       -0.842374    1.450158    0.000000
      7          9           0        1.662768   -1.036417   -0.000000
      8          1           0        1.496006    0.767362    0.903335
 ---------------------------------------------------------------------
 Rotational constants (GHZ):           5.3052324           2.7736178           2.7333275
 Leave Link  202 at Thu Apr  2 15:47:51 2026, MaxMem=  1073741824 cpu:               0.0 elap:               0.0
 (Enter /Users/yarger/Applications/g16/l301.exe)
 Standard basis: Aug-CC-pVDZ (5D, 7F)
 Ernie: Thresh=  0.10000D-02 Tol=  0.10000D-05 Strict=F.
 Ernie:  12 primitive shells out of 164 were deleted.
 There are   106 symmetry adapted cartesian basis functions of A'  symmetry.
 There are    62 symmetry adapted cartesian basis functions of A"  symmetry.
 There are    96 symmetry adapted basis functions of A'  symmetry.
 There are    60 symmetry adapted basis functions of A"  symmetry.
   156 basis functions,   280 primitive gaussians,   168 cartesian basis functions
    25 alpha electrons       25 beta electrons
       nuclear repulsion energy       271.3612657056 Hartrees.
 IExCor= 4639 DFT=T Ex+Corr=wB97XD ExCW=0 ScaHFX=  1.000000
 ScaDFX=  1.000000  1.000000  1.000000  1.000000 ScalE2=  1.000000  1.000000
 IRadAn=      5 IRanWt=     -1 IRanGd=            0 ICorTp=0 IEmpDi=121
 HFx  wShort=  0.000000 wLong=  0.200000 cFull=  0.222036 cShort=  0.000000 cLong=  0.777964
 DFx  wShort=  0.000000 wLong=  0.200000 cFull=  0.000000 cShort=  0.000000 cLong=  1.000000
 NAtoms=    8 NActive=    8 NUniq=    6 SFac= 1.78D+00 NAtFMM=   60 NAOKFM=F Big=F
 Integral buffers will be    131072 words long.
 Raffenetti 2 integral format.
 Two-electron integral symmetry is turned on.
 R6Disp:  Grimme-D2 Dispersion energy=       -0.0021729250 Hartrees.
 Nuclear repulsion after empirical dispersion term =      271.3590927806 Hartrees.
 Leave Link  301 at Thu Apr  2 15:47:51 2026, MaxMem=  1073741824 cpu:               0.1 elap:               0.0
 (Enter /Users/yarger/Applications/g16/l302.exe)
 NPDir=0 NMtPBC=     1 NCelOv=     1 NCel=       1 NClECP=     1 NCelD=      1
         NCelK=      1 NCelE2=     1 NClLst=     1 CellRange=     0.0.
 One-electron integrals computed using PRISM.
 One-electron integral symmetry used in STVInt
 NBasis=   156 RedAO= T EigKep=  1.63D-04  NBF=    96    60
 NBsUse=   156 1.00D-06 EigRej= -1.00D+00 NBFU=    96    60
 Precomputing XC quadrature grid using
 IXCGrd= 4 IRadAn=           5 IRanWt=          -1 IRanGd=           0 AccXCQ= 0.00D+00.
 Generated NRdTot=       0 NPtTot=           0 NUsed=           0 NTot=          32
 NSgBfM=   168   168   168   168   168 MxSgAt=     8 MxSgA2=     8.
 Leave Link  302 at Thu Apr  2 15:47:52 2026, MaxMem=  1073741824 cpu:               0.4 elap:               0.1
 (Enter /Users/yarger/Applications/g16/l303.exe)
 DipDrv:  MaxL=1.
 Leave Link  303 at Thu Apr  2 15:47:52 2026, MaxMem=  1073741824 cpu:               0.1 elap:               0.0
 (Enter /Users/yarger/Applications/g16/l401.exe)
 Initial guess from the checkpoint file:  "1112Tetrafluoroethane_Opt_Freq_DFT_WB97XD_pVDZ_Gaussian16.chk"
 B after Tr=    -0.000000    0.000000    0.000000
         Rot=    1.000000   -0.000000    0.000000   -0.000732 Ang=  -0.08 deg.
 Guess basis will be translated and rotated to current coordinates.
 JPrj=2 DoOrth=T DoCkMO=T.
 Initial guess orbital symmetries:
       Occupied  (A') (A") (A') (A') (A') (A') (A') (A') (A") (A')
                 (A') (A') (A') (A") (A') (A') (A") (A') (A") (A')
                 (A') (A") (A") (A") (A')
       Virtual   (A') (A") (A') (A') (A") (A') (A') (A') (A") (A')
                 (A") (A') (A') (A") (A') (A') (A") (A') (A') (A')
                 (A") (A') (A") (A') (A') (A") (A') (A") (A') (A')
                 (A") (A") (A') (A') (A') (A") (A") (A') (A') (A')
                 (A") (A') (A') (A") (A') (A') (A") (A') (A") (A')
                 (A') (A") (A') (A') (A") (A') (A") (A') (A") (A")
                 (A') (A") (A") (A') (A') (A') (A") (A") (A') (A')
                 (A") (A') (A") (A') (A') (A') (A") (A") (A') (A')
                 (A") (A') (A") (A') (A") (A') (A") (A') (A') (A")
                 (A') (A") (A') (A") (A') (A') (A') (A") (A') (A')
                 (A") (A') (A') (A") (A') (A') (A") (A') (A") (A')
                 (A') (A") (A') (A") (A') (A") (A') (A') (A") (A')
                 (A") (A') (A') (A") (A") (A') (A') (A") (A') (A')
                 (A")
 The electronic state of the initial guess is 1-A'.
 Leave Link  401 at Thu Apr  2 15:47:52 2026, MaxMem=  1073741824 cpu:               0.3 elap:               0.1
 (Enter /Users/yarger/Applications/g16/l502.exe)
 Keep R1 ints in memory in symmetry-blocked form, NReq=225262371.
 FoFCou: FMM=F IPFlag=           0 FMFlag=           0 FMFlg1=           0
         NFxFlg=           0 DoJE=F BraDBF=F KetDBF=F FulRan=T
         wScrn=  0.000000 ICntrl=       600 IOpCl=  0 I1Cent=           0 NGrid=           0
         NMat0=    1 NMatS0=  12246 NMatT0=    0 NMatD0=    1 NMtDS0=    0 NMtDT0=    0
 Petite list used in FoFCou.
 Closed shell SCF:
 Using DIIS extrapolation, IDIIS=  1040.
 NGot=  1073741824 LenX=  1036027171 LenY=  1035998506
 Requested convergence on RMS density matrix=1.00D-08 within 128 cycles.
 Requested convergence on MAX density matrix=1.00D-06.
 Requested convergence on             energy=1.00D-06.
 No special actions if energy rises.

 Cycle   1  Pass 1  IDiag  1:
 E= -476.716876799598    
 DIIS: error= 2.27D-04 at cycle   1 NSaved=   1.
 NSaved= 1 IEnMin= 1 EnMin= -476.716876799598     IErMin= 1 ErrMin= 2.27D-04
 ErrMax= 2.27D-04  0.00D+00 EMaxC= 1.00D-01 BMatC= 1.51D-05 BMatP= 1.51D-05
 IDIUse=3 WtCom= 9.98D-01 WtEn= 2.27D-03
 Coeff-Com:  0.100D+01
 Coeff-En:   0.100D+01
 Coeff:      0.100D+01
 Gap=     0.498 Goal=   None    Shift=    0.000
 RMSDP=6.01D-05 MaxDP=1.58D-03              OVMax= 8.58D-04

 Cycle   2  Pass 1  IDiag  1:
 E= -476.716890900492     Delta-E=       -0.000014100894 Rises=F Damp=F
 DIIS: error= 3.88D-05 at cycle   2 NSaved=   2.
 NSaved= 2 IEnMin= 2 EnMin= -476.716890900492     IErMin= 2 ErrMin= 3.88D-05
 ErrMax= 3.88D-05  0.00D+00 EMaxC= 1.00D-01 BMatC= 4.97D-07 BMatP= 1.51D-05
 IDIUse=1 WtCom= 1.00D+00 WtEn= 0.00D+00
 Coeff-Com: -0.553D-01 0.106D+01
 Coeff:     -0.553D-01 0.106D+01
 Gap=     0.498 Goal=   None    Shift=    0.000
 RMSDP=9.32D-06 MaxDP=1.61D-04 DE=-1.41D-05 OVMax= 2.93D-04

 Cycle   3  Pass 1  IDiag  1:
 E= -476.716891485414     Delta-E=       -0.000000584922 Rises=F Damp=F
 DIIS: error= 2.65D-05 at cycle   3 NSaved=   3.
 NSaved= 3 IEnMin= 3 EnMin= -476.716891485414     IErMin= 3 ErrMin= 2.65D-05
 ErrMax= 2.65D-05  0.00D+00 EMaxC= 1.00D-01 BMatC= 2.85D-07 BMatP= 4.97D-07
 IDIUse=1 WtCom= 1.00D+00 WtEn= 0.00D+00
 Coeff-Com: -0.515D-01 0.461D+00 0.590D+00
 Coeff:     -0.515D-01 0.461D+00 0.590D+00
 Gap=     0.498 Goal=   None    Shift=    0.000
 RMSDP=2.42D-06 MaxDP=8.93D-05 DE=-5.85D-07 OVMax= 9.68D-05

 Cycle   4  Pass 1  IDiag  1:
 E= -476.716891664644     Delta-E=       -0.000000179231 Rises=F Damp=F
 DIIS: error= 7.17D-06 at cycle   4 NSaved=   4.
 NSaved= 4 IEnMin= 4 EnMin= -476.716891664644     IErMin= 4 ErrMin= 7.17D-06
 ErrMax= 7.17D-06  0.00D+00 EMaxC= 1.00D-01 BMatC= 1.82D-08 BMatP= 2.85D-07
 IDIUse=1 WtCom= 1.00D+00 WtEn= 0.00D+00
 Coeff-Com: -0.359D-02-0.527D-01 0.161D+00 0.895D+00
 Coeff:     -0.359D-02-0.527D-01 0.161D+00 0.895D+00
 Gap=     0.498 Goal=   None    Shift=    0.000
 RMSDP=1.11D-06 MaxDP=2.73D-05 DE=-1.79D-07 OVMax= 3.92D-05

 Cycle   5  Pass 1  IDiag  1:
 E= -476.716891681048     Delta-E=       -0.000000016403 Rises=F Damp=F
 DIIS: error= 1.75D-06 at cycle   5 NSaved=   5.
 NSaved= 5 IEnMin= 5 EnMin= -476.716891681048     IErMin= 5 ErrMin= 1.75D-06
 ErrMax= 1.75D-06  0.00D+00 EMaxC= 1.00D-01 BMatC= 5.52D-10 BMatP= 1.82D-08
 IDIUse=1 WtCom= 1.00D+00 WtEn= 0.00D+00
 Coeff-Com:  0.196D-02-0.371D-01 0.492D-02 0.195D+00 0.835D+00
 Coeff:      0.196D-02-0.371D-01 0.492D-02 0.195D+00 0.835D+00
 Gap=     0.498 Goal=   None    Shift=    0.000
 RMSDP=2.59D-07 MaxDP=6.35D-06 DE=-1.64D-08 OVMax= 7.82D-06

 Cycle   6  Pass 1  IDiag  1:
 E= -476.716891681665     Delta-E=       -0.000000000617 Rises=F Damp=F
 DIIS: error= 3.78D-07 at cycle   6 NSaved=   6.
 NSaved= 6 IEnMin= 6 EnMin= -476.716891681665     IErMin= 6 ErrMin= 3.78D-07
 ErrMax= 3.78D-07  0.00D+00 EMaxC= 1.00D-01 BMatC= 4.34D-11 BMatP= 5.52D-10
 IDIUse=1 WtCom= 1.00D+00 WtEn= 0.00D+00
 Coeff-Com:  0.643D-03-0.699D-02-0.658D-02 0.223D-02 0.228D+00 0.783D+00
 Coeff:      0.643D-03-0.699D-02-0.658D-02 0.223D-02 0.228D+00 0.783D+00
 Gap=     0.498 Goal=   None    Shift=    0.000
 RMSDP=7.41D-08 MaxDP=1.78D-06 DE=-6.17D-10 OVMax= 2.09D-06

 Cycle   7  Pass 1  IDiag  1:
 E= -476.716891681709     Delta-E=       -0.000000000044 Rises=F Damp=F
 DIIS: error= 7.47D-08 at cycle   7 NSaved=   7.
 NSaved= 7 IEnMin= 7 EnMin= -476.716891681709     IErMin= 7 ErrMin= 7.47D-08
 ErrMax= 7.47D-08  0.00D+00 EMaxC= 1.00D-01 BMatC= 1.93D-12 BMatP= 4.34D-11
 IDIUse=1 WtCom= 1.00D+00 WtEn= 0.00D+00
 Coeff-Com: -0.501D-04 0.184D-02-0.114D-02-0.142D-01-0.356D-01 0.106D+00
 Coeff-Com:  0.943D+00
 Coeff:     -0.501D-04 0.184D-02-0.114D-02-0.142D-01-0.356D-01 0.106D+00
 Coeff:      0.943D+00
 Gap=     0.498 Goal=   None    Shift=    0.000
 RMSDP=2.16D-08 MaxDP=5.76D-07 DE=-4.39D-11 OVMax= 6.83D-07

 Cycle   8  Pass 1  IDiag  1:
 E= -476.716891681714     Delta-E=       -0.000000000004 Rises=F Damp=F
 DIIS: error= 4.26D-08 at cycle   8 NSaved=   8.
 NSaved= 8 IEnMin= 8 EnMin= -476.716891681714     IErMin= 8 ErrMin= 4.26D-08
 ErrMax= 4.26D-08  0.00D+00 EMaxC= 1.00D-01 BMatC= 5.70D-13 BMatP= 1.93D-12
 IDIUse=1 WtCom= 1.00D+00 WtEn= 0.00D+00
 Coeff-Com: -0.614D-04 0.132D-02-0.247D-03-0.732D-02-0.297D-01 0.129D-01
 Coeff-Com:  0.457D+00 0.566D+00
 Coeff:     -0.614D-04 0.132D-02-0.247D-03-0.732D-02-0.297D-01 0.129D-01
 Coeff:      0.457D+00 0.566D+00
 Gap=     0.498 Goal=   None    Shift=    0.000
 RMSDP=3.74D-09 MaxDP=1.35D-07 DE=-4.43D-12 OVMax= 1.58D-07

 SCF Done:  E(RwB97XD) =  -476.716891682     A.U. after    8 cycles
            NFock=  8  Conv=0.37D-08     -V/T= 2.0054
 KE= 4.741555476354D+02 PE=-1.674092097797D+03 EE= 4.518605656988D+02
 Leave Link  502 at Thu Apr  2 15:47:57 2026, MaxMem=  1073741824 cpu:              18.9 elap:               4.9
 (Enter /Users/yarger/Applications/g16/l701.exe)
 ... and contract with generalized density number  0.
 Compute integral first derivatives.
 R6Disp: Adding Grimme-D2 dispersion energy 1st derivatives to the gradient.
 Leave Link  701 at Thu Apr  2 15:47:57 2026, MaxMem=  1073741824 cpu:               0.3 elap:               0.1
 (Enter /Users/yarger/Applications/g16/l702.exe)
 L702 exits ... SP integral derivatives will be done elsewhere.
 Leave Link  702 at Thu Apr  2 15:47:57 2026, MaxMem=  1073741824 cpu:               0.1 elap:               0.0
 (Enter /Users/yarger/Applications/g16/l703.exe)
 Integral derivatives from FoFJK, PRISM(SPDF).
 Compute integral first derivatives, UseDBF=F ICtDFT=           0.
 Calling FoFJK, ICntrl=      2127 FMM=F ISym2X=1 I1Cent= 0 IOpClX= 0 NMat=1 NMatS=1 NMatT=0.
 FoFJK:  IHMeth= 1 ICntrl=    2127 DoSepK=T KAlg= 0 I1Cent=           0 FoldK=F
 IRaf=         1 NMat=       1 IRICut=       1 DoRegI=T DoRafI=F ISym2E= 1 IDoP0=0 IntGTp=1.
 FoFCou: FMM=F IPFlag=           0 FMFlag=      100000 FMFlg1=         800
         NFxFlg=           0 DoJE=F BraDBF=F KetDBF=F FulRan=T
         wScrn=  0.000000 ICntrl=      2527 IOpCl=  0 I1Cent=           0 NGrid=           0
         NMat0=    1 NMatS0=      1 NMatT0=    0 NMatD0=    1 NMtDS0=    0 NMtDT0=    0
 Petite list used in FoFCou.
 Leave Link  703 at Thu Apr  2 15:48:00 2026, MaxMem=  1073741824 cpu:              10.7 elap:               2.8
 (Enter /Users/yarger/Applications/g16/l716.exe)
 Dipole        = 5.41805126D-01 6.24603180D-01 8.88178420D-16
 ***** Axes restored to original set *****
 -------------------------------------------------------------------
 Center     Atomic                   Forces (Hartrees/Bohr)
 Number     Number              X              Y              Z
 -------------------------------------------------------------------
      1        6           0.000005013    0.000679032   -0.001094489
      2        1          -0.000046356   -0.000338071    0.000017363
      3        6          -0.000225667   -0.000536375    0.001195654
      4        9          -0.000232679   -0.000049588   -0.000372822
      5        9           0.000179645    0.000392384   -0.000096730
      6        9           0.000236092    0.000113902   -0.000534922
      7        9          -0.000175472   -0.000250983    0.000663831
      8        1           0.000259425   -0.000010302    0.000222115
 -------------------------------------------------------------------
 Cartesian Forces:  Max     0.001195654 RMS     0.000453744
 Leave Link  716 at Thu Apr  2 15:48:00 2026, MaxMem=  1073741824 cpu:               0.1 elap:               0.0
 (Enter /Users/yarger/Applications/g16/l103.exe)

 GradGradGradGradGradGradGradGradGradGradGradGradGradGradGradGradGradGrad
 Berny optimization.
 Using GEDIIS/GDIIS optimizer.
 FormGI is forming the generalized inverse of G from B-inverse, IUseBI=4.
 Internal  Forces:  Max     0.000721565 RMS     0.000242603
 Search for a local minimum.
 Step number   4 out of a maximum of   38
 All quantities printed in internal units (Hartrees-Bohrs-Radians)
 RMS Force = .24260D-03 SwitMx=.10000D-02 MixMth= 2
 Mixed Optimization -- En-DIIS/RFO-DIIS
 Swapping is turned off.
 Update second derivatives using D2CorX and points    1    2    3    4
 DE= -2.23D-05 DEPred=-1.87D-05 R= 1.20D+00
 TightC=F SS=  1.41D+00  RLast= 1.25D-02 DXNew= 7.1715D-01 3.7469D-02
 Trust test= 1.20D+00 RLast= 1.25D-02 DXMaxT set to 4.26D-01
 ITU=  1  1  1  0
     Eigenvalues ---    0.00237   0.05633   0.05778   0.07857   0.08657
     Eigenvalues ---    0.16000   0.16870   0.22023   0.24367   0.25000
     Eigenvalues ---    0.28506   0.33782   0.37230   0.37859   0.42337
     Eigenvalues ---    0.54664   0.55021   0.57531
 En-DIIS/RFO-DIIS/Sim-DIIS IScMMF=       -3 using points:     4    3
 RFO step:  Lambda=-5.95802027D-06.
 NNeg= 0 NGDIIS= 2 SimSw=  2.50D-01 Rises=F DC= -2.23D-05 SmlDif=  1.00D-05
 NRisDI= 0 DoIntr=F SqrtH=F CThrHd= 10.0 CDAdj=  3.0
 RMS Error=  0.1119539324D-02 NUsed= 2 OKEnD=T EnDIS=F
 InvSVX:  RCond= 3.90D-05 Info=           0 Equed=N FErr=  1.94D-15 BErr=  4.25D-17
 DidBck=F Rises=F RFO-DIIS coefs:    1.30582   -0.30582
 Iteration  1 RMS(Cart)=  0.00061103 RMS(Int)=  0.00000161
 Iteration  2 RMS(Cart)=  0.00000079 RMS(Int)=  0.00000145
 ITry= 1 IFail=0 DXMaxC= 1.61D-03 DCOld= 1.00D+10 DXMaxT= 4.26D-01 DXLimC= 3.00D+00 Rises=F
 ClnCor:  largest displacement from symmetrization is 2.35D-09 for atom     5.
 Variable       Old X    -DE/DX   Delta X   Delta X   Delta X     New X
                                 (Linear)    (Quad)   (Total)
    R1        2.07452  -0.00034  -0.00093  -0.00038  -0.00131   2.07321
    R2        2.87078  -0.00002   0.00039  -0.00083  -0.00044   2.87034
    R3        2.59912   0.00072   0.00102   0.00138   0.00240   2.60152
    R4        2.07452  -0.00034  -0.00093  -0.00038  -0.00131   2.07321
    R5        2.53661  -0.00043  -0.00042  -0.00071  -0.00113   2.53548
    R6        2.53661  -0.00043  -0.00042  -0.00071  -0.00113   2.53548
    R7        2.54767   0.00060   0.00089   0.00100   0.00189   2.54956
    A1        1.90072  -0.00003   0.00098  -0.00074   0.00023   1.90095
    A2        1.90852   0.00011  -0.00137   0.00107  -0.00030   1.90823
    A3        1.93288   0.00007   0.00008   0.00111   0.00119   1.93406
    A4        1.91238  -0.00024   0.00075  -0.00183  -0.00108   1.91130
    A5        1.90072  -0.00003   0.00098  -0.00074   0.00023   1.90095
    A6        1.90852   0.00011  -0.00137   0.00107  -0.00030   1.90823
    A7        1.95517   0.00014   0.00074   0.00030   0.00104   1.95621
    A8        1.95517   0.00014   0.00074   0.00030   0.00104   1.95621
    A9        1.90240  -0.00004  -0.00040  -0.00102  -0.00142   1.90098
   A10        1.87983  -0.00007  -0.00053   0.00104   0.00051   1.88034
   A11        1.88436  -0.00010  -0.00031  -0.00033  -0.00063   1.88373
   A12        1.88436  -0.00010  -0.00031  -0.00033  -0.00063   1.88373
    D1        1.02948  -0.00009  -0.00082  -0.00112  -0.00194   1.02754
    D2       -3.13897   0.00003  -0.00045   0.00066   0.00021  -3.13876
    D3       -1.05475  -0.00003  -0.00063  -0.00023  -0.00086  -1.05561
    D4       -1.05736  -0.00006  -0.00019  -0.00089  -0.00108  -1.05844
    D5        1.05736   0.00006   0.00019   0.00089   0.00108   1.05844
    D6        3.14159  -0.00000  -0.00000  -0.00000   0.00000   3.14159
    D7        3.13897  -0.00003   0.00045  -0.00066  -0.00021   3.13876
    D8       -1.02948   0.00009   0.00082   0.00112   0.00194  -1.02754
    D9        1.05475   0.00003   0.00063   0.00023   0.00086   1.05561
         Item               Value     Threshold  Converged?
 Maximum Force            0.000722     0.000015     NO 
 RMS     Force            0.000243     0.000010     NO 
 Maximum Displacement     0.001608     0.000060     NO 
 RMS     Displacement     0.000611     0.000040     NO 
 Predicted change in Energy=-2.979647D-06
 Lowest energy point so far.  Saving SCF results.
 GradGradGradGradGradGradGradGradGradGradGradGradGradGradGradGradGradGrad

 Leave Link  103 at Thu Apr  2 15:48:00 2026, MaxMem=  1073741824 cpu:               0.0 elap:               0.0
 (Enter /Users/yarger/Applications/g16/l202.exe)
                          Input orientation:                          
 ---------------------------------------------------------------------
 Center     Atomic      Atomic             Coordinates (Angstroms)
 Number     Number       Type             X           Y           Z
 ---------------------------------------------------------------------
      1          6           0       -1.501278    1.411985    1.454509
      2          1           0       -1.157754    2.453888    1.447298
      3          6           0       -0.323092    0.502920    1.150217
      4          9           0        0.670205    0.649586    2.040192
      5          9           0       -0.674581   -0.791897    1.139723
      6          9           0        0.163511    0.811097   -0.069822
      7          9           0       -2.007664    1.107644    2.697953
      8          1           0       -2.278526    1.252526    0.696828
 ---------------------------------------------------------------------
                    Distance matrix (angstroms):
                    1          2          3          4          5
     1  C    0.000000
     2  H    1.097097   0.000000
     3  C    1.518919   2.142707   0.000000
     4  F    2.374788   2.635994   1.341717   0.000000
     5  F    2.374788   3.295934   1.341717   2.167295   0.000000
     6  F    2.335846   2.597337   1.349167   2.176002   2.176002
     7  F    1.376664   2.024564   2.366212   2.795255   2.795255
     8  H    1.097097   1.806268   2.142707   3.295934   2.635994
                    6          7          8
     6  F    0.000000
     7  F    3.530230   0.000000
     8  H    2.597337   2.024564   0.000000
 Stoichiometry    C2H2F4
 Framework group  CS[SG(C2F2),X(H2F2)]
 Deg. of freedom    11
 Full point group                 CS      NOp   2
 RotChk:  IX=2 Diff= 4.14D-04
 Largest Abelian subgroup         CS      NOp   2
 Largest concise Abelian subgroup CS      NOp   2
                         Standard orientation:                         
 ---------------------------------------------------------------------
 Center     Atomic      Atomic             Coordinates (Angstroms)
 Number     Number       Type             X           Y           Z
 ---------------------------------------------------------------------
      1          6           0        1.157892    0.244064   -0.000000
      2          1           0        1.495182    0.767711   -0.903134
      3          6           0       -0.360070    0.190145    0.000000
      4          9           0       -0.842519   -0.436877   -1.083648
      5          9           0       -0.842519   -0.436877    1.083648
      6          9           0       -0.842519    1.450104   -0.000000
      7          9           0        1.663414   -1.036425   -0.000000
      8          1           0        1.495182    0.767711    0.903134
 ---------------------------------------------------------------------
 Rotational constants (GHZ):           5.3057253           2.7735378           2.7326738
 Leave Link  202 at Thu Apr  2 15:48:00 2026, MaxMem=  1073741824 cpu:               0.0 elap:               0.0
 (Enter /Users/yarger/Applications/g16/l301.exe)
 Standard basis: Aug-CC-pVDZ (5D, 7F)
 Ernie: Thresh=  0.10000D-02 Tol=  0.10000D-05 Strict=F.
 Ernie:  12 primitive shells out of 164 were deleted.
 There are   106 symmetry adapted cartesian basis functions of A'  symmetry.
 There are    62 symmetry adapted cartesian basis functions of A"  symmetry.
 There are    96 symmetry adapted basis functions of A'  symmetry.
 There are    60 symmetry adapted basis functions of A"  symmetry.
   156 basis functions,   280 primitive gaussians,   168 cartesian basis functions
    25 alpha electrons       25 beta electrons
       nuclear repulsion energy       271.3551400286 Hartrees.
 IExCor= 4639 DFT=T Ex+Corr=wB97XD ExCW=0 ScaHFX=  1.000000
 ScaDFX=  1.000000  1.000000  1.000000  1.000000 ScalE2=  1.000000  1.000000
 IRadAn=      5 IRanWt=     -1 IRanGd=            0 ICorTp=0 IEmpDi=121
 HFx  wShort=  0.000000 wLong=  0.200000 cFull=  0.222036 cShort=  0.000000 cLong=  0.777964
 DFx  wShort=  0.000000 wLong=  0.200000 cFull=  0.000000 cShort=  0.000000 cLong=  1.000000
 NAtoms=    8 NActive=    8 NUniq=    6 SFac= 1.78D+00 NAtFMM=   60 NAOKFM=F Big=F
 Integral buffers will be    131072 words long.
 Raffenetti 2 integral format.
 Two-electron integral symmetry is turned on.
 R6Disp:  Grimme-D2 Dispersion energy=       -0.0021727665 Hartrees.
 Nuclear repulsion after empirical dispersion term =      271.3529672621 Hartrees.
 Leave Link  301 at Thu Apr  2 15:48:00 2026, MaxMem=  1073741824 cpu:               0.1 elap:               0.0
 (Enter /Users/yarger/Applications/g16/l302.exe)
 NPDir=0 NMtPBC=     1 NCelOv=     1 NCel=       1 NClECP=     1 NCelD=      1
         NCelK=      1 NCelE2=     1 NClLst=     1 CellRange=     0.0.
 One-electron integrals computed using PRISM.
 One-electron integral symmetry used in STVInt
 NBasis=   156 RedAO= T EigKep=  1.63D-04  NBF=    96    60
 NBsUse=   156 1.00D-06 EigRej= -1.00D+00 NBFU=    96    60
 Precomputing XC quadrature grid using
 IXCGrd= 4 IRadAn=           5 IRanWt=          -1 IRanGd=           0 AccXCQ= 0.00D+00.
 Generated NRdTot=       0 NPtTot=           0 NUsed=           0 NTot=          32
 NSgBfM=   168   168   168   168   168 MxSgAt=     8 MxSgA2=     8.
 Leave Link  302 at Thu Apr  2 15:48:00 2026, MaxMem=  1073741824 cpu:               0.5 elap:               0.1
 (Enter /Users/yarger/Applications/g16/l303.exe)
 DipDrv:  MaxL=1.
 Leave Link  303 at Thu Apr  2 15:48:00 2026, MaxMem=  1073741824 cpu:               0.1 elap:               0.0
 (Enter /Users/yarger/Applications/g16/l401.exe)
 Initial guess from the checkpoint file:  "1112Tetrafluoroethane_Opt_Freq_DFT_WB97XD_pVDZ_Gaussian16.chk"
 B after Tr=    -0.000000   -0.000000   -0.000000
         Rot=    1.000000   -0.000000    0.000000   -0.000105 Ang=  -0.01 deg.
 Guess basis will be translated and rotated to current coordinates.
 JPrj=2 DoOrth=T DoCkMO=T.
 Initial guess orbital symmetries:
       Occupied  (A') (A") (A') (A') (A') (A') (A') (A') (A") (A')
                 (A') (A') (A") (A') (A') (A') (A") (A') (A") (A')
                 (A') (A") (A") (A") (A')
       Virtual   (A') (A") (A') (A') (A") (A') (A') (A') (A") (A')
                 (A") (A') (A') (A") (A') (A') (A") (A') (A') (A')
                 (A") (A') (A") (A') (A') (A") (A') (A") (A') (A')
                 (A") (A") (A') (A') (A') (A") (A") (A') (A') (A')
                 (A") (A') (A') (A") (A') (A') (A") (A') (A") (A')
                 (A') (A") (A') (A') (A") (A') (A") (A') (A") (A")
                 (A') (A") (A") (A') (A') (A') (A") (A') (A") (A')
                 (A") (A') (A") (A') (A') (A') (A") (A") (A') (A')
                 (A") (A') (A") (A') (A") (A') (A") (A') (A') (A")
                 (A') (A") (A') (A") (A') (A') (A') (A") (A') (A')
                 (A") (A') (A') (A") (A') (A') (A") (A') (A") (A')
                 (A') (A") (A') (A") (A') (A") (A') (A') (A") (A')
                 (A") (A') (A') (A") (A") (A') (A') (A") (A') (A')
                 (A")
 The electronic state of the initial guess is 1-A'.
 Leave Link  401 at Thu Apr  2 15:48:00 2026, MaxMem=  1073741824 cpu:               0.3 elap:               0.1
 (Enter /Users/yarger/Applications/g16/l502.exe)
 Keep R1 ints in memory in symmetry-blocked form, NReq=225262371.
 FoFCou: FMM=F IPFlag=           0 FMFlag=           0 FMFlg1=           0
         NFxFlg=           0 DoJE=F BraDBF=F KetDBF=F FulRan=T
         wScrn=  0.000000 ICntrl=       600 IOpCl=  0 I1Cent=           0 NGrid=           0
         NMat0=    1 NMatS0=  12246 NMatT0=    0 NMatD0=    1 NMtDS0=    0 NMtDT0=    0
 Petite list used in FoFCou.
 Closed shell SCF:
 Using DIIS extrapolation, IDIIS=  1040.
 NGot=  1073741824 LenX=  1036027171 LenY=  1035998506
 Requested convergence on RMS density matrix=1.00D-08 within 128 cycles.
 Requested convergence on MAX density matrix=1.00D-06.
 Requested convergence on             energy=1.00D-06.
 No special actions if energy rises.

 Cycle   1  Pass 1  IDiag  1:
 E= -476.716891933185    
 DIIS: error= 1.11D-04 at cycle   1 NSaved=   1.
 NSaved= 1 IEnMin= 1 EnMin= -476.716891933185     IErMin= 1 ErrMin= 1.11D-04
 ErrMax= 1.11D-04  0.00D+00 EMaxC= 1.00D-01 BMatC= 3.41D-06 BMatP= 3.41D-06
 IDIUse=3 WtCom= 9.99D-01 WtEn= 1.11D-03
 Coeff-Com:  0.100D+01
 Coeff-En:   0.100D+01
 Coeff:      0.100D+01
 Gap=     0.498 Goal=   None    Shift=    0.000
 RMSDP=2.44D-05 MaxDP=5.21D-04              OVMax= 3.08D-04

 Cycle   2  Pass 1  IDiag  1:
 E= -476.716894787933     Delta-E=       -0.000002854747 Rises=F Damp=F
 DIIS: error= 1.48D-05 at cycle   2 NSaved=   2.
 NSaved= 2 IEnMin= 2 EnMin= -476.716894787933     IErMin= 2 ErrMin= 1.48D-05
 ErrMax= 1.48D-05  0.00D+00 EMaxC= 1.00D-01 BMatC= 7.33D-08 BMatP= 3.41D-06
 IDIUse=1 WtCom= 1.00D+00 WtEn= 0.00D+00
 Coeff-Com: -0.576D-01 0.106D+01
 Coeff:     -0.576D-01 0.106D+01
 Gap=     0.498 Goal=   None    Shift=    0.000
 RMSDP=3.83D-06 MaxDP=6.42D-05 DE=-2.85D-06 OVMax= 9.04D-05

 Cycle   3  Pass 1  IDiag  1:
 E= -476.716894896453     Delta-E=       -0.000000108521 Rises=F Damp=F
 DIIS: error= 6.59D-06 at cycle   3 NSaved=   3.
 NSaved= 3 IEnMin= 3 EnMin= -476.716894896453     IErMin= 3 ErrMin= 6.59D-06
 ErrMax= 6.59D-06  0.00D+00 EMaxC= 1.00D-01 BMatC= 1.44D-08 BMatP= 7.33D-08
 IDIUse=1 WtCom= 1.00D+00 WtEn= 0.00D+00
 Coeff-Com: -0.314D-01 0.264D+00 0.767D+00
 Coeff:     -0.314D-01 0.264D+00 0.767D+00
 Gap=     0.498 Goal=   None    Shift=    0.000
 RMSDP=7.80D-07 MaxDP=2.21D-05 DE=-1.09D-07 OVMax= 2.46D-05

 Cycle   4  Pass 1  IDiag  1:
 E= -476.716894905596     Delta-E=       -0.000000009143 Rises=F Damp=F
 DIIS: error= 3.40D-06 at cycle   4 NSaved=   4.
 NSaved= 4 IEnMin= 4 EnMin= -476.716894905596     IErMin= 4 ErrMin= 3.40D-06
 ErrMax= 3.40D-06  0.00D+00 EMaxC= 1.00D-01 BMatC= 4.78D-09 BMatP= 1.44D-08
 IDIUse=1 WtCom= 1.00D+00 WtEn= 0.00D+00
 Coeff-Com: -0.446D-02-0.317D-01 0.358D+00 0.678D+00
 Coeff:     -0.446D-02-0.317D-01 0.358D+00 0.678D+00
 Gap=     0.498 Goal=   None    Shift=    0.000
 RMSDP=3.66D-07 MaxDP=8.93D-06 DE=-9.14D-09 OVMax= 1.06D-05

 Cycle   5  Pass 1  IDiag  1:
 E= -476.716894908800     Delta-E=       -0.000000003204 Rises=F Damp=F
 DIIS: error= 5.77D-07 at cycle   5 NSaved=   5.
 NSaved= 5 IEnMin= 5 EnMin= -476.716894908800     IErMin= 5 ErrMin= 5.77D-07
 ErrMax= 5.77D-07  0.00D+00 EMaxC= 1.00D-01 BMatC= 9.95D-11 BMatP= 4.78D-09
 IDIUse=1 WtCom= 1.00D+00 WtEn= 0.00D+00
 Coeff-Com:  0.155D-02-0.307D-01 0.179D-01 0.141D+00 0.870D+00
 Coeff:      0.155D-02-0.307D-01 0.179D-01 0.141D+00 0.870D+00
 Gap=     0.498 Goal=   None    Shift=    0.000
 RMSDP=1.18D-07 MaxDP=3.02D-06 DE=-3.20D-09 OVMax= 4.02D-06

 Cycle   6  Pass 1  IDiag  1:
 E= -476.716894908923     Delta-E=       -0.000000000122 Rises=F Damp=F
 DIIS: error= 1.56D-07 at cycle   6 NSaved=   6.
 NSaved= 6 IEnMin= 6 EnMin= -476.716894908923     IErMin= 6 ErrMin= 1.56D-07
 ErrMax= 1.56D-07  0.00D+00 EMaxC= 1.00D-01 BMatC= 8.44D-12 BMatP= 9.95D-11
 IDIUse=1 WtCom= 1.00D+00 WtEn= 0.00D+00
 Coeff-Com:  0.627D-03-0.806D-02-0.101D-01 0.108D-01 0.264D+00 0.743D+00
 Coeff:      0.627D-03-0.806D-02-0.101D-01 0.108D-01 0.264D+00 0.743D+00
 Gap=     0.498 Goal=   None    Shift=    0.000
 RMSDP=2.76D-08 MaxDP=7.46D-07 DE=-1.22D-10 OVMax= 9.53D-07

 Cycle   7  Pass 1  IDiag  1:
 E= -476.716894908929     Delta-E=       -0.000000000006 Rises=F Damp=F
 DIIS: error= 3.48D-08 at cycle   7 NSaved=   7.
 NSaved= 7 IEnMin= 7 EnMin= -476.716894908929     IErMin= 7 ErrMin= 3.48D-08
 ErrMax= 3.48D-08  0.00D+00 EMaxC= 1.00D-01 BMatC= 5.15D-13 BMatP= 8.44D-12
 IDIUse=1 WtCom= 1.00D+00 WtEn= 0.00D+00
 Coeff-Com: -0.200D-04 0.144D-02-0.339D-02-0.113D-01-0.370D-01 0.132D+00
 Coeff-Com:  0.918D+00
 Coeff:     -0.200D-04 0.144D-02-0.339D-02-0.113D-01-0.370D-01 0.132D+00
 Coeff:      0.918D+00
 Gap=     0.498 Goal=   None    Shift=    0.000
 RMSDP=8.41D-09 MaxDP=1.38D-07 DE=-6.37D-12 OVMax= 3.70D-07

 SCF Done:  E(RwB97XD) =  -476.716894909     A.U. after    7 cycles
            NFock=  7  Conv=0.84D-08     -V/T= 2.0054
 KE= 4.741561419869D+02 PE=-1.674081332697D+03 EE= 4.518553285390D+02
 Leave Link  502 at Thu Apr  2 15:48:05 2026, MaxMem=  1073741824 cpu:              18.1 elap:               4.7
 (Enter /Users/yarger/Applications/g16/l701.exe)
 ... and contract with generalized density number  0.
 Compute integral first derivatives.
 R6Disp: Adding Grimme-D2 dispersion energy 1st derivatives to the gradient.
 Leave Link  701 at Thu Apr  2 15:48:05 2026, MaxMem=  1073741824 cpu:               0.3 elap:               0.1
 (Enter /Users/yarger/Applications/g16/l702.exe)
 L702 exits ... SP integral derivatives will be done elsewhere.
 Leave Link  702 at Thu Apr  2 15:48:05 2026, MaxMem=  1073741824 cpu:               0.1 elap:               0.0
 (Enter /Users/yarger/Applications/g16/l703.exe)
 Integral derivatives from FoFJK, PRISM(SPDF).
 Compute integral first derivatives, UseDBF=F ICtDFT=           0.
 Calling FoFJK, ICntrl=      2127 FMM=F ISym2X=1 I1Cent= 0 IOpClX= 0 NMat=1 NMatS=1 NMatT=0.
 FoFJK:  IHMeth= 1 ICntrl=    2127 DoSepK=T KAlg= 0 I1Cent=           0 FoldK=F
 IRaf=         1 NMat=       1 IRICut=       1 DoRegI=T DoRafI=F ISym2E= 1 IDoP0=0 IntGTp=1.
 FoFCou: FMM=F IPFlag=           0 FMFlag=      100000 FMFlg1=         800
         NFxFlg=           0 DoJE=F BraDBF=F KetDBF=F FulRan=T
         wScrn=  0.000000 ICntrl=      2527 IOpCl=  0 I1Cent=           0 NGrid=           0
         NMat0=    1 NMatS0=      1 NMatT0=    0 NMatD0=    1 NMtDS0=    0 NMtDT0=    0
 Petite list used in FoFCou.
 Leave Link  703 at Thu Apr  2 15:48:08 2026, MaxMem=  1073741824 cpu:              10.5 elap:               2.7
 (Enter /Users/yarger/Applications/g16/l716.exe)
 Dipole        = 5.41127085D-01 6.23321677D-01-3.10862447D-15
 ***** Axes restored to original set *****
 -------------------------------------------------------------------
 Center     Atomic                   Forces (Hartrees/Bohr)
 Number     Number              X              Y              Z
 -------------------------------------------------------------------
      1        6          -0.000077153    0.000046977    0.000040022
      2        1           0.000040090    0.000057102    0.000007301
      3        6           0.000029083   -0.000184167    0.000251383
      4        9          -0.000081244    0.000001041   -0.000056872
      5        9           0.000009779    0.000098610    0.000004077
      6        9           0.000094419    0.000035845   -0.000198388
      7        9           0.000026702   -0.000024865   -0.000000073
      8        1          -0.000041675   -0.000030543   -0.000047449
 -------------------------------------------------------------------
 Cartesian Forces:  Max     0.000251383 RMS     0.000088535
 Leave Link  716 at Thu Apr  2 15:48:08 2026, MaxMem=  1073741824 cpu:               0.1 elap:               0.0
 (Enter /Users/yarger/Applications/g16/l103.exe)

 GradGradGradGradGradGradGradGradGradGradGradGradGradGradGradGradGradGrad
 Berny optimization.
 Using GEDIIS/GDIIS optimizer.
 FormGI is forming the generalized inverse of G from B-inverse, IUseBI=4.
 Internal  Forces:  Max     0.000223359 RMS     0.000058335
 Search for a local minimum.
 Step number   5 out of a maximum of   38
 All quantities printed in internal units (Hartrees-Bohrs-Radians)
 RMS Force = .58335D-04 SwitMx=.10000D-02 MixMth= 2
 Mixed Optimization -- En-DIIS/RFO-DIIS
 Swapping is turned off.
 Update second derivatives using D2CorX and points    1    2    3    4    5
 DE= -3.23D-06 DEPred=-2.98D-06 R= 1.08D+00
 TightC=F SS=  1.41D+00  RLast= 5.92D-03 DXNew= 7.1715D-01 1.7764D-02
 Trust test= 1.08D+00 RLast= 5.92D-03 DXMaxT set to 4.26D-01
 ITU=  1  1  1  1  0
     Eigenvalues ---    0.00237   0.05438   0.05787   0.08017   0.08669
     Eigenvalues ---    0.16000   0.16908   0.22969   0.23984   0.25000
     Eigenvalues ---    0.28654   0.32642   0.37230   0.38072   0.40125
     Eigenvalues ---    0.55021   0.55078   0.57772
 En-DIIS/RFO-DIIS/Sim-DIIS IScMMF=       -3 using points:     5    4    3
 RFO step:  Lambda=-2.64666304D-07.
 NNeg= 0 NGDIIS= 3 SimSw=  2.50D-01 Rises=F DC= -3.23D-06 SmlDif=  1.00D-05
 NRisDI= 0 DoIntr=F SqrtH=F CThrHd= 10.0 CDAdj=  3.0
 RMS Error=  0.2056690517D-03 NUsed= 3 OKEnD=F EnDIS=F
 InvSVX:  RCond= 1.83D-06 Info=           0 Equed=N FErr=  1.96D-15 BErr=  6.25D-17
 DidBck=F Rises=F RFO-DIIS coefs:    1.08323   -0.07090   -0.01233
 Iteration  1 RMS(Cart)=  0.00021755 RMS(Int)=  0.00000011
 Iteration  2 RMS(Cart)=  0.00000004 RMS(Int)=  0.00000011
 ITry= 1 IFail=0 DXMaxC= 5.39D-04 DCOld= 1.00D+10 DXMaxT= 4.26D-01 DXLimC= 3.00D+00 Rises=F
 ClnCor:  largest displacement from symmetrization is 8.10D-11 for atom     5.
 Variable       Old X    -DE/DX   Delta X   Delta X   Delta X     New X
                                 (Linear)    (Quad)   (Total)
    R1        2.07321   0.00007  -0.00015   0.00024   0.00010   2.07331
    R2        2.87034   0.00007  -0.00002   0.00025   0.00023   2.87058
    R3        2.60152  -0.00000   0.00024  -0.00008   0.00016   2.60168
    R4        2.07321   0.00007  -0.00015   0.00024   0.00010   2.07331
    R5        2.53548  -0.00010  -0.00011  -0.00014  -0.00025   2.53523
    R6        2.53548  -0.00010  -0.00011  -0.00014  -0.00025   2.53523
    R7        2.54956   0.00022   0.00019   0.00036   0.00055   2.55011
    A1        1.90095  -0.00001   0.00006  -0.00003   0.00003   1.90098
    A2        1.90823   0.00003  -0.00008   0.00006  -0.00002   1.90820
    A3        1.93406   0.00002   0.00010   0.00025   0.00035   1.93441
    A4        1.91130  -0.00007  -0.00006  -0.00032  -0.00038   1.91092
    A5        1.90095  -0.00001   0.00006  -0.00003   0.00003   1.90098
    A6        1.90823   0.00003  -0.00008   0.00006  -0.00002   1.90820
    A7        1.95621  -0.00003   0.00012  -0.00017  -0.00005   1.95615
    A8        1.95621  -0.00003   0.00012  -0.00017  -0.00005   1.95615
    A9        1.90098   0.00004  -0.00013   0.00021   0.00008   1.90105
   A10        1.88034   0.00002   0.00002   0.00003   0.00005   1.88039
   A11        1.88373  -0.00000  -0.00007   0.00005  -0.00001   1.88371
   A12        1.88373  -0.00000  -0.00007   0.00005  -0.00001   1.88371
    D1        1.02754  -0.00001  -0.00019  -0.00004  -0.00023   1.02731
    D2       -3.13876  -0.00002  -0.00000  -0.00024  -0.00024  -3.13900
    D3       -1.05561  -0.00001  -0.00010  -0.00014  -0.00023  -1.05584
    D4       -1.05844   0.00000  -0.00010   0.00010   0.00000  -1.05844
    D5        1.05844  -0.00000   0.00010  -0.00010  -0.00000   1.05844
    D6        3.14159  -0.00000  -0.00000   0.00000   0.00000   3.14159
    D7        3.13876   0.00002   0.00000   0.00024   0.00024   3.13900
    D8       -1.02754   0.00001   0.00019   0.00004   0.00023  -1.02731
    D9        1.05561   0.00001   0.00010   0.00014   0.00023   1.05584
         Item               Value     Threshold  Converged?
 Maximum Force            0.000223     0.000015     NO 
 RMS     Force            0.000058     0.000010     NO 
 Maximum Displacement     0.000539     0.000060     NO 
 RMS     Displacement     0.000218     0.000040     NO 
 Predicted change in Energy=-1.322880D-07
 Lowest energy point so far.  Saving SCF results.
 GradGradGradGradGradGradGradGradGradGradGradGradGradGradGradGradGradGrad

 Leave Link  103 at Thu Apr  2 15:48:08 2026, MaxMem=  1073741824 cpu:               0.0 elap:               0.0
 (Enter /Users/yarger/Applications/g16/l202.exe)
                          Input orientation:                          
 ---------------------------------------------------------------------
 Center     Atomic      Atomic             Coordinates (Angstroms)
 Number     Number       Type             X           Y           Z
 ---------------------------------------------------------------------
      1          6           0       -1.501342    1.412096    1.454426
      2          1           0       -1.157743    2.454030    1.447420
      3          6           0       -0.323077    0.502891    1.150240
      4          9           0        0.670029    0.649603    2.040220
      5          9           0       -0.674650   -0.791765    1.139822
      6          9           0        0.163796    0.810968   -0.070042
      7          9           0       -2.007490    1.107460    2.697989
      8          1           0       -2.278704    1.252466    0.696824
 ---------------------------------------------------------------------
                    Distance matrix (angstroms):
                    1          2          3          4          5
     1  C    0.000000
     2  H    1.097149   0.000000
     3  C    1.519043   2.142878   0.000000
     4  F    2.374742   2.635928   1.341584   0.000000
     5  F    2.374742   3.295934   1.341584   2.167123   0.000000
     6  F    2.336245   2.597847   1.349461   2.176124   2.176124
     7  F    1.376749   2.024659   2.366068   2.794888   2.794888
     8  H    1.097149   1.806573   2.142878   3.295934   2.635928
                    6          7          8
     6  F    0.000000
     7  F    3.530493   0.000000
     8  H    2.597847   2.024659   0.000000
 Stoichiometry    C2H2F4
 Framework group  CS[SG(C2F2),X(H2F2)]
 Deg. of freedom    11
 Full point group                 CS      NOp   2
 RotChk:  IX=2 Diff= 3.76D-04
 Largest Abelian subgroup         CS      NOp   2
 Largest concise Abelian subgroup CS      NOp   2
                         Standard orientation:                         
 ---------------------------------------------------------------------
 Center     Atomic      Atomic             Coordinates (Angstroms)
 Number     Number       Type             X           Y           Z
 ---------------------------------------------------------------------
      1          6           0        1.158089    0.243867    0.000000
      2          1           0        1.495526    0.767266   -0.903286
      3          6           0       -0.360006    0.190201   -0.000000
      4          9           0       -0.842445   -0.436692   -1.083561
      5          9           0       -0.842445   -0.436692    1.083561
      6          9           0       -0.842445    1.450478   -0.000000
      7          9           0        1.662940   -1.036977    0.000000
      8          1           0        1.495526    0.767266    0.903286
 ---------------------------------------------------------------------
 Rotational constants (GHZ):           5.3061150           2.7735722           2.7326175
 Leave Link  202 at Thu Apr  2 15:48:08 2026, MaxMem=  1073741824 cpu:               0.0 elap:               0.0
 (Enter /Users/yarger/Applications/g16/l301.exe)
 Standard basis: Aug-CC-pVDZ (5D, 7F)
 Ernie: Thresh=  0.10000D-02 Tol=  0.10000D-05 Strict=F.
 Ernie:  12 primitive shells out of 164 were deleted.
 There are   106 symmetry adapted cartesian basis functions of A'  symmetry.
 There are    62 symmetry adapted cartesian basis functions of A"  symmetry.
 There are    96 symmetry adapted basis functions of A'  symmetry.
 There are    60 symmetry adapted basis functions of A"  symmetry.
   156 basis functions,   280 primitive gaussians,   168 cartesian basis functions
    25 alpha electrons       25 beta electrons
       nuclear repulsion energy       271.3526649617 Hartrees.
 IExCor= 4639 DFT=T Ex+Corr=wB97XD ExCW=0 ScaHFX=  1.000000
 ScaDFX=  1.000000  1.000000  1.000000  1.000000 ScalE2=  1.000000  1.000000
 IRadAn=      5 IRanWt=     -1 IRanGd=            0 ICorTp=0 IEmpDi=121
 HFx  wShort=  0.000000 wLong=  0.200000 cFull=  0.222036 cShort=  0.000000 cLong=  0.777964
 DFx  wShort=  0.000000 wLong=  0.200000 cFull=  0.000000 cShort=  0.000000 cLong=  1.000000
 NAtoms=    8 NActive=    8 NUniq=    6 SFac= 1.78D+00 NAtFMM=   60 NAOKFM=F Big=F
 Integral buffers will be    131072 words long.
 Raffenetti 2 integral format.
 Two-electron integral symmetry is turned on.
 R6Disp:  Grimme-D2 Dispersion energy=       -0.0021728577 Hartrees.
 Nuclear repulsion after empirical dispersion term =      271.3504921040 Hartrees.
 Leave Link  301 at Thu Apr  2 15:48:08 2026, MaxMem=  1073741824 cpu:               0.1 elap:               0.0
 (Enter /Users/yarger/Applications/g16/l302.exe)
 NPDir=0 NMtPBC=     1 NCelOv=     1 NCel=       1 NClECP=     1 NCelD=      1
         NCelK=      1 NCelE2=     1 NClLst=     1 CellRange=     0.0.
 One-electron integrals computed using PRISM.
 One-electron integral symmetry used in STVInt
 NBasis=   156 RedAO= T EigKep=  1.63D-04  NBF=    96    60
 NBsUse=   156 1.00D-06 EigRej= -1.00D+00 NBFU=    96    60
 Precomputing XC quadrature grid using
 IXCGrd= 4 IRadAn=           5 IRanWt=          -1 IRanGd=           0 AccXCQ= 0.00D+00.
 Generated NRdTot=       0 NPtTot=           0 NUsed=           0 NTot=          32
 NSgBfM=   168   168   168   168   168 MxSgAt=     8 MxSgA2=     8.
 Leave Link  302 at Thu Apr  2 15:48:08 2026, MaxMem=  1073741824 cpu:               0.5 elap:               0.1
 (Enter /Users/yarger/Applications/g16/l303.exe)
 DipDrv:  MaxL=1.
 Leave Link  303 at Thu Apr  2 15:48:08 2026, MaxMem=  1073741824 cpu:               0.1 elap:               0.0
 (Enter /Users/yarger/Applications/g16/l401.exe)
 Initial guess from the checkpoint file:  "1112Tetrafluoroethane_Opt_Freq_DFT_WB97XD_pVDZ_Gaussian16.chk"
 B after Tr=    -0.000000    0.000000    0.000000
         Rot=    1.000000    0.000000    0.000000    0.000123 Ang=   0.01 deg.
 Guess basis will be translated and rotated to current coordinates.
 JPrj=2 DoOrth=T DoCkMO=T.
 Initial guess orbital symmetries:
       Occupied  (A') (A") (A') (A') (A') (A') (A') (A') (A") (A')
                 (A') (A') (A") (A') (A') (A') (A") (A') (A") (A')
                 (A') (A") (A") (A") (A')
       Virtual   (A') (A") (A') (A') (A") (A') (A') (A') (A") (A')
                 (A") (A') (A') (A') (A") (A') (A") (A') (A') (A')
                 (A") (A') (A") (A') (A') (A") (A') (A") (A') (A')
                 (A") (A") (A') (A') (A') (A") (A") (A') (A') (A')
                 (A") (A') (A') (A") (A') (A') (A") (A') (A") (A')
                 (A') (A") (A') (A') (A") (A') (A") (A') (A") (A")
                 (A') (A") (A") (A') (A') (A') (A") (A') (A") (A')
                 (A") (A') (A") (A') (A') (A') (A") (A") (A') (A')
                 (A") (A') (A") (A') (A") (A') (A") (A') (A') (A")
                 (A') (A") (A') (A") (A') (A') (A') (A") (A') (A')
                 (A") (A') (A') (A") (A') (A') (A") (A') (A") (A')
                 (A') (A") (A') (A") (A') (A") (A') (A') (A") (A')
                 (A") (A') (A') (A") (A") (A') (A') (A") (A') (A')
                 (A")
 The electronic state of the initial guess is 1-A'.
 Leave Link  401 at Thu Apr  2 15:48:08 2026, MaxMem=  1073741824 cpu:               0.3 elap:               0.1
 (Enter /Users/yarger/Applications/g16/l502.exe)
 Keep R1 ints in memory in symmetry-blocked form, NReq=225262371.
 FoFCou: FMM=F IPFlag=           0 FMFlag=           0 FMFlg1=           0
         NFxFlg=           0 DoJE=F BraDBF=F KetDBF=F FulRan=T
         wScrn=  0.000000 ICntrl=       600 IOpCl=  0 I1Cent=           0 NGrid=           0
         NMat0=    1 NMatS0=  12246 NMatT0=    0 NMatD0=    1 NMtDS0=    0 NMtDT0=    0
 Petite list used in FoFCou.
 Closed shell SCF:
 Using DIIS extrapolation, IDIIS=  1040.
 NGot=  1073741824 LenX=  1036027171 LenY=  1035998506
 Requested convergence on RMS density matrix=1.00D-08 within 128 cycles.
 Requested convergence on MAX density matrix=1.00D-06.
 Requested convergence on             energy=1.00D-06.
 No special actions if energy rises.

 Cycle   1  Pass 1  IDiag  1:
 E= -476.716894898669    
 DIIS: error= 2.61D-05 at cycle   1 NSaved=   1.
 NSaved= 1 IEnMin= 1 EnMin= -476.716894898669     IErMin= 1 ErrMin= 2.61D-05
 ErrMax= 2.61D-05  0.00D+00 EMaxC= 1.00D-01 BMatC= 1.43D-07 BMatP= 1.43D-07
 IDIUse=1 WtCom= 1.00D+00 WtEn= 0.00D+00
 Coeff-Com:  0.100D+01
 Coeff:      0.100D+01
 Gap=     0.498 Goal=   None    Shift=    0.000
 RMSDP=4.42D-06 MaxDP=7.07D-05              OVMax= 7.96D-05

 Cycle   2  Pass 1  IDiag  1:
 E= -476.716895036742     Delta-E=       -0.000000138073 Rises=F Damp=F
 DIIS: error= 3.14D-06 at cycle   2 NSaved=   2.
 NSaved= 2 IEnMin= 2 EnMin= -476.716895036742     IErMin= 2 ErrMin= 3.14D-06
 ErrMax= 3.14D-06  0.00D+00 EMaxC= 1.00D-01 BMatC= 3.74D-09 BMatP= 1.43D-07
 IDIUse=1 WtCom= 1.00D+00 WtEn= 0.00D+00
 Coeff-Com: -0.661D-01 0.107D+01
 Coeff:     -0.661D-01 0.107D+01
 Gap=     0.498 Goal=   None    Shift=    0.000
 RMSDP=9.56D-07 MaxDP=1.95D-05 DE=-1.38D-07 OVMax= 2.35D-05

 Cycle   3  Pass 1  IDiag  1:
 E= -476.716895042610     Delta-E=       -0.000000005868 Rises=F Damp=F
 DIIS: error= 1.84D-06 at cycle   3 NSaved=   3.
 NSaved= 3 IEnMin= 3 EnMin= -476.716895042610     IErMin= 3 ErrMin= 1.84D-06
 ErrMax= 1.84D-06  0.00D+00 EMaxC= 1.00D-01 BMatC= 9.66D-10 BMatP= 3.74D-09
 IDIUse=1 WtCom= 1.00D+00 WtEn= 0.00D+00
 Coeff-Com: -0.415D-01 0.318D+00 0.723D+00
 Coeff:     -0.415D-01 0.318D+00 0.723D+00
 Gap=     0.498 Goal=   None    Shift=    0.000
 RMSDP=1.98D-07 MaxDP=4.63D-06 DE=-5.87D-09 OVMax= 5.47D-06

 Cycle   4  Pass 1  IDiag  1:
 E= -476.716895043233     Delta-E=       -0.000000000623 Rises=F Damp=F
 DIIS: error= 7.48D-07 at cycle   4 NSaved=   4.
 NSaved= 4 IEnMin= 4 EnMin= -476.716895043233     IErMin= 4 ErrMin= 7.48D-07
 ErrMax= 7.48D-07  0.00D+00 EMaxC= 1.00D-01 BMatC= 2.28D-10 BMatP= 9.66D-10
 IDIUse=1 WtCom= 1.00D+00 WtEn= 0.00D+00
 Coeff-Com: -0.574D-02-0.292D-01 0.316D+00 0.719D+00
 Coeff:     -0.574D-02-0.292D-01 0.316D+00 0.719D+00
 Gap=     0.498 Goal=   None    Shift=    0.000
 RMSDP=9.13D-08 MaxDP=1.76D-06 DE=-6.23D-10 OVMax= 3.44D-06

 Cycle   5  Pass 1  IDiag  1:
 E= -476.716895043402     Delta-E=       -0.000000000168 Rises=F Damp=F
 DIIS: error= 1.33D-07 at cycle   5 NSaved=   5.
 NSaved= 5 IEnMin= 5 EnMin= -476.716895043402     IErMin= 5 ErrMin= 1.33D-07
 ErrMax= 1.33D-07  0.00D+00 EMaxC= 1.00D-01 BMatC= 6.32D-12 BMatP= 2.28D-10
 IDIUse=1 WtCom= 1.00D+00 WtEn= 0.00D+00
 Coeff-Com:  0.157D-02-0.315D-01 0.192D-01 0.167D+00 0.843D+00
 Coeff:      0.157D-02-0.315D-01 0.192D-01 0.167D+00 0.843D+00
 Gap=     0.498 Goal=   None    Shift=    0.000
 RMSDP=2.55D-08 MaxDP=5.13D-07 DE=-1.68D-10 OVMax= 6.33D-07

 Cycle   6  Pass 1  IDiag  1:
 E= -476.716895043397     Delta-E=        0.000000000004 Rises=F Damp=F
 DIIS: error= 4.02D-08 at cycle   6 NSaved=   6.
 NSaved= 6 IEnMin= 5 EnMin= -476.716895043402     IErMin= 6 ErrMin= 4.02D-08
 ErrMax= 4.02D-08  0.00D+00 EMaxC= 1.00D-01 BMatC= 6.06D-13 BMatP= 6.32D-12
 IDIUse=1 WtCom= 1.00D+00 WtEn= 0.00D+00
 Coeff-Com:  0.874D-03-0.991D-02-0.909D-02 0.241D-01 0.285D+00 0.709D+00
 Coeff:      0.874D-03-0.991D-02-0.909D-02 0.241D-01 0.285D+00 0.709D+00
 Gap=     0.498 Goal=   None    Shift=    0.000
 RMSDP=5.23D-09 MaxDP=1.20D-07 DE= 4.21D-12 OVMax= 2.29D-07

 SCF Done:  E(RwB97XD) =  -476.716895043     A.U. after    6 cycles
            NFock=  6  Conv=0.52D-08     -V/T= 2.0054
 KE= 4.741556082882D+02 PE=-1.674076286976D+03 EE= 4.518532915405D+02
 Leave Link  502 at Thu Apr  2 15:48:13 2026, MaxMem=  1073741824 cpu:              16.7 elap:               4.3
 (Enter /Users/yarger/Applications/g16/l701.exe)
 ... and contract with generalized density number  0.
 Compute integral first derivatives.
 R6Disp: Adding Grimme-D2 dispersion energy 1st derivatives to the gradient.
 Leave Link  701 at Thu Apr  2 15:48:13 2026, MaxMem=  1073741824 cpu:               0.5 elap:               0.3
 (Enter /Users/yarger/Applications/g16/l702.exe)
 L702 exits ... SP integral derivatives will be done elsewhere.
 Leave Link  702 at Thu Apr  2 15:48:13 2026, MaxMem=  1073741824 cpu:               0.1 elap:               0.0
 (Enter /Users/yarger/Applications/g16/l703.exe)
 Integral derivatives from FoFJK, PRISM(SPDF).
 Compute integral first derivatives, UseDBF=F ICtDFT=           0.
 Calling FoFJK, ICntrl=      2127 FMM=F ISym2X=1 I1Cent= 0 IOpClX= 0 NMat=1 NMatS=1 NMatT=0.
 FoFJK:  IHMeth= 1 ICntrl=    2127 DoSepK=T KAlg= 0 I1Cent=           0 FoldK=F
 IRaf=         1 NMat=       1 IRICut=       1 DoRegI=T DoRafI=F ISym2E= 1 IDoP0=0 IntGTp=1.
 FoFCou: FMM=F IPFlag=           0 FMFlag=      100000 FMFlg1=         800
         NFxFlg=           0 DoJE=F BraDBF=F KetDBF=F FulRan=T
         wScrn=  0.000000 ICntrl=      2527 IOpCl=  0 I1Cent=           0 NGrid=           0
         NMat0=    1 NMatS0=      1 NMatT0=    0 NMatD0=    1 NMtDS0=    0 NMtDT0=    0
 Petite list used in FoFCou.
 Leave Link  703 at Thu Apr  2 15:48:16 2026, MaxMem=  1073741824 cpu:              10.6 elap:               2.8
 (Enter /Users/yarger/Applications/g16/l716.exe)
 Dipole        = 5.41389635D-01 6.22632078D-01 1.55431223D-15
 ***** Axes restored to original set *****
 -------------------------------------------------------------------
 Center     Atomic                   Forces (Hartrees/Bohr)
 Number     Number              X              Y              Z
 -------------------------------------------------------------------
      1        6          -0.000029748   -0.000005998    0.000054028
      2        1           0.000012634    0.000022252   -0.000006314
      3        6           0.000009074   -0.000055212    0.000074833
      4        9          -0.000014821    0.000015710   -0.000017150
      5        9          -0.000007532    0.000023523   -0.000012270
      6        9           0.000018070    0.000001793   -0.000029855
      7        9           0.000024530    0.000002307   -0.000040326
      8        1          -0.000012205   -0.000004374   -0.000022946
 -------------------------------------------------------------------
 Cartesian Forces:  Max     0.000074833 RMS     0.000028089
 Leave Link  716 at Thu Apr  2 15:48:16 2026, MaxMem=  1073741824 cpu:               0.1 elap:               0.0
 (Enter /Users/yarger/Applications/g16/l103.exe)

 GradGradGradGradGradGradGradGradGradGradGradGradGradGradGradGradGradGrad
 Berny optimization.
 Using GEDIIS/GDIIS optimizer.
 FormGI is forming the generalized inverse of G from B-inverse, IUseBI=4.
 Internal  Forces:  Max     0.000044036 RMS     0.000016449
 Search for a local minimum.
 Step number   6 out of a maximum of   38
 All quantities printed in internal units (Hartrees-Bohrs-Radians)
 RMS Force = .16449D-04 SwitMx=.10000D-02 MixMth= 2
 Mixed Optimization -- En-DIIS/RFO-DIIS
 Swapping is turned off.
 Update second derivatives using D2CorX and points    1    2    3    4    5
                                                      6
 DE= -1.34D-07 DEPred=-1.32D-07 R= 1.02D+00
 Trust test= 1.02D+00 RLast= 1.07D-03 DXMaxT set to 4.26D-01
 ITU=  0  1  1  1  1  0
     Eigenvalues ---    0.00237   0.05314   0.05790   0.08138   0.08668
     Eigenvalues ---    0.16000   0.16836   0.21202   0.23714   0.25000
     Eigenvalues ---    0.28823   0.34463   0.37110   0.37230   0.39296
     Eigenvalues ---    0.51290   0.55021   0.57765
 En-DIIS/RFO-DIIS/Sim-DIIS IScMMF=       -3 using points:     6    5    4    3
 RFO step:  Lambda=-2.32184844D-08.
 NNeg= 0 NGDIIS= 4 SimSw=  2.50D-01 Rises=F DC= -1.34D-07 SmlDif=  1.00D-05
 NRisDI= 0 DoIntr=F SqrtH=F CThrHd= 10.0 CDAdj=  3.0
 RMS Error=  0.8095361826D-04 NUsed= 4 OKEnD=F EnDIS=F
 InvSVX:  RCond= 8.35D-08 Info=           0 Equed=N FErr=  3.63D-15 BErr=  4.04D-17
 DIIS inversion failure, remove point   4.
 InvSVX:  RCond= 1.12D-07 Info=           0 Equed=N FErr=  2.59D-15 BErr=  6.74D-17
 RFO-DIIS uses    3 points instead of    4
 DidBck=F Rises=F RFO-DIIS coefs:    1.13267   -0.10705   -0.02562    0.00000
 Iteration  1 RMS(Cart)=  0.00007310 RMS(Int)=  0.00000002
 Iteration  2 RMS(Cart)=  0.00000000 RMS(Int)=  0.00000001
 ITry= 1 IFail=0 DXMaxC= 1.69D-04 DCOld= 1.00D+10 DXMaxT= 4.26D-01 DXLimC= 3.00D+00 Rises=F
 ClnCor:  largest displacement from symmetrization is 5.35D-09 for atom     5.
 Variable       Old X    -DE/DX   Delta X   Delta X   Delta X     New X
                                 (Linear)    (Quad)   (Total)
    R1        2.07331   0.00002  -0.00002   0.00008   0.00006   2.07337
    R2        2.87058   0.00001   0.00002   0.00005   0.00007   2.87064
    R3        2.60168  -0.00004   0.00008  -0.00015  -0.00007   2.60161
    R4        2.07331   0.00002  -0.00002   0.00008   0.00006   2.07337
    R5        2.53523  -0.00002  -0.00006  -0.00000  -0.00007   2.53516
    R6        2.53523  -0.00002  -0.00006  -0.00000  -0.00007   2.53516
    R7        2.55011   0.00004   0.00012   0.00000   0.00012   2.55023
    A1        1.90098  -0.00000   0.00001  -0.00001  -0.00000   1.90098
    A2        1.90820   0.00001  -0.00001   0.00006   0.00005   1.90825
    A3        1.93441   0.00000   0.00008  -0.00003   0.00005   1.93446
    A4        1.91092  -0.00003  -0.00008  -0.00007  -0.00015   1.91077
    A5        1.90098  -0.00000   0.00001  -0.00001  -0.00000   1.90098
    A6        1.90820   0.00001  -0.00001   0.00006   0.00005   1.90825
    A7        1.95615  -0.00001   0.00002  -0.00004  -0.00002   1.95613
    A8        1.95615  -0.00001   0.00002  -0.00004  -0.00002   1.95613
    A9        1.90105   0.00001  -0.00003   0.00003   0.00000   1.90106
   A10        1.88039   0.00002   0.00002   0.00015   0.00017   1.88056
   A11        1.88371  -0.00000  -0.00002  -0.00005  -0.00007   1.88365
   A12        1.88371  -0.00000  -0.00002  -0.00005  -0.00007   1.88365
    D1        1.02731  -0.00001  -0.00008  -0.00005  -0.00013   1.02718
    D2       -3.13900   0.00001  -0.00003   0.00009   0.00007  -3.13893
    D3       -1.05584  -0.00000  -0.00005   0.00002  -0.00003  -1.05587
    D4       -1.05844  -0.00001  -0.00003  -0.00007  -0.00010  -1.05853
    D5        1.05844   0.00001   0.00003   0.00007   0.00010   1.05853
    D6        3.14159  -0.00000   0.00000   0.00000   0.00000  -3.14159
    D7        3.13900  -0.00001   0.00003  -0.00009  -0.00007   3.13893
    D8       -1.02731   0.00001   0.00008   0.00005   0.00013  -1.02718
    D9        1.05584   0.00000   0.00005  -0.00002   0.00003   1.05587
         Item               Value     Threshold  Converged?
 Maximum Force            0.000044     0.000015     NO 
 RMS     Force            0.000016     0.000010     NO 
 Maximum Displacement     0.000169     0.000060     NO 
 RMS     Displacement     0.000073     0.000040     NO 
 Predicted change in Energy=-1.463953D-08
 Lowest energy point so far.  Saving SCF results.
 GradGradGradGradGradGradGradGradGradGradGradGradGradGradGradGradGradGrad

 Leave Link  103 at Thu Apr  2 15:48:16 2026, MaxMem=  1073741824 cpu:               0.0 elap:               0.0
 (Enter /Users/yarger/Applications/g16/l202.exe)
                          Input orientation:                          
 ---------------------------------------------------------------------
 Center     Atomic      Atomic             Coordinates (Angstroms)
 Number     Number       Type             X           Y           Z
 ---------------------------------------------------------------------
      1          6           0       -1.501367    1.412119    1.454428
      2          1           0       -1.157732    2.454075    1.447434
      3          6           0       -0.323082    0.502863    1.150294
      4          9           0        0.670010    0.649679    2.040218
      5          9           0       -0.674716   -0.791739    1.139789
      6          9           0        0.163855    0.810912   -0.070041
      7          9           0       -2.007400    1.107386    2.697972
      8          1           0       -2.278746    1.252455    0.696803
 ---------------------------------------------------------------------
                    Distance matrix (angstroms):
                    1          2          3          4          5
     1  C    0.000000
     2  H    1.097182   0.000000
     3  C    1.519078   2.142933   0.000000
     4  F    2.374729   2.635883   1.341548   0.000000
     5  F    2.374729   3.295946   1.341548   2.167198   0.000000
     6  F    2.336326   2.597943   1.349525   2.176093   2.176093
     7  F    1.376711   2.024686   2.365943   2.794756   2.794756
     8  H    1.097182   1.806658   2.142933   3.295946   2.635883
                    6          7          8
     6  F    0.000000
     7  F    3.530460   0.000000
     8  H    2.597943   2.024686   0.000000
 Stoichiometry    C2H2F4
 Framework group  CS[SG(C2F2),X(H2F2)]
 Deg. of freedom    11
 Full point group                 CS      NOp   2
 RotChk:  IX=2 Diff= 1.03D-04
 Largest Abelian subgroup         CS      NOp   2
 Largest concise Abelian subgroup CS      NOp   2
                         Standard orientation:                         
 ---------------------------------------------------------------------
 Center     Atomic      Atomic             Coordinates (Angstroms)
 Number     Number       Type             X           Y           Z
 ---------------------------------------------------------------------
      1          6           0        1.158149    0.243789    0.000000
      2          1           0        1.495612    0.767166   -0.903329
      3          6           0       -0.359983    0.190166   -0.000000
      4          9           0       -0.842409   -0.436596   -1.083599
      5          9           0       -0.842409   -0.436596    1.083599
      6          9           0       -0.842409    1.450517   -0.000000
      7          9           0        1.662757   -1.037110    0.000000
      8          1           0        1.495612    0.767166    0.903329
 ---------------------------------------------------------------------
 Rotational constants (GHZ):           5.3061974           2.7735992           2.7327611
 Leave Link  202 at Thu Apr  2 15:48:16 2026, MaxMem=  1073741824 cpu:               0.0 elap:               0.0
 (Enter /Users/yarger/Applications/g16/l301.exe)
 Standard basis: Aug-CC-pVDZ (5D, 7F)
 Ernie: Thresh=  0.10000D-02 Tol=  0.10000D-05 Strict=F.
 Ernie:  12 primitive shells out of 164 were deleted.
 There are   106 symmetry adapted cartesian basis functions of A'  symmetry.
 There are    62 symmetry adapted cartesian basis functions of A"  symmetry.
 There are    96 symmetry adapted basis functions of A'  symmetry.
 There are    60 symmetry adapted basis functions of A"  symmetry.
   156 basis functions,   280 primitive gaussians,   168 cartesian basis functions
    25 alpha electrons       25 beta electrons
       nuclear repulsion energy       271.3544300433 Hartrees.
 IExCor= 4639 DFT=T Ex+Corr=wB97XD ExCW=0 ScaHFX=  1.000000
 ScaDFX=  1.000000  1.000000  1.000000  1.000000 ScalE2=  1.000000  1.000000
 IRadAn=      5 IRanWt=     -1 IRanGd=            0 ICorTp=0 IEmpDi=121
 HFx  wShort=  0.000000 wLong=  0.200000 cFull=  0.222036 cShort=  0.000000 cLong=  0.777964
 DFx  wShort=  0.000000 wLong=  0.200000 cFull=  0.000000 cShort=  0.000000 cLong=  1.000000
 NAtoms=    8 NActive=    8 NUniq=    6 SFac= 1.78D+00 NAtFMM=   60 NAOKFM=F Big=F
 Integral buffers will be    131072 words long.
 Raffenetti 2 integral format.
 Two-electron integral symmetry is turned on.
 R6Disp:  Grimme-D2 Dispersion energy=       -0.0021728642 Hartrees.
 Nuclear repulsion after empirical dispersion term =      271.3522571791 Hartrees.
 Leave Link  301 at Thu Apr  2 15:48:16 2026, MaxMem=  1073741824 cpu:               0.1 elap:               0.1
 (Enter /Users/yarger/Applications/g16/l302.exe)
 NPDir=0 NMtPBC=     1 NCelOv=     1 NCel=       1 NClECP=     1 NCelD=      1
         NCelK=      1 NCelE2=     1 NClLst=     1 CellRange=     0.0.
 One-electron integrals computed using PRISM.
 One-electron integral symmetry used in STVInt
 NBasis=   156 RedAO= T EigKep=  1.63D-04  NBF=    96    60
 NBsUse=   156 1.00D-06 EigRej= -1.00D+00 NBFU=    96    60
 Precomputing XC quadrature grid using
 IXCGrd= 4 IRadAn=           5 IRanWt=          -1 IRanGd=           0 AccXCQ= 0.00D+00.
 Generated NRdTot=       0 NPtTot=           0 NUsed=           0 NTot=          32
 NSgBfM=   168   168   168   168   168 MxSgAt=     8 MxSgA2=     8.
 Leave Link  302 at Thu Apr  2 15:48:16 2026, MaxMem=  1073741824 cpu:               0.5 elap:               0.2
 (Enter /Users/yarger/Applications/g16/l303.exe)
 DipDrv:  MaxL=1.
 Leave Link  303 at Thu Apr  2 15:48:16 2026, MaxMem=  1073741824 cpu:               0.1 elap:               0.0
 (Enter /Users/yarger/Applications/g16/l401.exe)
 Initial guess from the checkpoint file:  "1112Tetrafluoroethane_Opt_Freq_DFT_WB97XD_pVDZ_Gaussian16.chk"
 B after Tr=     0.000000    0.000000    0.000000
         Rot=    1.000000   -0.000000    0.000000    0.000036 Ang=   0.00 deg.
 Guess basis will be translated and rotated to current coordinates.
 JPrj=2 DoOrth=T DoCkMO=T.
 Initial guess orbital symmetries:
       Occupied  (A') (A") (A') (A') (A') (A') (A') (A') (A") (A')
                 (A') (A') (A") (A') (A') (A') (A") (A') (A") (A')
                 (A') (A") (A") (A") (A')
       Virtual   (A') (A") (A') (A') (A") (A') (A') (A') (A") (A')
                 (A") (A') (A') (A') (A") (A') (A") (A') (A') (A')
                 (A") (A') (A") (A') (A') (A") (A') (A") (A') (A')
                 (A") (A") (A') (A') (A') (A") (A") (A') (A') (A')
                 (A") (A') (A') (A") (A') (A') (A") (A') (A") (A')
                 (A') (A") (A') (A') (A") (A') (A") (A') (A") (A")
                 (A') (A") (A") (A') (A') (A') (A") (A') (A") (A')
                 (A") (A') (A") (A') (A') (A') (A") (A") (A') (A')
                 (A") (A') (A") (A') (A") (A') (A") (A') (A') (A")
                 (A') (A") (A') (A") (A') (A') (A') (A") (A') (A')
                 (A") (A') (A') (A") (A') (A') (A") (A') (A") (A')
                 (A') (A") (A') (A") (A') (A") (A') (A') (A") (A')
                 (A") (A') (A') (A") (A") (A') (A') (A") (A') (A')
                 (A")
 The electronic state of the initial guess is 1-A'.
 Leave Link  401 at Thu Apr  2 15:48:17 2026, MaxMem=  1073741824 cpu:               0.3 elap:               0.1
 (Enter /Users/yarger/Applications/g16/l502.exe)
 Keep R1 ints in memory in symmetry-blocked form, NReq=225262371.
 FoFCou: FMM=F IPFlag=           0 FMFlag=           0 FMFlg1=           0
         NFxFlg=           0 DoJE=F BraDBF=F KetDBF=F FulRan=T
         wScrn=  0.000000 ICntrl=       600 IOpCl=  0 I1Cent=           0 NGrid=           0
         NMat0=    1 NMatS0=  12246 NMatT0=    0 NMatD0=    1 NMtDS0=    0 NMtDT0=    0
 Petite list used in FoFCou.
 Closed shell SCF:
 Using DIIS extrapolation, IDIIS=  1040.
 NGot=  1073741824 LenX=  1036027171 LenY=  1035998506
 Requested convergence on RMS density matrix=1.00D-08 within 128 cycles.
 Requested convergence on MAX density matrix=1.00D-06.
 Requested convergence on             energy=1.00D-06.
 No special actions if energy rises.

 Cycle   1  Pass 1  IDiag  1:
 E= -476.716895034856    
 DIIS: error= 6.64D-06 at cycle   1 NSaved=   1.
 NSaved= 1 IEnMin= 1 EnMin= -476.716895034856     IErMin= 1 ErrMin= 6.64D-06
 ErrMax= 6.64D-06  0.00D+00 EMaxC= 1.00D-01 BMatC= 1.83D-08 BMatP= 1.83D-08
 IDIUse=1 WtCom= 1.00D+00 WtEn= 0.00D+00
 Coeff-Com:  0.100D+01
 Coeff:      0.100D+01
 Gap=     0.498 Goal=   None    Shift=    0.000
 RMSDP=1.51D-06 MaxDP=2.71D-05              OVMax= 3.39D-05

 Cycle   2  Pass 1  IDiag  1:
 E= -476.716895051574     Delta-E=       -0.000000016719 Rises=F Damp=F
 DIIS: error= 1.31D-06 at cycle   2 NSaved=   2.
 NSaved= 2 IEnMin= 2 EnMin= -476.716895051574     IErMin= 2 ErrMin= 1.31D-06
 ErrMax= 1.31D-06  0.00D+00 EMaxC= 1.00D-01 BMatC= 5.14D-10 BMatP= 1.83D-08
 IDIUse=1 WtCom= 1.00D+00 WtEn= 0.00D+00
 Coeff-Com: -0.696D-01 0.107D+01
 Coeff:     -0.696D-01 0.107D+01
 Gap=     0.498 Goal=   None    Shift=    0.000
 RMSDP=3.16D-07 MaxDP=5.83D-06 DE=-1.67D-08 OVMax= 9.24D-06

 Cycle   3  Pass 1  IDiag  1:
 E= -476.716895052325     Delta-E=       -0.000000000751 Rises=F Damp=F
 DIIS: error= 7.39D-07 at cycle   3 NSaved=   3.
 NSaved= 3 IEnMin= 3 EnMin= -476.716895052325     IErMin= 3 ErrMin= 7.39D-07
 ErrMax= 7.39D-07  0.00D+00 EMaxC= 1.00D-01 BMatC= 1.88D-10 BMatP= 5.14D-10
 IDIUse=1 WtCom= 1.00D+00 WtEn= 0.00D+00
 Coeff-Com: -0.453D-01 0.388D+00 0.657D+00
 Coeff:     -0.453D-01 0.388D+00 0.657D+00
 Gap=     0.498 Goal=   None    Shift=    0.000
 RMSDP=7.66D-08 MaxDP=2.24D-06 DE=-7.51D-10 OVMax= 2.70D-06

 Cycle   4  Pass 1  IDiag  1:
 E= -476.716895052434     Delta-E=       -0.000000000109 Rises=F Damp=F
 DIIS: error= 2.65D-07 at cycle   4 NSaved=   4.
 NSaved= 4 IEnMin= 4 EnMin= -476.716895052434     IErMin= 4 ErrMin= 2.65D-07
 ErrMax= 2.65D-07  0.00D+00 EMaxC= 1.00D-01 BMatC= 3.26D-11 BMatP= 1.88D-10
 IDIUse=1 WtCom= 1.00D+00 WtEn= 0.00D+00
 Coeff-Com: -0.172D-02-0.680D-01 0.267D+00 0.802D+00
 Coeff:     -0.172D-02-0.680D-01 0.267D+00 0.802D+00
 Gap=     0.498 Goal=   None    Shift=    0.000
 RMSDP=3.68D-08 MaxDP=8.21D-07 DE=-1.09D-10 OVMax= 1.20D-06

 Cycle   5  Pass 1  IDiag  1:
 E= -476.716895052460     Delta-E=       -0.000000000025 Rises=F Damp=F
 DIIS: error= 4.27D-08 at cycle   5 NSaved=   5.
 NSaved= 5 IEnMin= 5 EnMin= -476.716895052460     IErMin= 5 ErrMin= 4.27D-08
 ErrMax= 4.27D-08  0.00D+00 EMaxC= 1.00D-01 BMatC= 5.59D-13 BMatP= 3.26D-11
 IDIUse=1 WtCom= 1.00D+00 WtEn= 0.00D+00
 Coeff-Com:  0.174D-02-0.350D-01 0.160D-01 0.156D+00 0.861D+00
 Coeff:      0.174D-02-0.350D-01 0.160D-01 0.156D+00 0.861D+00
 Gap=     0.498 Goal=   None    Shift=    0.000
 RMSDP=8.25D-09 MaxDP=1.83D-07 DE=-2.55D-11 OVMax= 2.13D-07

 SCF Done:  E(RwB97XD) =  -476.716895052     A.U. after    5 cycles
            NFock=  5  Conv=0.82D-08     -V/T= 2.0054
 KE= 4.741555812146D+02 PE=-1.674079830827D+03 EE= 4.518550973810D+02
 Leave Link  502 at Thu Apr  2 15:48:21 2026, MaxMem=  1073741824 cpu:              15.9 elap:               4.3
 (Enter /Users/yarger/Applications/g16/l701.exe)
 ... and contract with generalized density number  0.
 Compute integral first derivatives.
 R6Disp: Adding Grimme-D2 dispersion energy 1st derivatives to the gradient.
 Leave Link  701 at Thu Apr  2 15:48:21 2026, MaxMem=  1073741824 cpu:               0.4 elap:               0.1
 (Enter /Users/yarger/Applications/g16/l702.exe)
 L702 exits ... SP integral derivatives will be done elsewhere.
 Leave Link  702 at Thu Apr  2 15:48:21 2026, MaxMem=  1073741824 cpu:               0.1 elap:               0.0
 (Enter /Users/yarger/Applications/g16/l703.exe)
 Integral derivatives from FoFJK, PRISM(SPDF).
 Compute integral first derivatives, UseDBF=F ICtDFT=           0.
 Calling FoFJK, ICntrl=      2127 FMM=F ISym2X=1 I1Cent= 0 IOpClX= 0 NMat=1 NMatS=1 NMatT=0.
 FoFJK:  IHMeth= 1 ICntrl=    2127 DoSepK=T KAlg= 0 I1Cent=           0 FoldK=F
 IRaf=         1 NMat=       1 IRICut=       1 DoRegI=T DoRafI=F ISym2E= 1 IDoP0=0 IntGTp=1.
 FoFCou: FMM=F IPFlag=           0 FMFlag=      100000 FMFlg1=         800
         NFxFlg=           0 DoJE=F BraDBF=F KetDBF=F FulRan=T
         wScrn=  0.000000 ICntrl=      2527 IOpCl=  0 I1Cent=           0 NGrid=           0
         NMat0=    1 NMatS0=      1 NMatT0=    0 NMatD0=    1 NMtDS0=    0 NMtDT0=    0
 Petite list used in FoFCou.
 Leave Link  703 at Thu Apr  2 15:48:24 2026, MaxMem=  1073741824 cpu:              10.6 elap:               2.7
 (Enter /Users/yarger/Applications/g16/l716.exe)
 Dipole        = 5.41502137D-01 6.22290945D-01 0.00000000D+00
 ***** Axes restored to original set *****
 -------------------------------------------------------------------
 Center     Atomic                   Forces (Hartrees/Bohr)
 Number     Number              X              Y              Z
 -------------------------------------------------------------------
      1        6          -0.000002592   -0.000011316    0.000021986
      2        1           0.000002461    0.000002452   -0.000006557
      3        6          -0.000000207   -0.000000908    0.000001762
      4        9          -0.000007901   -0.000003936    0.000002313
      5        9           0.000000239    0.000004789    0.000007764
      6        9           0.000004071   -0.000000168   -0.000005812
      7        9           0.000002006    0.000007211   -0.000014539
      8        1           0.000001923    0.000001876   -0.000006917
 -------------------------------------------------------------------
 Cartesian Forces:  Max     0.000021986 RMS     0.000007120
 Leave Link  716 at Thu Apr  2 15:48:24 2026, MaxMem=  1073741824 cpu:               0.1 elap:               0.0
 (Enter /Users/yarger/Applications/g16/l103.exe)

 GradGradGradGradGradGradGradGradGradGradGradGradGradGradGradGradGradGrad
 Berny optimization.
 Using GEDIIS/GDIIS optimizer.
 FormGI is forming the generalized inverse of G from B-inverse, IUseBI=4.
 Internal  Forces:  Max     0.000013545 RMS     0.000004033
 Search for a local minimum.
 Step number   7 out of a maximum of   38
 All quantities printed in internal units (Hartrees-Bohrs-Radians)
 RMS Force = .40333D-05 SwitMx=.10000D-02 MixMth= 2
 Mixed Optimization -- En-DIIS/RFO-DIIS
 Swapping is turned off.
 Update second derivatives using D2CorX and points    1    2    3    4    5
                                                      6    7
 DE= -9.06D-09 DEPred=-1.46D-08 R= 6.19D-01
 Trust test= 6.19D-01 RLast= 4.11D-04 DXMaxT set to 4.26D-01
 ITU=  0  0  1  1  1  1  0
     Eigenvalues ---    0.00237   0.05725   0.05791   0.08669   0.09260
     Eigenvalues ---    0.16000   0.16766   0.22036   0.23260   0.25000
     Eigenvalues ---    0.28885   0.31656   0.35609   0.37230   0.38606
     Eigenvalues ---    0.47652   0.55021   0.57756
 En-DIIS/RFO-DIIS/Sim-DIIS IScMMF=       -3 using points:     7    6    5    4    3
 RFO step:  Lambda=-1.41736101D-09.
 NNeg= 0 NGDIIS= 5 SimSw=  2.50D-01 Rises=F DC= -9.06D-09 SmlDif=  1.00D-05
 NRisDI= 0 DoIntr=F SqrtH=F CThrHd= 10.0 CDAdj=  3.0
 RMS Error=  0.2456434223D-04 NUsed= 5 OKEnD=F EnDIS=F
 InvSVX:  RCond= 6.37D-09 Info=           0 Equed=N FErr=  4.57D-15 BErr=  7.03D-17
 DIIS inversion failure, remove point   5.
 InvSVX:  RCond= 1.04D-08 Info=           0 Equed=N FErr=  2.29D-15 BErr=  1.05D-16
 DIIS inversion failure, remove point   4.
 InvSVX:  RCond= 2.71D-08 Info=           0 Equed=N FErr=  1.56D-15 BErr=  5.51D-17
 DIIS inversion failure, remove point   3.
 InvSVX:  RCond= 1.90D-07 Info=           0 Equed=N FErr=  1.13D-15 BErr=  9.56D-17
 RFO-DIIS uses    2 points instead of    5
 DidBck=F Rises=F RFO-DIIS coefs:    0.88101    0.11899    0.00000    0.00000    0.00000
 Iteration  1 RMS(Cart)=  0.00001625 RMS(Int)=  0.00000000
 Iteration  2 RMS(Cart)=  0.00000000 RMS(Int)=  0.00000000
 ITry= 1 IFail=0 DXMaxC= 3.42D-05 DCOld= 1.00D+10 DXMaxT= 4.26D-01 DXLimC= 3.00D+00 Rises=F
 ClnCor:  largest displacement from symmetrization is 5.35D-09 for atom     5.
 Variable       Old X    -DE/DX   Delta X   Delta X   Delta X     New X
                                 (Linear)    (Quad)   (Total)
    R1        2.07337   0.00000  -0.00001   0.00002   0.00001   2.07338
    R2        2.87064  -0.00000  -0.00001  -0.00000  -0.00001   2.87063
    R3        2.60161  -0.00001   0.00001  -0.00004  -0.00004   2.60157
    R4        2.07337   0.00000  -0.00001   0.00002   0.00001   2.07338
    R5        2.53516  -0.00001   0.00001  -0.00002  -0.00001   2.53515
    R6        2.53516  -0.00001   0.00001  -0.00002  -0.00001   2.53515
    R7        2.55023   0.00001  -0.00001   0.00003   0.00001   2.55025
    A1        1.90098  -0.00000   0.00000  -0.00002  -0.00002   1.90096
    A2        1.90825   0.00000  -0.00001   0.00003   0.00003   1.90828
    A3        1.93446  -0.00000  -0.00001  -0.00003  -0.00003   1.93443
    A4        1.91077   0.00000   0.00002   0.00000   0.00002   1.91079
    A5        1.90098  -0.00000   0.00000  -0.00002  -0.00002   1.90096
    A6        1.90825   0.00000  -0.00001   0.00003   0.00003   1.90828
    A7        1.95613  -0.00000   0.00000  -0.00001  -0.00001   1.95612
    A8        1.95613  -0.00000   0.00000  -0.00001  -0.00001   1.95612
    A9        1.90106  -0.00000  -0.00000   0.00001   0.00001   1.90107
   A10        1.88056  -0.00000  -0.00002  -0.00000  -0.00002   1.88054
   A11        1.88365   0.00000   0.00001   0.00001   0.00002   1.88366
   A12        1.88365   0.00000   0.00001   0.00001   0.00002   1.88366
    D1        1.02718   0.00000   0.00001   0.00004   0.00006   1.02724
    D2       -3.13893  -0.00000  -0.00001   0.00002   0.00001  -3.13892
    D3       -1.05587   0.00000   0.00000   0.00003   0.00003  -1.05584
    D4       -1.05853   0.00000   0.00001   0.00001   0.00002  -1.05851
    D5        1.05853  -0.00000  -0.00001  -0.00001  -0.00002   1.05851
    D6        3.14159   0.00000   0.00000   0.00000   0.00000   3.14159
    D7        3.13893   0.00000   0.00001  -0.00002  -0.00001   3.13892
    D8       -1.02718  -0.00000  -0.00001  -0.00004  -0.00006  -1.02724
    D9        1.05587  -0.00000  -0.00000  -0.00003  -0.00003   1.05584
         Item               Value     Threshold  Converged?
 Maximum Force            0.000014     0.000015     YES
 RMS     Force            0.000004     0.000010     YES
 Maximum Displacement     0.000034     0.000060     YES
 RMS     Displacement     0.000016     0.000040     YES
 Predicted change in Energy=-9.583832D-10
 Optimization completed.
    -- Stationary point found.
                           ----------------------------
                           !   Optimized Parameters   !
                           ! (Angstroms and Degrees)  !
 --------------------------                            --------------------------
 ! Name  Definition              Value          Derivative Info.                !
 --------------------------------------------------------------------------------
 ! R1    R(1,2)                  1.0972         -DE/DX =    0.0                 !
 ! R2    R(1,3)                  1.5191         -DE/DX =    0.0                 !
 ! R3    R(1,7)                  1.3767         -DE/DX =    0.0                 !
 ! R4    R(1,8)                  1.0972         -DE/DX =    0.0                 !
 ! R5    R(3,4)                  1.3415         -DE/DX =    0.0                 !
 ! R6    R(3,5)                  1.3415         -DE/DX =    0.0                 !
 ! R7    R(3,6)                  1.3495         -DE/DX =    0.0                 !
 ! A1    A(2,1,3)              108.9183         -DE/DX =    0.0                 !
 ! A2    A(2,1,7)              109.3347         -DE/DX =    0.0                 !
 ! A3    A(2,1,8)              110.8366         -DE/DX =    0.0                 !
 ! A4    A(3,1,7)              109.479          -DE/DX =    0.0                 !
 ! A5    A(3,1,8)              108.9183         -DE/DX =    0.0                 !
 ! A6    A(7,1,8)              109.3347         -DE/DX =    0.0                 !
 ! A7    A(1,3,4)              112.0782         -DE/DX =    0.0                 !
 ! A8    A(1,3,5)              112.0782         -DE/DX =    0.0                 !
 ! A9    A(1,3,6)              108.9224         -DE/DX =    0.0                 !
 ! A10   A(4,3,5)              107.748          -DE/DX =    0.0                 !
 ! A11   A(4,3,6)              107.925          -DE/DX =    0.0                 !
 ! A12   A(5,3,6)              107.925          -DE/DX =    0.0                 !
 ! D1    D(2,1,3,4)             58.8533         -DE/DX =    0.0                 !
 ! D2    D(2,1,3,5)           -179.8476         -DE/DX =    0.0                 !
 ! D3    D(2,1,3,6)            -60.4971         -DE/DX =    0.0                 !
 ! D4    D(7,1,3,4)            -60.6496         -DE/DX =    0.0                 !
 ! D5    D(7,1,3,5)             60.6496         -DE/DX =    0.0                 !
 ! D6    D(7,1,3,6)            180.0            -DE/DX =    0.0                 !
 ! D7    D(8,1,3,4)            179.8476         -DE/DX =    0.0                 !
 ! D8    D(8,1,3,5)            -58.8533         -DE/DX =    0.0                 !
 ! D9    D(8,1,3,6)             60.4971         -DE/DX =    0.0                 !
 --------------------------------------------------------------------------------
 Lowest energy point so far.  Saving SCF results.
 Largest change from initial coordinates is atom    7       1.666 Angstoms.
 GradGradGradGradGradGradGradGradGradGradGradGradGradGradGradGradGradGrad

 Leave Link  103 at Thu Apr  2 15:48:24 2026, MaxMem=  1073741824 cpu:               0.1 elap:               0.0
 (Enter /Users/yarger/Applications/g16/l202.exe)
                          Input orientation:                          
 ---------------------------------------------------------------------
 Center     Atomic      Atomic             Coordinates (Angstroms)
 Number     Number       Type             X           Y           Z
 ---------------------------------------------------------------------
      1          6           0       -1.501367    1.412119    1.454428
      2          1           0       -1.157732    2.454075    1.447434
      3          6           0       -0.323082    0.502863    1.150294
      4          9           0        0.670010    0.649679    2.040218
      5          9           0       -0.674716   -0.791739    1.139789
      6          9           0        0.163855    0.810912   -0.070041
      7          9           0       -2.007400    1.107386    2.697972
      8          1           0       -2.278746    1.252455    0.696803
 ---------------------------------------------------------------------
                    Distance matrix (angstroms):
                    1          2          3          4          5
     1  C    0.000000
     2  H    1.097182   0.000000
     3  C    1.519078   2.142933   0.000000
     4  F    2.374729   2.635883   1.341548   0.000000
     5  F    2.374729   3.295946   1.341548   2.167198   0.000000
     6  F    2.336326   2.597943   1.349525   2.176093   2.176093
     7  F    1.376711   2.024686   2.365943   2.794756   2.794756
     8  H    1.097182   1.806658   2.142933   3.295946   2.635883
                    6          7          8
     6  F    0.000000
     7  F    3.530460   0.000000
     8  H    2.597943   2.024686   0.000000
 Stoichiometry    C2H2F4
 Framework group  CS[SG(C2F2),X(H2F2)]
 Deg. of freedom    11
 Full point group                 CS      NOp   2
 RotChk:  IX=2 Diff= 5.87D-16
 Largest Abelian subgroup         CS      NOp   2
 Largest concise Abelian subgroup CS      NOp   2
                         Standard orientation:                         
 ---------------------------------------------------------------------
 Center     Atomic      Atomic             Coordinates (Angstroms)
 Number     Number       Type             X           Y           Z
 ---------------------------------------------------------------------
      1          6           0        1.158149    0.243789    0.000000
      2          1           0        1.495612    0.767166   -0.903329
      3          6           0       -0.359983    0.190166    0.000000
      4          9           0       -0.842409   -0.436596   -1.083599
      5          9           0       -0.842409   -0.436596    1.083599
      6          9           0       -0.842409    1.450517    0.000000
      7          9           0        1.662757   -1.037110   -0.000000
      8          1           0        1.495612    0.767166    0.903329
 ---------------------------------------------------------------------
 Rotational constants (GHZ):           5.3061974           2.7735992           2.7327611
 Leave Link  202 at Thu Apr  2 15:48:24 2026, MaxMem=  1073741824 cpu:               0.0 elap:               0.0
 (Enter /Users/yarger/Applications/g16/l601.exe)
 Copying SCF densities to generalized density rwf, IOpCl= 0 IROHF=0.

 **********************************************************************

            Population analysis using the SCF density.

 **********************************************************************

 Orbital symmetries:
       Occupied  (A') (A") (A') (A') (A') (A') (A') (A') (A") (A')
                 (A') (A') (A") (A') (A') (A') (A") (A') (A") (A')
                 (A') (A") (A") (A") (A')
       Virtual   (A') (A") (A') (A') (A") (A') (A') (A') (A") (A')
                 (A") (A') (A') (A') (A") (A') (A") (A') (A') (A')
                 (A") (A') (A") (A') (A') (A") (A') (A") (A') (A')
                 (A") (A") (A') (A') (A') (A") (A") (A') (A') (A')
                 (A") (A') (A') (A") (A') (A') (A") (A') (A") (A')
                 (A') (A") (A') (A') (A") (A') (A") (A') (A") (A")
                 (A') (A") (A") (A') (A') (A') (A") (A') (A") (A')
                 (A") (A') (A") (A') (A') (A') (A") (A") (A') (A')
                 (A") (A') (A") (A') (A") (A') (A") (A') (A') (A")
                 (A') (A") (A') (A") (A') (A') (A') (A") (A') (A')
                 (A") (A') (A') (A") (A') (A') (A") (A') (A") (A')
                 (A') (A") (A') (A") (A') (A") (A') (A') (A") (A')
                 (A") (A') (A') (A") (A") (A') (A') (A") (A') (A')
                 (A")
 The electronic state is 1-A'.
 Alpha  occ. eigenvalues --  -24.88814 -24.88503 -24.88503 -24.85770 -10.56830
 Alpha  occ. eigenvalues --  -10.41902  -1.44286  -1.35459  -1.35247  -1.33999
 Alpha  occ. eigenvalues --   -0.90221  -0.79029  -0.70992  -0.70948  -0.68387
 Alpha  occ. eigenvalues --   -0.61862  -0.61652  -0.57681  -0.57593  -0.54934
 Alpha  occ. eigenvalues --   -0.53674  -0.53597  -0.51866  -0.47124  -0.46257
 Alpha virt. eigenvalues --    0.03540   0.05371   0.07471   0.08277   0.11435
 Alpha virt. eigenvalues --    0.11665   0.12216   0.14200   0.15191   0.15912
 Alpha virt. eigenvalues --    0.18838   0.19540   0.21144   0.24891   0.24906
 Alpha virt. eigenvalues --    0.25802   0.27080   0.28391   0.30025   0.30356
 Alpha virt. eigenvalues --    0.30807   0.32229   0.33016   0.33474   0.35868
 Alpha virt. eigenvalues --    0.36277   0.37296   0.37728   0.38655   0.41342
 Alpha virt. eigenvalues --    0.42103   0.43353   0.44262   0.45658   0.48429
 Alpha virt. eigenvalues --    0.49513   0.53534   0.55015   0.56359   0.58179
 Alpha virt. eigenvalues --    0.60707   0.61639   0.66916   0.69082   0.70646
 Alpha virt. eigenvalues --    0.72329   0.72466   0.74897   0.75962   0.83421
 Alpha virt. eigenvalues --    0.84158   0.92498   0.99984   1.00687   1.02334
 Alpha virt. eigenvalues --    1.11092   1.13555   1.18515   1.23919   1.27011
 Alpha virt. eigenvalues --    1.30911   1.32695   1.33370   1.33881   1.34089
 Alpha virt. eigenvalues --    1.36390   1.37194   1.40482   1.40562   1.43881
 Alpha virt. eigenvalues --    1.46608   1.49899   1.52209   1.53205   1.54557
 Alpha virt. eigenvalues --    1.56689   1.57300   1.63056   1.66418   1.69890
 Alpha virt. eigenvalues --    1.70157   1.73209   1.75104   1.76084   1.78573
 Alpha virt. eigenvalues --    1.81195   1.84994   1.91589   1.95517   1.95619
 Alpha virt. eigenvalues --    2.00314   2.04911   2.10518   2.12517   2.18339
 Alpha virt. eigenvalues --    2.20159   2.23451   2.31334   2.33335   2.44662
 Alpha virt. eigenvalues --    2.46759   2.48843   2.60544   2.61156   2.62478
 Alpha virt. eigenvalues --    2.70035   2.74293   3.29349   3.35646   3.36953
 Alpha virt. eigenvalues --    3.48639   4.51719   4.55501   4.55865   4.57133
 Alpha virt. eigenvalues --    4.58429   4.59922   4.62448   4.64095   4.65163
 Alpha virt. eigenvalues --    4.66636   4.68876   4.69482   4.69628   4.73465
 Alpha virt. eigenvalues --    4.74429   4.76586   4.81574   4.81649   4.90704
 Alpha virt. eigenvalues --    4.91520
          Condensed to atoms (all electrons):
               1          2          3          4          5          6
     1  C    4.201045   0.299927   0.505367   0.002738   0.002738  -0.008697
     2  H    0.299927   1.102046  -0.126969   0.005206   0.032644   0.003685
     3  C    0.505367  -0.126969   4.358642   0.014749   0.014749   0.021612
     4  F    0.002738   0.005206   0.014749   9.487101  -0.061699  -0.056625
     5  F    0.002738   0.032644   0.014749  -0.061699   9.487101  -0.056625
     6  F   -0.008697   0.003685   0.021612  -0.056625  -0.056625   9.504350
     7  F    0.051798  -0.065799   0.011109  -0.000267  -0.000267   0.017680
     8  H    0.299927  -0.110665  -0.126969   0.032644   0.005206   0.003685
               7          8
     1  C    0.051798   0.299927
     2  H   -0.065799  -0.110665
     3  C    0.011109  -0.126969
     4  F   -0.000267   0.032644
     5  F   -0.000267   0.005206
     6  F    0.017680   0.003685
     7  F    9.467501  -0.065799
     8  H   -0.065799   1.102046
 Mulliken charges:
               1
     1  C    0.645157
     2  H   -0.140075
     3  C    1.327709
     4  F   -0.423848
     5  F   -0.423848
     6  F   -0.429064
     7  F   -0.415956
     8  H   -0.140075
 Sum of Mulliken charges =  -0.00000
 Mulliken charges with hydrogens summed into heavy atoms:
               1
     1  C    0.365007
     3  C    1.327709
     4  F   -0.423848
     5  F   -0.423848
     6  F   -0.429064
     7  F   -0.415956
 Electronic spatial extent (au):  <R**2>=            479.5573
 Charge=              0.0000 electrons
 Dipole moment (field-independent basis, Debye):
    X=              1.3764    Y=              1.5817    Z=             -0.0000  Tot=              2.0967
 Quadrupole moment (field-independent basis, Debye-Ang):
   XX=            -32.3096   YY=            -33.7634   ZZ=            -31.8243
   XY=              3.2493   XZ=              0.0000   YZ=              0.0000
 Traceless Quadrupole moment (field-independent basis, Debye-Ang):
   XX=              0.3228   YY=             -1.1309   ZZ=              0.8081
   XY=              3.2493   XZ=              0.0000   YZ=              0.0000
 Octapole moment (field-independent basis, Debye-Ang**2):
  XXX=             -6.2059  YYY=             -3.9442  ZZZ=             -0.0000  XYY=             -1.7730
  XXY=              3.5978  XXZ=             -0.0000  XZZ=              1.1366  YZZ=              0.6557
  YYZ=             -0.0000  XYZ=             -0.0000
 Hexadecapole moment (field-independent basis, Debye-Ang**3):
 XXXX=           -235.6637 YYYY=           -139.6127 ZZZZ=            -98.9618 XXXY=             32.7485
 XXXZ=             -0.0000 YYYX=             27.8050 YYYZ=              0.0000 ZZZX=              0.0000
 ZZZY=              0.0000 XXYY=            -64.4393 XXZZ=            -53.3495 YYZZ=            -38.6805
 XXYZ=              0.0000 YYXZ=             -0.0000 ZZXY=              9.8975
 N-N= 2.713522571791D+02 E-N=-1.674079833229D+03  KE= 4.741555812146D+02
 Symmetry A'   KE= 3.578691578231D+02
 Symmetry A"   KE= 1.162864233915D+02
 No NMR shielding tensors so no spin-rotation constants.
 Leave Link  601 at Thu Apr  2 15:48:24 2026, MaxMem=  1073741824 cpu:               0.3 elap:               0.1
 (Enter /Users/yarger/Applications/g16/l9999.exe)
 1\1\GINC-MACBOOKPRO\FOpt\RwB97XD\Aug-CC-pVDZ\C2H2F4\ROOT\02-Apr-2026\0
 \\#p opt=tight freq=raman wb97xd/aug-cc-pvdz guess=save geom=connectiv
 ity polar\\r134a - 1,1,1,2-Tetrafluoroethane\\0,1\C,-1.5013669244,1.41
 2118689,1.4544284626\H,-1.1577320801,2.4540752436,1.4474343917\C,-0.32
 30821746,0.502862871,1.1502936681\F,0.6700095346,0.6496788143,2.040218
 1983\F,-0.6747160816,-0.7917393782,1.1397891331\F,0.16385519,0.8109118
 321,-0.070040689\F,-2.0074004176,1.1073861893,2.6979724718\H,-2.278745
 9504,1.2524548035,0.6968028434\\Version=EM64M-G16RevA.03\State=1-A'\HF
 =-476.7168951\RMSD=8.245e-09\RMSF=7.120e-06\Dipole=-0.3671582,0.606211
 1,-0.4221061\Quadrupole=0.0389313,1.4786514,-1.5175828,-0.6514365,1.88
 19537,-0.4323855\PG=CS [SG(C2F2),X(H2F2)]\\@


 FIREWORKS ENDED
 AND SPECTATORS GONE AWAY....
 AH, HOW VAST AND DARK
                     SHIKI
 Leave Link 9999 at Thu Apr  2 15:48:24 2026, MaxMem=  1073741824 cpu:               0.1 elap:               0.0
 Job cpu time:       0 days  0 hours  3 minutes 44.3 seconds.
 Elapsed time:       0 days  0 hours  0 minutes 58.6 seconds.
 File lengths (MBytes):  RWF=     15 Int=      0 D2E=      0 Chk=      3 Scr=      1
 Normal termination of Gaussian 16 at Thu Apr  2 15:48:24 2026.
 (Enter /Users/yarger/Applications/g16/l1.exe)
 Link1:  Proceeding to internal job step number  2.
 ----------------------------------------------------------------------
 #P Geom=AllCheck Guess=TCheck SCRF=Check GenChk RwB97XD/Aug-CC-pVDZ Fr
 eq
 ----------------------------------------------------------------------
 1/7=10,10=4,29=7,30=1,38=1,40=1/1,3;
 2/12=2,40=1/2;
 3/5=16,7=10,11=2,14=-4,25=1,30=1,70=2,71=2,74=-58,116=1,140=1/1,2,3;
 4/5=101/1;
 5/5=2,38=6,98=1/2;
 8/6=4,10=90,11=11/1;
 10/13=10,15=4/2;
 11/6=3,8=1,9=11,15=111,16=1/1,2,10;
 10/6=1/2;
 6/7=2,8=2,9=2,10=2,28=1/1;
 7/8=1,10=1,25=1/1,2,3,16;
 1/7=10,10=4,30=1/3;
 99//99;
 Leave Link    1 at Thu Apr  2 15:48:24 2026, MaxMem=  1073741824 cpu:               0.1 elap:               0.0
 (Enter /Users/yarger/Applications/g16/l101.exe)
 Structure from the checkpoint file:  "1112Tetrafluoroethane_Opt_Freq_DFT_WB97XD_pVDZ_Gaussian16.chk"
 ---------------------------------
 r134a - 1,1,1,2-Tetrafluoroethane
 ---------------------------------
 Charge =  0 Multiplicity = 1
 Redundant internal coordinates found in file.  (old form).
 C,0,-1.5013669244,1.412118689,1.4544284626
 H,0,-1.1577320801,2.4540752436,1.4474343917
 C,0,-0.3230821746,0.502862871,1.1502936681
 F,0,0.6700095346,0.6496788143,2.0402181983
 F,0,-0.6747160816,-0.7917393782,1.1397891331
 F,0,0.16385519,0.8109118321,-0.070040689
 F,0,-2.0074004176,1.1073861893,2.6979724718
 H,0,-2.2787459504,1.2524548035,0.6968028434
 Recover connectivity data from disk.
 ITRead=  0  0  0  0  0  0  0  0
 MicOpt= -1 -1 -1 -1 -1 -1 -1 -1
 NAtoms=      8 NQM=        8 NQMF=       0 NMMI=      0 NMMIF=      0
                NMic=       0 NMicF=      0.
                    Isotopes and Nuclear Properties:
 (Nuclear quadrupole moments (NQMom) in fm**2, nuclear magnetic moments (NMagM)
  in nuclear magnetons)

  Atom         1           2           3           4           5           6           7           8
 IAtWgt=          12           1          12          19          19          19          19           1
 AtmWgt=  12.0000000   1.0078250  12.0000000  18.9984033  18.9984033  18.9984033  18.9984033   1.0078250
 NucSpn=           0           1           0           1           1           1           1           1
 AtZEff=   3.6000000   1.0000000   3.6000000   6.7500000   6.7500000   6.7500000   6.7500000   1.0000000
 NQMom=    0.0000000   0.0000000   0.0000000   0.0000000   0.0000000   0.0000000   0.0000000   0.0000000
 NMagM=    0.0000000   2.7928460   0.0000000   2.6288670   2.6288670   2.6288670   2.6288670   2.7928460
 AtZNuc=   6.0000000   1.0000000   6.0000000   9.0000000   9.0000000   9.0000000   9.0000000   1.0000000
 Leave Link  101 at Thu Apr  2 15:48:24 2026, MaxMem=  1073741824 cpu:               0.6 elap:               0.2
 (Enter /Users/yarger/Applications/g16/l103.exe)

 GradGradGradGradGradGradGradGradGradGradGradGradGradGradGradGradGradGrad
 Berny optimization.
 Initialization pass.
                           ----------------------------
                           !    Initial Parameters    !
                           ! (Angstroms and Degrees)  !
 --------------------------                            --------------------------
 ! Name  Definition              Value          Derivative Info.                !
 --------------------------------------------------------------------------------
 ! R1    R(1,2)                  1.0972         calculate D2E/DX2 analytically  !
 ! R2    R(1,3)                  1.5191         calculate D2E/DX2 analytically  !
 ! R3    R(1,7)                  1.3767         calculate D2E/DX2 analytically  !
 ! R4    R(1,8)                  1.0972         calculate D2E/DX2 analytically  !
 ! R5    R(3,4)                  1.3415         calculate D2E/DX2 analytically  !
 ! R6    R(3,5)                  1.3415         calculate D2E/DX2 analytically  !
 ! R7    R(3,6)                  1.3495         calculate D2E/DX2 analytically  !
 ! A1    A(2,1,3)              108.9183         calculate D2E/DX2 analytically  !
 ! A2    A(2,1,7)              109.3347         calculate D2E/DX2 analytically  !
 ! A3    A(2,1,8)              110.8366         calculate D2E/DX2 analytically  !
 ! A4    A(3,1,7)              109.479          calculate D2E/DX2 analytically  !
 ! A5    A(3,1,8)              108.9183         calculate D2E/DX2 analytically  !
 ! A6    A(7,1,8)              109.3347         calculate D2E/DX2 analytically  !
 ! A7    A(1,3,4)              112.0782         calculate D2E/DX2 analytically  !
 ! A8    A(1,3,5)              112.0782         calculate D2E/DX2 analytically  !
 ! A9    A(1,3,6)              108.9224         calculate D2E/DX2 analytically  !
 ! A10   A(4,3,5)              107.748          calculate D2E/DX2 analytically  !
 ! A11   A(4,3,6)              107.925          calculate D2E/DX2 analytically  !
 ! A12   A(5,3,6)              107.925          calculate D2E/DX2 analytically  !
 ! D1    D(2,1,3,4)             58.8533         calculate D2E/DX2 analytically  !
 ! D2    D(2,1,3,5)           -179.8476         calculate D2E/DX2 analytically  !
 ! D3    D(2,1,3,6)            -60.4971         calculate D2E/DX2 analytically  !
 ! D4    D(7,1,3,4)            -60.6496         calculate D2E/DX2 analytically  !
 ! D5    D(7,1,3,5)             60.6496         calculate D2E/DX2 analytically  !
 ! D6    D(7,1,3,6)            180.0            calculate D2E/DX2 analytically  !
 ! D7    D(8,1,3,4)            179.8476         calculate D2E/DX2 analytically  !
 ! D8    D(8,1,3,5)            -58.8533         calculate D2E/DX2 analytically  !
 ! D9    D(8,1,3,6)             60.4971         calculate D2E/DX2 analytically  !
 --------------------------------------------------------------------------------
 Trust Radius=3.00D-01 FncErr=1.00D-07 GrdErr=1.00D-07 EigMax=2.50D+02 EigMin=1.00D-04
 Number of steps in this run=      2 maximum allowed number of steps=      2.
 GradGradGradGradGradGradGradGradGradGradGradGradGradGradGradGradGradGrad

 Leave Link  103 at Thu Apr  2 15:48:25 2026, MaxMem=  1073741824 cpu:               0.0 elap:               0.0
 (Enter /Users/yarger/Applications/g16/l202.exe)
                          Input orientation:                          
 ---------------------------------------------------------------------
 Center     Atomic      Atomic             Coordinates (Angstroms)
 Number     Number       Type             X           Y           Z
 ---------------------------------------------------------------------
      1          6           0       -1.501367    1.412119    1.454428
      2          1           0       -1.157732    2.454075    1.447434
      3          6           0       -0.323082    0.502863    1.150294
      4          9           0        0.670010    0.649679    2.040218
      5          9           0       -0.674716   -0.791739    1.139789
      6          9           0        0.163855    0.810912   -0.070041
      7          9           0       -2.007400    1.107386    2.697972
      8          1           0       -2.278746    1.252455    0.696803
 ---------------------------------------------------------------------
                    Distance matrix (angstroms):
                    1          2          3          4          5
     1  C    0.000000
     2  H    1.097182   0.000000
     3  C    1.519078   2.142933   0.000000
     4  F    2.374729   2.635883   1.341548   0.000000
     5  F    2.374729   3.295946   1.341548   2.167198   0.000000
     6  F    2.336326   2.597943   1.349525   2.176093   2.176093
     7  F    1.376711   2.024686   2.365943   2.794756   2.794756
     8  H    1.097182   1.806658   2.142933   3.295946   2.635883
                    6          7          8
     6  F    0.000000
     7  F    3.530460   0.000000
     8  H    2.597943   2.024686   0.000000
 Stoichiometry    C2H2F4
 Framework group  CS[SG(C2F2),X(H2F2)]
 Deg. of freedom    11
 Full point group                 CS      NOp   2
 RotChk:  IX=2 Diff= 1.03D-15
 Largest Abelian subgroup         CS      NOp   2
 Largest concise Abelian subgroup CS      NOp   2
                         Standard orientation:                         
 ---------------------------------------------------------------------
 Center     Atomic      Atomic             Coordinates (Angstroms)
 Number     Number       Type             X           Y           Z
 ---------------------------------------------------------------------
      1          6           0        1.158149    0.243789    0.000000
      2          1           0        1.495612    0.767166   -0.903329
      3          6           0       -0.359983    0.190166   -0.000000
      4          9           0       -0.842409   -0.436596   -1.083599
      5          9           0       -0.842409   -0.436596    1.083599
      6          9           0       -0.842409    1.450517   -0.000000
      7          9           0        1.662757   -1.037110    0.000000
      8          1           0        1.495612    0.767166    0.903329
 ---------------------------------------------------------------------
 Rotational constants (GHZ):           5.3061974           2.7735992           2.7327611
 Leave Link  202 at Thu Apr  2 15:48:25 2026, MaxMem=  1073741824 cpu:               0.0 elap:               0.0
 (Enter /Users/yarger/Applications/g16/l301.exe)
 Standard basis: Aug-CC-pVDZ (5D, 7F)
 Ernie: Thresh=  0.10000D-02 Tol=  0.10000D-05 Strict=F.
 Ernie:  12 primitive shells out of 164 were deleted.
 There are   106 symmetry adapted cartesian basis functions of A'  symmetry.
 There are    62 symmetry adapted cartesian basis functions of A"  symmetry.
 There are    96 symmetry adapted basis functions of A'  symmetry.
 There are    60 symmetry adapted basis functions of A"  symmetry.
   156 basis functions,   280 primitive gaussians,   168 cartesian basis functions
    25 alpha electrons       25 beta electrons
       nuclear repulsion energy       271.3544300433 Hartrees.
 IExCor= 4639 DFT=T Ex+Corr=wB97XD ExCW=0 ScaHFX=  1.000000
 ScaDFX=  1.000000  1.000000  1.000000  1.000000 ScalE2=  1.000000  1.000000
 IRadAn=      5 IRanWt=     -1 IRanGd=            0 ICorTp=0 IEmpDi=121
 HFx  wShort=  0.000000 wLong=  0.200000 cFull=  0.222036 cShort=  0.000000 cLong=  0.777964
 DFx  wShort=  0.000000 wLong=  0.200000 cFull=  0.000000 cShort=  0.000000 cLong=  1.000000
 NAtoms=    8 NActive=    8 NUniq=    6 SFac= 1.78D+00 NAtFMM=   60 NAOKFM=F Big=F
 Integral buffers will be    131072 words long.
 Raffenetti 2 integral format.
 Two-electron integral symmetry is turned on.
 R6Disp:  Grimme-D2 Dispersion energy=       -0.0021728642 Hartrees.
 Nuclear repulsion after empirical dispersion term =      271.3522571791 Hartrees.
 Leave Link  301 at Thu Apr  2 15:48:25 2026, MaxMem=  1073741824 cpu:               0.1 elap:               0.0
 (Enter /Users/yarger/Applications/g16/l302.exe)
 NPDir=0 NMtPBC=     1 NCelOv=     1 NCel=       1 NClECP=     1 NCelD=      1
         NCelK=      1 NCelE2=     1 NClLst=     1 CellRange=     0.0.
 One-electron integrals computed using PRISM.
 One-electron integral symmetry used in STVInt
 NBasis=   156 RedAO= T EigKep=  1.63D-04  NBF=    96    60
 NBsUse=   156 1.00D-06 EigRej= -1.00D+00 NBFU=    96    60
 Precomputing XC quadrature grid using
 IXCGrd= 4 IRadAn=           5 IRanWt=          -1 IRanGd=           0 AccXCQ= 0.00D+00.
 Generated NRdTot=       0 NPtTot=           0 NUsed=           0 NTot=          32
 NSgBfM=   168   168   168   168   168 MxSgAt=     8 MxSgA2=     8.
 Leave Link  302 at Thu Apr  2 15:48:25 2026, MaxMem=  1073741824 cpu:               0.4 elap:               0.1
 (Enter /Users/yarger/Applications/g16/l303.exe)
 DipDrv:  MaxL=1.
 Leave Link  303 at Thu Apr  2 15:48:25 2026, MaxMem=  1073741824 cpu:               0.1 elap:               0.0
 (Enter /Users/yarger/Applications/g16/l401.exe)
 Initial guess from the checkpoint file:  "1112Tetrafluoroethane_Opt_Freq_DFT_WB97XD_pVDZ_Gaussian16.chk"
 B after Tr=     0.000000   -0.000000   -0.000000
         Rot=    1.000000   -0.000000    0.000000   -0.000000 Ang=   0.00 deg.
 Guess basis will be translated and rotated to current coordinates.
 JPrj=2 DoOrth=T DoCkMO=T.
 Initial guess orbital symmetries:
       Occupied  (A') (A") (A') (A') (A') (A') (A') (A') (A") (A')
                 (A') (A') (A") (A') (A') (A') (A") (A') (A") (A')
                 (A') (A") (A") (A") (A')
       Virtual   (A') (A") (A') (A') (A") (A') (A') (A') (A") (A')
                 (A") (A') (A') (A') (A") (A') (A") (A') (A') (A')
                 (A") (A') (A") (A') (A') (A") (A') (A") (A') (A')
                 (A") (A") (A') (A') (A') (A") (A") (A') (A') (A')
                 (A") (A') (A') (A") (A') (A') (A") (A') (A") (A')
                 (A') (A") (A') (A') (A") (A') (A") (A') (A") (A")
                 (A') (A") (A") (A') (A') (A') (A") (A') (A") (A')
                 (A") (A') (A") (A') (A') (A') (A") (A") (A') (A')
                 (A") (A') (A") (A') (A") (A') (A") (A') (A') (A")
                 (A') (A") (A') (A") (A') (A') (A') (A") (A') (A')
                 (A") (A') (A') (A") (A') (A') (A") (A') (A") (A')
                 (A') (A") (A') (A") (A') (A") (A') (A') (A") (A')
                 (A") (A') (A') (A") (A") (A') (A') (A") (A') (A')
                 (A")
 The electronic state of the initial guess is 1-A'.
 Leave Link  401 at Thu Apr  2 15:48:25 2026, MaxMem=  1073741824 cpu:               0.3 elap:               0.1
 (Enter /Users/yarger/Applications/g16/l502.exe)
 Keep R1 ints in memory in symmetry-blocked form, NReq=225262371.
 FoFCou: FMM=F IPFlag=           0 FMFlag=           0 FMFlg1=           0
         NFxFlg=           0 DoJE=F BraDBF=F KetDBF=F FulRan=T
         wScrn=  0.000000 ICntrl=       600 IOpCl=  0 I1Cent=           0 NGrid=           0
         NMat0=    1 NMatS0=  12246 NMatT0=    0 NMatD0=    1 NMtDS0=    0 NMtDT0=    0
 Petite list used in FoFCou.
 Closed shell SCF:
 Using DIIS extrapolation, IDIIS=  1040.
 NGot=  1073741824 LenX=  1036027171 LenY=  1035998506
 Requested convergence on RMS density matrix=1.00D-08 within 128 cycles.
 Requested convergence on MAX density matrix=1.00D-06.
 Requested convergence on             energy=1.00D-06.
 No special actions if energy rises.

 Cycle   1  Pass 1  IDiag  1:
 E= -476.716895052463    
 DIIS: error= 1.18D-08 at cycle   1 NSaved=   1.
 NSaved= 1 IEnMin= 1 EnMin= -476.716895052463     IErMin= 1 ErrMin= 1.18D-08
 ErrMax= 1.18D-08  0.00D+00 EMaxC= 1.00D-01 BMatC= 4.84D-14 BMatP= 4.84D-14
 IDIUse=1 WtCom= 1.00D+00 WtEn= 0.00D+00
 Coeff-Com:  0.100D+01
 Coeff:      0.100D+01
 Gap=     0.498 Goal=   None    Shift=    0.000
 RMSDP=2.64D-09 MaxDP=7.95D-08              OVMax= 7.00D-08

 SCF Done:  E(RwB97XD) =  -476.716895052     A.U. after    1 cycles
            NFock=  1  Conv=0.26D-08     -V/T= 2.0054
 KE= 4.741555817680D+02 PE=-1.674079833782D+03 EE= 4.518550997825D+02
 Leave Link  502 at Thu Apr  2 15:48:28 2026, MaxMem=  1073741824 cpu:              11.5 elap:               3.0
 (Enter /Users/yarger/Applications/g16/l801.exe)
 DoSCS=F DFT=T ScalE2(SS,OS)=  1.000000  1.000000
 Range of M.O.s used for correlation:     1   156
 NBasis=   156 NAE=    25 NBE=    25 NFC=     0 NFV=     0
 NROrb=    156 NOA=    25 NOB=    25 NVA=   131 NVB=   131

 **** Warning!!: The largest alpha MO coefficient is  0.25399007D+02

 Leave Link  801 at Thu Apr  2 15:48:28 2026, MaxMem=  1073741824 cpu:               0.1 elap:               0.0
 (Enter /Users/yarger/Applications/g16/l1002.exe)
 Minotr:  Closed shell wavefunction.
          Direct CPHF calculation.
          Differentiating once with respect to electric field.
                with respect to dipole field.
          Electric field/nuclear overlap derivatives assumed to be zero.
          Using symmetry in CPHF.
          Requested convergence is 1.0D-08 RMS, and 1.0D-07 maximum.
          Secondary convergence is 1.0D-12 RMS, and 1.0D-12 maximum.
          NewPWx=F KeepS1=T KeepF1=T KeepIn=T MapXYZ=F SortEE=F KeepMc=T.
         2462 words used for storage of precomputed grid.
 Keep R1 ints in memory in symmetry-blocked form, NReq=225265937.
 FoFCou: FMM=F IPFlag=           0 FMFlag=           0 FMFlg1=           0
         NFxFlg=           0 DoJE=F BraDBF=F KetDBF=F FulRan=T
         wScrn=  0.000000 ICntrl=       600 IOpCl=  0 I1Cent=           0 NGrid=           0
         NMat0=    1 NMatS0=  12246 NMatT0=    0 NMatD0=    1 NMtDS0=    0 NMtDT0=    0
 Petite list used in FoFCou.
 Two-electron integral symmetry used by symmetrizing perturbed Fock matrices.
          MDV=    1073741824 using IRadAn=       1.
          Solving linear equations simultaneously, MaxMat=       0.
          There are     3 degrees of freedom in the 1st order CPHF.  IDoFFX=0 NUNeed=     3.
      3 vectors produced by pass  0 Test12= 1.09D-13 3.33D-08 XBig12= 9.44D+00 7.05D-01.
 AX will form     3 AO Fock derivatives at one time.
      3 vectors produced by pass  1 Test12= 1.09D-13 3.33D-08 XBig12= 1.65D+00 2.00D-01.
      3 vectors produced by pass  2 Test12= 1.09D-13 3.33D-08 XBig12= 2.76D-01 7.13D-02.
      3 vectors produced by pass  3 Test12= 1.09D-13 3.33D-08 XBig12= 1.19D-02 2.48D-02.
      3 vectors produced by pass  4 Test12= 1.09D-13 3.33D-08 XBig12= 1.43D-03 5.24D-03.
      3 vectors produced by pass  5 Test12= 1.09D-13 3.33D-08 XBig12= 8.94D-05 2.11D-03.
      3 vectors produced by pass  6 Test12= 1.09D-13 3.33D-08 XBig12= 1.14D-05 7.28D-04.
      3 vectors produced by pass  7 Test12= 1.09D-13 3.33D-08 XBig12= 6.47D-07 1.64D-04.
      3 vectors produced by pass  8 Test12= 1.09D-13 3.33D-08 XBig12= 1.93D-08 2.50D-05.
      3 vectors produced by pass  9 Test12= 1.09D-13 3.33D-08 XBig12= 4.22D-10 4.08D-06.
      3 vectors produced by pass 10 Test12= 1.09D-13 3.33D-08 XBig12= 1.00D-11 7.06D-07.
      2 vectors produced by pass 11 Test12= 1.09D-13 3.33D-08 XBig12= 1.86D-13 9.42D-08.
 InvSVY:  IOpt=1 It=  1 EMax= 1.33D-15
 Solved reduced A of dimension    35 with     3 vectors.
 End of Minotr F.D. properties file   721 does not exist.
 End of Minotr F.D. properties file   722 does not exist.
 End of Minotr F.D. properties file   788 does not exist.
 Leave Link 1002 at Thu Apr  2 15:48:34 2026, MaxMem=  1073741824 cpu:              21.6 elap:               5.5
 (Enter /Users/yarger/Applications/g16/l1101.exe)
 Using compressed storage, NAtomX=     8.
 Will process      9 centers per pass.
 R6Disp: Adding Grimme-D2 dispersion energy 1st derivatives to the gradient.
 Leave Link 1101 at Thu Apr  2 15:48:34 2026, MaxMem=  1073741824 cpu:               0.3 elap:               0.1
 (Enter /Users/yarger/Applications/g16/l1102.exe)
 Symmetrizing basis deriv contribution to polar:
 IMax=3 JMax=2 DiffMx= 0.00D+00
 Leave Link 1102 at Thu Apr  2 15:48:34 2026, MaxMem=  1073741824 cpu:               0.1 elap:               0.0
 (Enter /Users/yarger/Applications/g16/l1110.exe)
 Forming Gx(P) for the SCF density, NAtomX=     8.
 Integral derivatives from FoFJK, PRISM(SPDF).
 Do as many integral derivatives as possible in FoFJK.
 G2DrvN: MDV=    1073741112.
 G2DrvN: will do     9 centers at a time, making    1 passes.
 PxScal for G2LodP:  IOpCl= 0 ISclPx=1 IMOff=     1 NMtTot=     4 NTT=   12246 ScalPx= 2.32D+00
 Calling FoFCou, ICntrl=  3107 FMM=F I1Cent=   0 AccDes= 0.00D+00.
 FoFJK:  IHMeth= 1 ICntrl=    3107 DoSepK=T KAlg= 0 I1Cent=           0 FoldK=F
 IRaf=         1 NMat=       1 IRICut=       1 DoRegI=T DoRafI=F ISym2E= 1 IDoP0=0 IntGTp=1.
 FoFCou: FMM=F IPFlag=           0 FMFlag=      100000 FMFlg1=           0
         NFxFlg=           0 DoJE=F BraDBF=F KetDBF=F FulRan=T
         wScrn=  0.000000 ICntrl=      3507 IOpCl=  0 I1Cent=           0 NGrid=           0
         NMat0=    1 NMatS0=      1 NMatT0=    0 NMatD0=    4 NMtDS0=    3 NMtDT0=    0
 Petite list used in FoFCou.
 End of G2Drv F.D. properties file   721 does not exist.
 End of G2Drv F.D. properties file   722 does not exist.
 End of G2Drv F.D. properties file   788 does not exist.
 Leave Link 1110 at Thu Apr  2 15:48:47 2026, MaxMem=  1073741824 cpu:              50.7 elap:              12.7
 (Enter /Users/yarger/Applications/g16/l1002.exe)
 Minotr:  Closed shell wavefunction.
          IDoAtm=11111111
          Direct CPHF calculation.
          Differentiating once with respect to electric field.
                with respect to dipole field.
          Differentiating once with respect to nuclear coordinates.
          Using symmetry in CPHF.
          Requested convergence is 1.0D-08 RMS, and 1.0D-07 maximum.
          Secondary convergence is 1.0D-12 RMS, and 1.0D-12 maximum.
          NewPWx=T KeepS1=F KeepF1=F KeepIn=T MapXYZ=F SortEE=F KeepMc=T.
         2462 words used for storage of precomputed grid.
 Keep R1 ints in memory in symmetry-blocked form, NReq=225266121.
 FoFCou: FMM=F IPFlag=           0 FMFlag=           0 FMFlg1=           0
         NFxFlg=           0 DoJE=F BraDBF=F KetDBF=F FulRan=T
         wScrn=  0.000000 ICntrl=       600 IOpCl=  0 I1Cent=           0 NGrid=           0
         NMat0=    1 NMatS0=  12246 NMatT0=    0 NMatD0=    1 NMtDS0=    0 NMtDT0=    0
 Petite list used in FoFCou.
          MDV=    1073741824 using IRadAn=       1.
          Solving linear equations simultaneously, MaxMat=       0.
          There are    21 degrees of freedom in the 1st order CPHF.  IDoFFX=4 NUNeed=    21.
 Will reuse    3 saved solutions.
     18 vectors produced by pass  0 Test12= 1.56D-14 4.76D-09 XBig12= 1.05D-01 7.57D-02.
 AX will form    18 AO Fock derivatives at one time.
     18 vectors produced by pass  1 Test12= 1.56D-14 4.76D-09 XBig12= 3.84D-03 1.35D-02.
     18 vectors produced by pass  2 Test12= 1.56D-14 4.76D-09 XBig12= 4.19D-04 4.34D-03.
     18 vectors produced by pass  3 Test12= 1.56D-14 4.76D-09 XBig12= 9.84D-06 4.57D-04.
     18 vectors produced by pass  4 Test12= 1.56D-14 4.76D-09 XBig12= 1.97D-07 7.53D-05.
     18 vectors produced by pass  5 Test12= 1.56D-14 4.76D-09 XBig12= 2.35D-09 7.15D-06.
     18 vectors produced by pass  6 Test12= 1.56D-14 4.76D-09 XBig12= 1.34D-11 5.19D-07.
      7 vectors produced by pass  7 Test12= 1.56D-14 4.76D-09 XBig12= 7.28D-14 4.11D-08.
 InvSVY:  IOpt=1 It=  1 EMax= 2.22D-16
 Solved reduced A of dimension   133 with    21 vectors.
 FullF1:  Do perturbations      1 to      21.
 Isotropic polarizability for W=    0.000000       30.22 Bohr**3.
 FullF1:  Do perturbations      1 to       6.
 End of Minotr F.D. properties file   721 does not exist.
 End of Minotr F.D. properties file   722 does not exist.
 End of Minotr F.D. properties file   788 does not exist.
 Leave Link 1002 at Thu Apr  2 15:49:03 2026, MaxMem=  1073741824 cpu:              63.5 elap:              16.0
 (Enter /Users/yarger/Applications/g16/l601.exe)
 Copying SCF densities to generalized density rwf, IOpCl= 0 IROHF=0.

 **********************************************************************

            Population analysis using the SCF density.

 **********************************************************************

 Orbital symmetries:
       Occupied  (A') (A") (A') (A') (A') (A') (A') (A') (A") (A')
                 (A') (A') (A") (A') (A') (A') (A") (A') (A") (A')
                 (A') (A") (A") (A") (A')
       Virtual   (A') (A") (A') (A') (A") (A') (A') (A') (A") (A')
                 (A") (A') (A') (A') (A") (A') (A") (A') (A') (A')
                 (A") (A') (A") (A') (A') (A") (A') (A") (A') (A')
                 (A") (A") (A') (A') (A') (A") (A") (A') (A') (A')
                 (A") (A') (A') (A") (A') (A') (A") (A') (A") (A')
                 (A') (A") (A') (A') (A") (A') (A") (A') (A") (A")
                 (A') (A") (A") (A') (A') (A') (A") (A') (A") (A')
                 (A") (A') (A") (A') (A') (A') (A") (A") (A') (A')
                 (A") (A') (A") (A') (A") (A') (A") (A') (A') (A")
                 (A') (A") (A') (A") (A') (A') (A') (A") (A') (A')
                 (A") (A') (A') (A") (A') (A') (A") (A') (A") (A')
                 (A') (A") (A') (A") (A') (A") (A') (A') (A") (A')
                 (A") (A') (A') (A") (A") (A') (A') (A") (A') (A')
                 (A")
 The electronic state is 1-A'.
 Alpha  occ. eigenvalues --  -24.88814 -24.88503 -24.88503 -24.85770 -10.56830
 Alpha  occ. eigenvalues --  -10.41902  -1.44286  -1.35459  -1.35247  -1.33999
 Alpha  occ. eigenvalues --   -0.90221  -0.79029  -0.70992  -0.70948  -0.68387
 Alpha  occ. eigenvalues --   -0.61862  -0.61652  -0.57681  -0.57593  -0.54934
 Alpha  occ. eigenvalues --   -0.53674  -0.53597  -0.51866  -0.47124  -0.46257
 Alpha virt. eigenvalues --    0.03540   0.05371   0.07471   0.08277   0.11435
 Alpha virt. eigenvalues --    0.11665   0.12216   0.14200   0.15191   0.15912
 Alpha virt. eigenvalues --    0.18838   0.19540   0.21144   0.24891   0.24906
 Alpha virt. eigenvalues --    0.25802   0.27080   0.28391   0.30025   0.30356
 Alpha virt. eigenvalues --    0.30807   0.32229   0.33016   0.33474   0.35868
 Alpha virt. eigenvalues --    0.36277   0.37296   0.37728   0.38655   0.41342
 Alpha virt. eigenvalues --    0.42103   0.43353   0.44262   0.45658   0.48429
 Alpha virt. eigenvalues --    0.49513   0.53534   0.55015   0.56359   0.58179
 Alpha virt. eigenvalues --    0.60707   0.61639   0.66916   0.69082   0.70646
 Alpha virt. eigenvalues --    0.72329   0.72466   0.74897   0.75962   0.83421
 Alpha virt. eigenvalues --    0.84158   0.92498   0.99984   1.00687   1.02334
 Alpha virt. eigenvalues --    1.11092   1.13555   1.18515   1.23919   1.27011
 Alpha virt. eigenvalues --    1.30911   1.32695   1.33370   1.33881   1.34089
 Alpha virt. eigenvalues --    1.36390   1.37194   1.40482   1.40562   1.43881
 Alpha virt. eigenvalues --    1.46608   1.49899   1.52209   1.53205   1.54557
 Alpha virt. eigenvalues --    1.56689   1.57300   1.63056   1.66418   1.69890
 Alpha virt. eigenvalues --    1.70157   1.73209   1.75104   1.76084   1.78573
 Alpha virt. eigenvalues --    1.81195   1.84994   1.91589   1.95517   1.95619
 Alpha virt. eigenvalues --    2.00314   2.04911   2.10518   2.12517   2.18339
 Alpha virt. eigenvalues --    2.20159   2.23451   2.31334   2.33335   2.44662
 Alpha virt. eigenvalues --    2.46759   2.48843   2.60544   2.61156   2.62478
 Alpha virt. eigenvalues --    2.70035   2.74293   3.29349   3.35646   3.36953
 Alpha virt. eigenvalues --    3.48639   4.51719   4.55501   4.55865   4.57133
 Alpha virt. eigenvalues --    4.58429   4.59922   4.62448   4.64095   4.65163
 Alpha virt. eigenvalues --    4.66636   4.68876   4.69482   4.69628   4.73465
 Alpha virt. eigenvalues --    4.74429   4.76586   4.81574   4.81649   4.90704
 Alpha virt. eigenvalues --    4.91520
          Condensed to atoms (all electrons):
               1          2          3          4          5          6
     1  C    4.201046   0.299927   0.505367   0.002738   0.002738  -0.008697
     2  H    0.299927   1.102046  -0.126969   0.005206   0.032644   0.003685
     3  C    0.505367  -0.126969   4.358641   0.014749   0.014749   0.021612
     4  F    0.002738   0.005206   0.014749   9.487101  -0.061699  -0.056625
     5  F    0.002738   0.032644   0.014749  -0.061699   9.487101  -0.056625
     6  F   -0.008697   0.003685   0.021612  -0.056625  -0.056625   9.504350
     7  F    0.051798  -0.065799   0.011109  -0.000267  -0.000267   0.017680
     8  H    0.299927  -0.110665  -0.126969   0.032644   0.005206   0.003685
               7          8
     1  C    0.051798   0.299927
     2  H   -0.065799  -0.110665
     3  C    0.011109  -0.126969
     4  F   -0.000267   0.032644
     5  F   -0.000267   0.005206
     6  F    0.017680   0.003685
     7  F    9.467501  -0.065799
     8  H   -0.065799   1.102046
 Mulliken charges:
               1
     1  C    0.645156
     2  H   -0.140075
     3  C    1.327709
     4  F   -0.423848
     5  F   -0.423848
     6  F   -0.429064
     7  F   -0.415956
     8  H   -0.140075
 Sum of Mulliken charges =  -0.00000
 Mulliken charges with hydrogens summed into heavy atoms:
               1
     1  C    0.365007
     3  C    1.327709
     4  F   -0.423848
     5  F   -0.423848
     6  F   -0.429064
     7  F   -0.415956
 APT charges:
               1
     1  C    0.472182
     2  H    0.016006
     3  C    1.561133
     4  F   -0.531017
     5  F   -0.531017
     6  F   -0.535131
     7  F   -0.468162
     8  H    0.016006
 Sum of APT charges =  -0.00000
 APT charges with hydrogens summed into heavy atoms:
               1
     1  C    0.504194
     3  C    1.561133
     4  F   -0.531017
     5  F   -0.531017
     6  F   -0.535131
     7  F   -0.468162
 Electronic spatial extent (au):  <R**2>=            479.5573
 Charge=             -0.0000 electrons
 Dipole moment (field-independent basis, Debye):
    X=              1.3764    Y=              1.5817    Z=             -0.0000  Tot=              2.0967
 Quadrupole moment (field-independent basis, Debye-Ang):
   XX=            -32.3096   YY=            -33.7634   ZZ=            -31.8243
   XY=              3.2493   XZ=             -0.0000   YZ=              0.0000
 Traceless Quadrupole moment (field-independent basis, Debye-Ang):
   XX=              0.3228   YY=             -1.1309   ZZ=              0.8081
   XY=              3.2493   XZ=             -0.0000   YZ=              0.0000
 Octapole moment (field-independent basis, Debye-Ang**2):
  XXX=             -6.2059  YYY=             -3.9442  ZZZ=             -0.0000  XYY=             -1.7730
  XXY=              3.5978  XXZ=             -0.0000  XZZ=              1.1366  YZZ=              0.6557
  YYZ=              0.0000  XYZ=             -0.0000
 Hexadecapole moment (field-independent basis, Debye-Ang**3):
 XXXX=           -235.6637 YYYY=           -139.6127 ZZZZ=            -98.9618 XXXY=             32.7485
 XXXZ=             -0.0000 YYYX=             27.8050 YYYZ=              0.0000 ZZZX=             -0.0000
 ZZZY=              0.0000 XXYY=            -64.4393 XXZZ=            -53.3495 YYZZ=            -38.6805
 XXYZ=              0.0000 YYXZ=             -0.0000 ZZXY=              9.8975
 N-N= 2.713522571791D+02 E-N=-1.674079833497D+03  KE= 4.741555817680D+02
 Symmetry A'   KE= 3.578691580512D+02
 Symmetry A"   KE= 1.162864237168D+02
  Exact polarizability:  30.640  -0.599  30.832  -0.000  -0.000  29.183
 Approx polarizability:  29.755  -0.596  33.566  -0.000  -0.000  31.687
 No NMR shielding tensors so no spin-rotation constants.
 Leave Link  601 at Thu Apr  2 15:49:03 2026, MaxMem=  1073741824 cpu:               0.3 elap:               0.1
 (Enter /Users/yarger/Applications/g16/l701.exe)
 ... and contract with generalized density number  0.
 Compute integral second derivatives.
 R6Disp: Adding Grimme-D2 dispersion energy 2nd derivatives to the Hessian.
 Leave Link  701 at Thu Apr  2 15:49:03 2026, MaxMem=  1073741824 cpu:               0.4 elap:               0.1
 (Enter /Users/yarger/Applications/g16/l702.exe)
 L702 exits ... SP integral derivatives will be done elsewhere.
 Leave Link  702 at Thu Apr  2 15:49:03 2026, MaxMem=  1073741824 cpu:               0.0 elap:               0.0
 (Enter /Users/yarger/Applications/g16/l703.exe)
 Integral derivatives from FoFJK, PRISM(SPDF).
 Compute integral second derivatives, UseDBF=F ICtDFT=           0.
 Calling FoFJK, ICntrl=    100127 FMM=F ISym2X=1 I1Cent= 0 IOpClX= 0 NMat=1 NMatS=1 NMatT=0.
 FoFJK:  IHMeth= 1 ICntrl=  100127 DoSepK=T KAlg= 0 I1Cent=           0 FoldK=F
 IRaf=         1 NMat=       1 IRICut=       1 DoRegI=T DoRafI=F ISym2E= 1 IDoP0=0 IntGTp=1.
 FoFCou: FMM=F IPFlag=           0 FMFlag=      100000 FMFlg1=         800
         NFxFlg=           0 DoJE=F BraDBF=F KetDBF=F FulRan=T
         wScrn=  0.000000 ICntrl=    100527 IOpCl=  0 I1Cent=           0 NGrid=           0
         NMat0=    1 NMatS0=      1 NMatT0=    0 NMatD0=    1 NMtDS0=    0 NMtDT0=    0
 Petite list used in FoFCou.
 Leave Link  703 at Thu Apr  2 15:49:22 2026, MaxMem=  1073741824 cpu:              75.0 elap:              18.8
 (Enter /Users/yarger/Applications/g16/l716.exe)
 Dipole        = 5.41501905D-01 6.22290828D-01-7.87304960D-16
 Polarizability= 3.06402200D+01-5.99189588D-01 3.08317139D+01
                -2.47333998D-15-3.66377164D-14 2.91833039D+01
 HyperPolar    = 1.55091697D+01 1.26217947D+01 1.04917622D+01
                 2.71082573D+01-7.15351999D-13-3.10014411D-12
                 7.31139344D-12 1.39312172D+01 2.14082830D+01
                -2.18571118D-11
 Full mass-weighted force constant matrix:
 Low frequencies ---   -7.9001   -0.0009    0.0007    0.0010    1.7215    4.3580
 Low frequencies ---  107.7873  218.5379  349.1029
 Diagonal vibrational polarizability:
        6.7448808       8.5605695      19.6990981
 Diagonal vibrational hyperpolarizability:
        6.5819093       6.2371807       0.0000000
 Harmonic frequencies (cm**-1), IR intensities (KM/Mole), Raman scattering
 activities (A**4/AMU), depolarization ratios for plane and unpolarized
 incident light, reduced masses (AMU), force constants (mDyne/A),
 and normal coordinates:
                      1                      2                      3
                     A"                     A'                     A"
 Frequencies --    107.7861               218.5379               349.1028
 Red. masses --      4.8565                15.8844                 3.3512
 Frc consts  --      0.0332                 0.4470                 0.2406
 IR Inten    --      5.8263                 2.9174                 1.5208
 Raman Activ --      0.0530                 0.0723                 0.2523
 Depolar (P) --      0.7500                 0.4641                 0.7500
 Depolar (U) --      0.8571                 0.6340                 0.8571
  Atom  AN      X      Y      Z        X      Y      Z        X      Y      Z
     1   6     0.00   0.00  -0.23    -0.07  -0.11  -0.00    -0.00   0.00  -0.20
     2   1    -0.06  -0.39  -0.48    -0.27   0.05   0.01    -0.32  -0.28  -0.49
     3   6     0.00   0.00  -0.07    -0.11  -0.18  -0.00     0.00  -0.00   0.08
     4   9    -0.15   0.11  -0.08    -0.39  -0.01   0.03     0.20  -0.05   0.01
     5   9     0.15  -0.11  -0.08    -0.39  -0.01  -0.03    -0.20   0.05   0.01
     6   9    -0.00  -0.00   0.09     0.36   0.03   0.00     0.00  -0.00   0.13
     7   9    -0.00  -0.00   0.30     0.57   0.16   0.00    -0.00   0.00  -0.02
     8   1     0.06   0.39  -0.48    -0.27   0.05  -0.01     0.32   0.28  -0.49
                      4                      5                      6
                     A'                     A"                     A'
 Frequencies --    406.4427               524.4709               541.4722
 Red. masses --     13.6698                 8.0232                11.0477
 Frc consts  --      1.3305                 1.3003                 1.9084
 IR Inten    --      0.6532                 1.5289                 7.8540
 Raman Activ --      1.2135                 0.5477                 1.1893
 Depolar (P) --      0.4776                 0.7500                 0.4799
 Depolar (U) --      0.6465                 0.8571                 0.6485
  Atom  AN      X      Y      Z        X      Y      Z        X      Y      Z
     1   6    -0.15   0.26  -0.00     0.00   0.00   0.02     0.28   0.02  -0.00
     2   1    -0.21   0.29  -0.00     0.41   0.20   0.29     0.43  -0.08   0.00
     3   6     0.02  -0.05   0.00     0.00   0.00  -0.24     0.08   0.24   0.00
     4   9     0.01  -0.27   0.14    -0.06  -0.30  -0.14    -0.08  -0.14   0.38
     5   9     0.01  -0.27  -0.14     0.06   0.30  -0.14    -0.08  -0.14  -0.38
     6   9     0.48   0.12  -0.00    -0.00   0.00   0.37    -0.20   0.25  -0.00
     7   9    -0.39   0.26   0.00     0.00  -0.00   0.03     0.10  -0.13  -0.00
     8   1    -0.21   0.29   0.00    -0.41  -0.20   0.29     0.43  -0.08  -0.00
                      7                      8                      9
                     A'                     A'                     A"
 Frequencies --    658.1104               843.2977               972.6845
 Red. masses --      9.5770                 7.2701                 1.9784
 Frc consts  --      2.4439                 3.0461                 1.1028
 IR Inten    --     32.5304                18.7989                60.5145
 Raman Activ --      1.5126                 8.2037                 1.7232
 Depolar (P) --      0.5685                 0.0210                 0.7500
 Depolar (U) --      0.7249                 0.0411                 0.8571
  Atom  AN      X      Y      Z        X      Y      Z        X      Y      Z
     1   6    -0.37  -0.21  -0.00     0.38   0.17  -0.00     0.00   0.00   0.21
     2   1    -0.43  -0.17   0.01     0.54   0.06  -0.01    -0.58  -0.31  -0.19
     3   6    -0.27   0.09   0.00    -0.04   0.01  -0.00    -0.00  -0.00   0.11
     4   9     0.16  -0.13  -0.09    -0.11  -0.14  -0.27    -0.05  -0.04  -0.07
     5   9     0.16  -0.13   0.09    -0.11  -0.14   0.27     0.05   0.04  -0.07
     6   9    -0.03   0.43  -0.00    -0.03   0.19  -0.00    -0.00  -0.00   0.00
     7   9     0.16  -0.08   0.00    -0.03  -0.02  -0.00    -0.00  -0.00  -0.03
     8   1    -0.43  -0.17  -0.01     0.54   0.06   0.01     0.58   0.31  -0.19
                     10                     11                     12
                     A'                     A'                     A"
 Frequencies --   1112.8422              1174.0632              1193.5486
 Red. masses --      7.2997                 8.7766                 2.0217
 Frc consts  --      5.3263                 7.1279                 1.6969
 IR Inten    --     97.7689               278.5669               103.0741
 Raman Activ --      3.9815                 1.6916                 1.8329
 Depolar (P) --      0.4098                 0.7429                 0.7500
 Depolar (U) --      0.5814                 0.8525                 0.8571
  Atom  AN      X      Y      Z        X      Y      Z        X      Y      Z
     1   6    -0.13   0.55  -0.00    -0.09   0.01   0.00     0.00  -0.00  -0.13
     2   1    -0.19   0.47  -0.05     0.37  -0.19   0.05    -0.21   0.62   0.15
     3   6    -0.11  -0.07  -0.00    -0.24   0.69  -0.00    -0.00   0.00   0.24
     4   9     0.01   0.02   0.02    -0.01  -0.07  -0.04    -0.02  -0.03  -0.06
     5   9     0.01   0.02  -0.02    -0.01  -0.07   0.04     0.02   0.03  -0.06
     6   9     0.04  -0.03   0.00     0.13  -0.26   0.00     0.00  -0.00  -0.02
     7   9     0.11  -0.36   0.00     0.05  -0.02  -0.00     0.00   0.00   0.05
     8   1    -0.19   0.47   0.05     0.37  -0.19  -0.05     0.21  -0.62   0.15
                     13                     14                     15
                     A'                     A"                     A'
 Frequencies --   1300.7522              1304.7320              1439.1546
 Red. masses --      2.9286                 1.6282                 1.9108
 Frc consts  --      2.9195                 1.6330                 2.3318
 IR Inten    --    131.5554               128.5584                20.9919
 Raman Activ --      1.4504                 2.9593                 0.5329
 Depolar (P) --      0.5352                 0.7500                 0.7300
 Depolar (U) --      0.6972                 0.8571                 0.8439
  Atom  AN      X      Y      Z        X      Y      Z        X      Y      Z
     1   6    -0.05  -0.03   0.00    -0.00  -0.00  -0.02     0.20  -0.09  -0.00
     2   1    -0.58   0.29  -0.01     0.57  -0.39  -0.00    -0.48   0.47   0.04
     3   6     0.34   0.16  -0.00     0.00   0.00   0.22    -0.17   0.03   0.00
     4   9    -0.05  -0.04  -0.05    -0.01  -0.02  -0.04     0.02   0.01   0.02
     5   9    -0.05  -0.04   0.05     0.01   0.02  -0.04     0.02   0.01  -0.02
     6   9    -0.03   0.01   0.00    -0.00   0.00  -0.01     0.02  -0.02  -0.00
     7   9     0.00  -0.04   0.00     0.00  -0.00  -0.03    -0.02  -0.01   0.00
     8   1    -0.58   0.29   0.01    -0.57   0.39  -0.00    -0.48   0.47  -0.04
                     16                     17                     18
                     A'                     A'                     A"
 Frequencies --   1473.9248              3093.7475              3166.8488
 Red. masses --      1.1050                 1.0570                 1.1113
 Frc consts  --      1.4144                 5.9609                 6.5663
 IR Inten    --     10.8154                13.9938                 6.3671
 Raman Activ --      3.3727               106.1283                40.4383
 Depolar (P) --      0.7373                 0.0540                 0.7500
 Depolar (U) --      0.8488                 0.1024                 0.8571
  Atom  AN      X      Y      Z        X      Y      Z        X      Y      Z
     1   6    -0.07  -0.06   0.00     0.04   0.05  -0.00    -0.00   0.00  -0.10
     2   1     0.33   0.45   0.43    -0.22  -0.33   0.59    -0.23  -0.33   0.58
     3   6     0.02  -0.01  -0.00    -0.00   0.00   0.00    -0.00   0.00  -0.00
     4   9    -0.00   0.00  -0.00    -0.00  -0.00  -0.00     0.00   0.00   0.00
     5   9    -0.00   0.00   0.00    -0.00  -0.00   0.00    -0.00  -0.00   0.00
     6   9    -0.00   0.00   0.00     0.00  -0.00  -0.00    -0.00   0.00   0.00
     7   9     0.00  -0.01   0.00    -0.00   0.00  -0.00     0.00  -0.00   0.00
     8   1     0.33   0.45  -0.43    -0.22  -0.33  -0.59     0.23   0.33   0.58

 -------------------
 - Thermochemistry -
 -------------------
 Temperature   298.150 Kelvin.  Pressure   1.00000 Atm.
 Atom     1 has atomic number  6 and mass  12.00000
 Atom     2 has atomic number  1 and mass   1.00783
 Atom     3 has atomic number  6 and mass  12.00000
 Atom     4 has atomic number  9 and mass  18.99840
 Atom     5 has atomic number  9 and mass  18.99840
 Atom     6 has atomic number  9 and mass  18.99840
 Atom     7 has atomic number  9 and mass  18.99840
 Atom     8 has atomic number  1 and mass   1.00783
 Molecular mass:   102.00926 amu.
 Principal axes and moments of inertia in atomic units:
                           1         2         3
     Eigenvalues --   340.11950 650.68564 660.40942
           X            0.87119   0.49095   0.00000
           Y           -0.49095   0.87119   0.00000
           Z            0.00000  -0.00000   1.00000
 This molecule is an asymmetric top.
 Rotational symmetry number  1.
 Rotational temperatures (Kelvin)      0.25466     0.13311     0.13115
 Rotational constants (GHZ):           5.30620     2.77360     2.73276
 Zero-point vibrational energy     118917.9 (Joules/Mol)
                                   28.42206 (Kcal/Mol)
 Warning -- explicit consideration of   6 degrees of freedom as
           vibrations may cause significant error
 Vibrational temperatures:    155.08   314.43   502.28   584.78   754.60
          (Kelvin)            779.06   946.87  1213.32  1399.48  1601.13
                             1689.22  1717.25  1871.49  1877.22  2070.62
                             2120.65  4451.21  4556.39
 
 Zero-point correction=                           0.045293 (Hartree/Particle)
 Thermal correction to Energy=                    0.050777
 Thermal correction to Enthalpy=                  0.051721
 Thermal correction to Gibbs Free Energy=         0.015763
 Sum of electronic and zero-point Energies=           -476.671602
 Sum of electronic and thermal Energies=              -476.666118
 Sum of electronic and thermal Enthalpies=            -476.665174
 Sum of electronic and thermal Free Energies=         -476.701132
 
                     E (Thermal)             CV                S
                      KCal/Mol        Cal/Mol-Kelvin    Cal/Mol-Kelvin
 Total                   31.863             18.176             75.680
 Electronic               0.000              0.000              0.000
 Translational            0.889              2.981             39.777
 Rotational               0.889              2.981             26.483
 Vibrational             30.086             12.214              9.420
 Vibration     1          0.606              1.943              3.308
 Vibration     2          0.646              1.813              1.971
 Vibration     3          0.726              1.577              1.170
 Vibration     4          0.771              1.456              0.939
 Vibration     5          0.879              1.196              0.600
 Vibration     6          0.897              1.158              0.562
                       Q            Log10(Q)             Ln(Q)
 Total Bot       0.561566D-07         -7.250599        -16.695122
 Total V=0       0.382750D+14         13.582915         31.275819
 Vib (Bot)       0.101329D-19        -19.994266        -46.038499
 Vib (Bot)    1  0.190105D+01          0.278994          0.642407
 Vib (Bot)    2  0.905675D+00         -0.043028         -0.099075
 Vib (Bot)    3  0.528803D+00         -0.276706         -0.637139
 Vib (Bot)    4  0.436449D+00         -0.360066         -0.829083
 Vib (Bot)    5  0.306501D+00         -0.513568         -1.182534
 Vib (Bot)    6  0.292192D+00         -0.534331         -1.230343
 Vib (V=0)       0.690635D+01          0.839248          1.932441
 Vib (V=0)    1  0.246570D+01          0.391941          0.902478
 Vib (V=0)    2  0.153453D+01          0.185975          0.428223
 Vib (V=0)    3  0.122776D+01          0.089113          0.205190
 Vib (V=0)    4  0.116369D+01          0.065838          0.151598
 Vib (V=0)    5  0.108647D+01          0.036016          0.082931
 Vib (V=0)    6  0.107912D+01          0.033068          0.076143
 Electronic      0.100000D+01          0.000000          0.000000
 Translational   0.404961D+08          7.607413         17.516716
 Rotational      0.136853D+06          5.136254         11.826661
 
                                                  r134a - 1,1,1,2-Tetrafluoroetha
 ne
                                                             IR Spectrum
 
     3  3                                                                1 1   11   11  1                                            
     1  0                                                                4 4   33   11  1    9     8      6   55    4 3     2   1    
     6  9                                                                7 3   00   97  1    7     4      5   42    0 4     1   0    
     7  4                                                                4 9   51   44  3    3     3      8   14    6 9     9   8    
 
     X  X                                                                X X   XX   XX  X    X     X      X   XX    X X     X   X    
                                                                           X   XX   XX  X    X            X                          
                                                                               XX   XX  X    X                                       
                                                                               XX   XX  X    X                                       
                                                                               XX   XX  X                                            
                                                                               XX   XX  X                                            
                                                                               XX   XX  X                                            
                                                                               XX    X                                               
                                                                               XX    X                                               
                                                                                     X                                               
                                                                                     X                                               
                                                                                     X                                               
                                                                                     X                                               
                                                                                     X                                               
                                                                                     X                                               
                                                                                     X                                               
                                                                                     X                                               
                                                                                     X                                               
                                                                                     X                                               
                                                                                     X                                               
 
 
                                                  r134a - 1,1,1,2-Tetrafluoroetha
 ne
                                                            Raman Spectrum
 
     3  3                                                                1 1   11   11  1                                            
     1  0                                                                4 4   33   11  1    9     8      6   55    4 3     2   1    
     6  9                                                                7 3   00   97  1    7     4      5   42    0 4     1   0    
     7  4                                                                4 9   51   44  3    3     3      8   14    6 9     9   8    
 
     X  X                                                                X X   XX   XX  X    X     X      X   XX    X X     X   X    
     X  X                                                                                          X                                 
     X  X                                                                                                                            
     X  X                                                                                                                            
     X  X                                                                                                                            
     X  X                                                                                                                            
     X  X                                                                                                                            
     X  X                                                                                                                            
        X                                                                                                                            
        X                                                                                                                            
        X                                                                                                                            
        X                                                                                                                            
        X                                                                                                                            
        X                                                                                                                            
        X                                                                                                                            
        X                                                                                                                            
        X                                                                                                                            
        X                                                                                                                            
        X                                                                                                                            
        X                                                                                                                            
 
 ***** Axes restored to original set *****
 -------------------------------------------------------------------
 Center     Atomic                   Forces (Hartrees/Bohr)
 Number     Number              X              Y              Z
 -------------------------------------------------------------------
      1        6          -0.000002544   -0.000011349    0.000021968
      2        1           0.000002468    0.000002485   -0.000006555
      3        6          -0.000000145   -0.000000963    0.000001757
      4        9          -0.000007961   -0.000003931    0.000002257
      5        9           0.000000250    0.000004871    0.000007755
      6        9           0.000004046   -0.000000182   -0.000005751
      7        9           0.000001990    0.000007197   -0.000014493
      8        1           0.000001896    0.000001872   -0.000006938
 -------------------------------------------------------------------
 Cartesian Forces:  Max     0.000021968 RMS     0.000007117
 Force constants in Cartesian coordinates: 
                1             2             3             4             5 
      1  0.560954D+00
      2  0.475847D-01  0.596688D+00
      3  0.572282D-01  0.147262D-01  0.541240D+00
      4 -0.791480D-01 -0.786280D-01 -0.579445D-02  0.791779D-01
      5 -0.757061D-01 -0.299107D+00 -0.805078D-02  0.856486D-01  0.319175D+00
      6 -0.646868D-02 -0.164194D-01 -0.470314D-01 -0.403736D-02  0.219433D-02
      7 -0.161228D+00  0.697272D-01  0.217303D-01  0.101669D-01 -0.115135D-01
      8  0.779168D-01 -0.126436D+00 -0.291193D-01  0.234930D-01 -0.195272D-01
      9  0.862022D-02 -0.168886D-01 -0.577749D-01  0.395942D-03 -0.890182D-03
     10 -0.324058D-01 -0.453699D-02 -0.398277D-01  0.484903D-03  0.184326D-03
     11  0.164329D-01  0.722774D-02  0.139754D-01 -0.143235D-02  0.201072D-02
     12 -0.796711D-02 -0.247774D-02 -0.826249D-02  0.117453D-03  0.146121D-03
     13  0.931583D-02  0.223783D-01  0.112518D-02 -0.335348D-02  0.312163D-02
     14 -0.174437D-01 -0.481714D-01  0.524352D-02  0.734942D-02 -0.288927D-02
     15 -0.556710D-03 -0.645763D-02  0.541507D-02  0.137412D-02 -0.559200D-03
     16 -0.454536D-02 -0.103129D-01  0.329504D-01  0.161576D-03  0.116171D-02
     17  0.468819D-02  0.838992D-02 -0.100849D-01 -0.109522D-02  0.202384D-02
     18  0.893641D-02  0.123182D-01 -0.266012D-01 -0.785734D-03 -0.563573D-03
     19 -0.928199D-01 -0.179178D-01  0.689140D-01 -0.407101D-02 -0.387480D-02
     20 -0.193230D-01 -0.769789D-01  0.466228D-01 -0.137931D-01 -0.907025D-03
     21  0.711635D-01  0.445243D-01 -0.243434D+00  0.962524D-02  0.765623D-02
     22 -0.200122D+00 -0.282944D-01 -0.136326D+00 -0.341879D-02  0.978099D-03
     23 -0.341498D-01 -0.616124D-01 -0.333130D-01 -0.215425D-01 -0.779158D-03
     24 -0.130956D+00 -0.293253D-01 -0.163551D+00 -0.895209D-03  0.670500D-04
                6             7             8             9            10 
      6  0.580472D-01
      7 -0.582146D-02  0.587860D+00
      8 -0.323838D-02 -0.531754D-01  0.566251D+00
      9  0.157744D-02 -0.870838D-02  0.134275D-01  0.516541D+00
     10  0.329379D-03 -0.209477D+00  0.652000D-02 -0.893376D-01  0.247833D+00
     11  0.450529D-03 -0.803826D-03 -0.760431D-01 -0.508711D-02  0.282830D-01
     12  0.257731D-03 -0.100341D+00 -0.138081D-02 -0.142436D+00  0.161481D+00
     13  0.186594D-02 -0.820965D-01 -0.275507D-01 -0.707012D-03 -0.213145D-01
     14 -0.176885D-02 -0.147631D-01 -0.273884D+00 -0.108574D-01 -0.370890D-01
     15  0.153759D-03  0.154992D-02 -0.640382D-02 -0.719749D-01 -0.228997D-01
     16  0.645992D-04 -0.119856D+00 -0.195318D-02  0.756718D-01  0.177250D-01
     17 -0.148530D-03 -0.720144D-02 -0.771194D-01  0.201023D-01  0.223205D-02
     18 -0.387033D-03  0.840733D-01  0.122644D-01 -0.216471D+00 -0.159667D-01
     19  0.184383D-01 -0.963598D-02 -0.156656D-01  0.345266D-01  0.262107D-02
     20  0.376684D-01  0.216891D-02  0.296230D-02 -0.132783D-01 -0.121226D-02
     21 -0.152910D-01  0.597687D-02  0.133563D-01 -0.336159D-01  0.301942D-02
     22 -0.437072D-02 -0.157336D-01 -0.958492D-02 -0.204615D-01 -0.546746D-02
     23 -0.187381D-01  0.155611D-01  0.379703D-02  0.134718D-01  0.561884D-02
     24  0.267326D-02  0.154060D-02  0.109411D-02  0.415378D-02  0.320152D-02
               11            12            13            14            15 
     11  0.796500D-01
     12  0.217044D-01  0.218801D+00
     13 -0.498864D-01 -0.218066D-01  0.949774D-01
     14 -0.237923D-01 -0.247992D-01  0.845529D-01  0.375910D+00
     15 -0.345400D-01 -0.201858D-02  0.322302D-02 -0.543062D-03  0.753962D-01
     16  0.337576D-02 -0.311319D-01 -0.712980D-03 -0.241640D-01  0.180643D-01
     17  0.117886D-01  0.635817D-02 -0.318482D-01 -0.330773D-01  0.495055D-01
     18  0.625828D-02 -0.736184D-01  0.170309D-01  0.364216D-01 -0.103145D-01
     19  0.284665D-03 -0.275264D-03  0.128238D-02  0.151460D-02 -0.194289D-02
     20  0.804222D-03 -0.625945D-03  0.208309D-03  0.518344D-02 -0.501428D-03
     21 -0.152878D-02  0.625236D-02 -0.750148D-03 -0.378500D-02  0.321182D-02
     22  0.374620D-02 -0.768216D-04  0.190182D-02  0.428305D-04  0.118790D-02
     23 -0.164588D-02  0.107497D-02 -0.975863D-03  0.720343D-03 -0.500319D-03
     24 -0.123264D-02  0.102435D-02  0.187164D-04  0.883158D-04  0.131183D-03
               16            17            18            19            20 
     16  0.114020D+00
     17  0.281697D-01  0.883402D-01
     18 -0.102327D+00 -0.623087D-01  0.328259D+00
     19 -0.784588D-02  0.474688D-02  0.720904D-02  0.960527D-01
     20  0.514866D-02 -0.747135D-04 -0.425666D-02  0.254289D-01  0.648715D-01
     21  0.656587D-02 -0.365663D-02 -0.188257D-02 -0.113884D+00 -0.664995D-01
     22  0.105426D-02  0.307995D-03  0.182942D-02  0.144166D-01  0.137358D-02
     23 -0.142570D-02 -0.271179D-03 -0.133630D-03  0.548321D-02  0.413916D-02
     24  0.141475D-03  0.232749D-03  0.101531D-02 -0.129861D-01  0.870575D-03
               21            22            23            24 
     21  0.323584D+00
     22  0.182829D-01  0.207370D+00
     23  0.993315D-02  0.314306D-01  0.556521D-01
     24 -0.388248D-01  0.139935D+00  0.282052D-01  0.193378D+00
 FormGI is forming the generalized inverse of G from B-inverse, IUseBI=4.
 Force constants in internal coordinates: 
                1             2             3             4             5 
      1  0.346569D+00
      2  0.205242D-02  0.295241D+00
      3  0.124382D-01  0.167494D-01  0.386525D+00
      4  0.131270D-02  0.205242D-02  0.124382D-01  0.346569D+00
      5  0.516850D-03  0.176222D-01  0.522548D-02 -0.796698D-04  0.399368D+00
      6 -0.796696D-04  0.176222D-01  0.522548D-02  0.516850D-03  0.544170D-01
      7  0.147467D-02  0.171550D-01  0.471237D-02  0.147467D-02  0.532755D-01
      8  0.758141D-02  0.124476D-01 -0.249315D-01 -0.832238D-02 -0.139348D-02
      9 -0.404689D-03 -0.119441D-01  0.138777D-01  0.132384D-02  0.743219D-03
     10  0.307806D-02 -0.144424D-01  0.211878D-02  0.307806D-02 -0.343501D-02
     11 -0.334537D-02  0.139840D-01  0.200476D-01 -0.334537D-02 -0.715431D-02
     12 -0.832238D-02  0.124476D-01 -0.249315D-01  0.758141D-02  0.117636D-01
     13  0.132384D-02 -0.119441D-01  0.138777D-01 -0.404690D-03 -0.597994D-03
     14 -0.253678D-02  0.170581D-01 -0.422146D-02  0.440792D-02  0.153513D-01
     15  0.440792D-02  0.170581D-01 -0.422146D-02 -0.253678D-02 -0.302436D-01
     16 -0.115530D-02  0.107388D-01  0.175019D-01 -0.115530D-02 -0.277532D-01
     17 -0.465851D-03 -0.179059D-01 -0.107589D-02 -0.465851D-03  0.199878D-01
     18  0.690676D-04 -0.147363D-01 -0.413734D-02 -0.379879D-03  0.203064D-01
     19 -0.379879D-03 -0.147363D-01 -0.413733D-02  0.690681D-04  0.425231D-02
     20 -0.138728D-02  0.575041D-03  0.175538D-01 -0.265902D-02 -0.101122D-02
     21 -0.642292D-03  0.194143D-02  0.100673D-01 -0.191403D-02  0.141910D-01
     22  0.863366D-03  0.125824D-02  0.138106D-01 -0.416468D-02 -0.175718D-01
     23 -0.345976D-02 -0.683195D-03  0.374323D-02  0.271477D-02  0.317103D-02
     24 -0.271477D-02  0.683194D-03 -0.374323D-02  0.345976D-02  0.183733D-01
     25 -0.120911D-02  0.000000D+00  0.000000D+00  0.120911D-02 -0.133896D-01
     26  0.191403D-02 -0.194143D-02 -0.100673D-01  0.642292D-03  0.108508D-02
     27  0.265902D-02 -0.575043D-03 -0.175538D-01  0.138728D-02  0.162873D-01
     28  0.416468D-02 -0.125824D-02 -0.138106D-01 -0.863367D-03 -0.154755D-01
                6             7             8             9            10 
      6  0.399368D+00
      7  0.532755D-01  0.385016D+00
      8  0.117636D-01 -0.289032D-02  0.110544D+00
      9 -0.597994D-03 -0.627065D-02 -0.447254D-01  0.713988D-01
     10 -0.343501D-02  0.305274D-03 -0.410140D-01  0.134074D-01  0.504111D-01
     11 -0.715430D-02  0.183908D-01 -0.173627D-01 -0.676853D-01  0.413634D-02
     12 -0.139348D-02 -0.289032D-02 -0.143796D-01  0.739203D-02 -0.410140D-01
     13  0.743219D-03 -0.627065D-02  0.739203D-02  0.183393D-01  0.134074D-01
     14 -0.302436D-01 -0.272076D-01 -0.990354D-02  0.593368D-02 -0.411937D-02
     15  0.153513D-01 -0.272076D-01  0.236312D-01 -0.453906D-02 -0.411937D-02
     16 -0.277532D-01  0.209734D-01 -0.898556D-02 -0.764109D-02  0.409881D-02
     17  0.199878D-01  0.475088D-02 -0.474706D-02  0.320617D-03  0.278307D-02
     18  0.425231D-02  0.157761D-01  0.354935D-02  0.219564D-02  0.825002D-03
     19  0.203064D-01  0.157761D-01 -0.390520D-02  0.404313D-02  0.825002D-03
     20 -0.162873D-01  0.181065D-01 -0.603096D-02  0.850053D-02 -0.470124D-02
     21 -0.108508D-02 -0.149770D-01 -0.229082D-02  0.992265D-02 -0.703149D-02
     22  0.154755D-01  0.156473D-02  0.161675D-02  0.710806D-02 -0.586636D-02
     23 -0.183733D-01  0.165417D-01 -0.771064D-02 -0.112463D-01  0.116512D-02
     24 -0.317103D-02 -0.165417D-01 -0.397050D-02 -0.982418D-02 -0.116512D-02
     25  0.133896D-01  0.000000D+00 -0.629247D-04 -0.126388D-01  0.000000D+00
     26 -0.141910D-01  0.149770D-01  0.224793D-02  0.222213D-02  0.703149D-02
     27  0.101122D-02 -0.181065D-01  0.598807D-02  0.364424D-02  0.470124D-02
     28  0.175718D-01 -0.156473D-02  0.989565D-02  0.829661D-03  0.586636D-02
               11            12            13            14            15 
     11  0.169553D+00
     12 -0.173627D-01  0.110544D+00
     13 -0.676853D-01 -0.447254D-01  0.713988D-01
     14 -0.111398D-01  0.236312D-01 -0.453906D-02  0.177978D+00
     15 -0.111398D-01 -0.990354D-02  0.593368D-02 -0.576158D-02  0.177978D+00
     16  0.296820D-01 -0.898556D-02 -0.764108D-02  0.545577D-03  0.545581D-03
     17  0.612867D-02 -0.474706D-02  0.320617D-03 -0.914799D-01 -0.914799D-01
     18 -0.686966D-02 -0.390520D-02  0.404313D-02 -0.834556D-01 -0.745919D-02
     19 -0.686966D-02  0.354935D-02  0.219564D-02 -0.745919D-02 -0.834556D-01
     20  0.120547D-01 -0.598807D-02 -0.364424D-02 -0.206164D-02 -0.671461D-02
     21  0.393926D-02 -0.224793D-02 -0.222213D-02  0.341846D-02 -0.123451D-02
     22  0.799700D-02 -0.989565D-02 -0.829661D-03 -0.909122D-02  0.579507D-02
     23  0.405774D-02  0.397050D-02  0.982418D-02  0.328673D-02 -0.876683D-02
     24 -0.405774D-02  0.771064D-02  0.112463D-01  0.876683D-02 -0.328673D-02
     25  0.000000D+00  0.629239D-04  0.126388D-01 -0.374285D-02  0.374285D-02
     26 -0.393926D-02  0.229082D-02 -0.992265D-02  0.123451D-02 -0.341846D-02
     27 -0.120547D-01  0.603096D-02 -0.850053D-02  0.671461D-02  0.206163D-02
     28 -0.799700D-02 -0.161675D-02 -0.710806D-02 -0.579507D-02  0.909122D-02
               16            17            18            19            20 
     16  0.177968D+00
     17 -0.879978D-02  0.127356D+00
     18 -0.900594D-01  0.369138D-01  0.117716D+00
     19 -0.900594D-01  0.369138D-01  0.370298D-01  0.117716D+00
     20  0.826330D-02 -0.154890D-01  0.173632D-01 -0.489395D-03  0.265432D-01
     21 -0.237177D-02  0.178490D-01 -0.300195D-03 -0.181528D-01  0.108017D-03
     22  0.294577D-02  0.117998D-02 -0.180940D-01  0.173044D-01  0.764476D-03
     23  0.531753D-02 -0.166690D-01  0.166433D-01  0.102004D-02  0.126701D-01
     24 -0.531753D-02  0.166690D-01 -0.102004D-02 -0.166433D-01 -0.137650D-01
     25  0.000000D+00  0.000000D+00 -0.188138D-01  0.188138D-01 -0.131086D-01
     26  0.237177D-02 -0.178490D-01  0.181528D-01  0.300196D-03  0.135354D-01
     27 -0.826330D-02  0.154890D-01  0.489396D-03 -0.173632D-01 -0.128997D-01
     28 -0.294576D-02 -0.117998D-02 -0.173044D-01  0.180940D-01 -0.122433D-01
               21            22            23            24            25 
     21  0.248513D-01
     22 -0.814449D-04  0.270065D-01
     23 -0.129191D-01 -0.135969D-01  0.285609D-01
     24  0.118242D-01 -0.144429D-01  0.297166D-02  0.285609D-01
     25 -0.131086D-01  0.126451D-01  0.229384D-02  0.229384D-02  0.280475D-01
     26 -0.112079D-01 -0.113973D-01  0.118242D-01 -0.129191D-01 -0.131086D-01
     27  0.135354D-01 -0.122433D-01 -0.137650D-01  0.126701D-01 -0.131086D-01
     28 -0.113973D-01  0.148447D-01 -0.144429D-01 -0.135969D-01  0.126451D-01
               26            27            28 
     26  0.248513D-01
     27  0.108017D-03  0.265432D-01
     28 -0.814443D-04  0.764476D-03  0.270065D-01
 Leave Link  716 at Thu Apr  2 15:49:22 2026, MaxMem=  1073741824 cpu:               0.1 elap:               0.0
 (Enter /Users/yarger/Applications/g16/l103.exe)

 GradGradGradGradGradGradGradGradGradGradGradGradGradGradGradGradGradGrad
 Berny optimization.
 Red2BG is reusing G-inverse.
 Internal  Forces:  Max     0.000013497 RMS     0.000004032
 Search for a local minimum.
 Step number   1 out of a maximum of    2
 All quantities printed in internal units (Hartrees-Bohrs-Radians)
 Second derivative matrix not updated -- analytic derivatives used.
 ITU=  0
     Eigenvalues ---    0.00283   0.04913   0.07088   0.09181   0.09757
     Eigenvalues ---    0.14013   0.14494   0.19714   0.22873   0.24794
     Eigenvalues ---    0.27369   0.34327   0.34665   0.36401   0.36974
     Eigenvalues ---    0.37305   0.41426   0.52544
 Angle between quadratic step and forces=  47.11 degrees.
 Linear search not attempted -- first point.
 Iteration  1 RMS(Cart)=  0.00002150 RMS(Int)=  0.00000000
 Iteration  2 RMS(Cart)=  0.00000000 RMS(Int)=  0.00000000
 ITry= 1 IFail=0 DXMaxC= 4.83D-05 DCOld= 1.00D+10 DXMaxT= 3.00D-01 DXLimC= 3.00D+00 Rises=F
 ClnCor:  largest displacement from symmetrization is 2.60D-12 for atom     8.
 Variable       Old X    -DE/DX   Delta X   Delta X   Delta X     New X
                                 (Linear)    (Quad)   (Total)
    R1        2.07337   0.00000   0.00000   0.00001   0.00001   2.07338
    R2        2.87064  -0.00000   0.00000  -0.00001  -0.00001   2.87063
    R3        2.60161  -0.00001   0.00000  -0.00005  -0.00005   2.60155
    R4        2.07337   0.00000   0.00000   0.00001   0.00001   2.07338
    R5        2.53516  -0.00001   0.00000  -0.00001  -0.00001   2.53515
    R6        2.53516  -0.00001   0.00000  -0.00001  -0.00001   2.53515
    R7        2.55023   0.00001   0.00000   0.00002   0.00002   2.55025
    A1        1.90098  -0.00000   0.00000  -0.00002  -0.00002   1.90096
    A2        1.90825   0.00000   0.00000   0.00003   0.00003   1.90828
    A3        1.93446  -0.00000   0.00000  -0.00005  -0.00005   1.93441
    A4        1.91077   0.00000   0.00000   0.00004   0.00004   1.91080
    A5        1.90098  -0.00000   0.00000  -0.00002  -0.00002   1.90096
    A6        1.90825   0.00000   0.00000   0.00003   0.00003   1.90828
    A7        1.95613  -0.00000   0.00000  -0.00000  -0.00000   1.95613
    A8        1.95613  -0.00000   0.00000  -0.00000  -0.00000   1.95613
    A9        1.90106  -0.00000   0.00000  -0.00000  -0.00000   1.90105
   A10        1.88056  -0.00000   0.00000  -0.00002  -0.00002   1.88054
   A11        1.88365   0.00000   0.00000   0.00001   0.00001   1.88366
   A12        1.88365   0.00000   0.00000   0.00001   0.00001   1.88366
    D1        1.02718   0.00000   0.00000   0.00006   0.00006   1.02724
    D2       -3.13893  -0.00000   0.00000   0.00003   0.00003  -3.13890
    D3       -1.05587   0.00000   0.00000   0.00004   0.00004  -1.05583
    D4       -1.05853   0.00000   0.00000   0.00001   0.00001  -1.05852
    D5        1.05853  -0.00000   0.00000  -0.00001  -0.00001   1.05852
    D6        3.14159  -0.00000   0.00000  -0.00000   0.00000   3.14159
    D7        3.13893   0.00000   0.00000  -0.00003  -0.00003   3.13890
    D8       -1.02718  -0.00000   0.00000  -0.00006  -0.00006  -1.02724
    D9        1.05587  -0.00000   0.00000  -0.00004  -0.00004   1.05583
         Item               Value     Threshold  Converged?
 Maximum Force            0.000013     0.000015     YES
 RMS     Force            0.000004     0.000010     YES
 Maximum Displacement     0.000048     0.000060     YES
 RMS     Displacement     0.000021     0.000040     YES
 Predicted change in Energy=-1.138535D-09
 Optimization completed.
    -- Stationary point found.
                           ----------------------------
                           !   Optimized Parameters   !
                           ! (Angstroms and Degrees)  !
 --------------------------                            --------------------------
 ! Name  Definition              Value          Derivative Info.                !
 --------------------------------------------------------------------------------
 ! R1    R(1,2)                  1.0972         -DE/DX =    0.0                 !
 ! R2    R(1,3)                  1.5191         -DE/DX =    0.0                 !
 ! R3    R(1,7)                  1.3767         -DE/DX =    0.0                 !
 ! R4    R(1,8)                  1.0972         -DE/DX =    0.0                 !
 ! R5    R(3,4)                  1.3415         -DE/DX =    0.0                 !
 ! R6    R(3,5)                  1.3415         -DE/DX =    0.0                 !
 ! R7    R(3,6)                  1.3495         -DE/DX =    0.0                 !
 ! A1    A(2,1,3)              108.9183         -DE/DX =    0.0                 !
 ! A2    A(2,1,7)              109.3347         -DE/DX =    0.0                 !
 ! A3    A(2,1,8)              110.8366         -DE/DX =    0.0                 !
 ! A4    A(3,1,7)              109.479          -DE/DX =    0.0                 !
 ! A5    A(3,1,8)              108.9183         -DE/DX =    0.0                 !
 ! A6    A(7,1,8)              109.3347         -DE/DX =    0.0                 !
 ! A7    A(1,3,4)              112.0782         -DE/DX =    0.0                 !
 ! A8    A(1,3,5)              112.0782         -DE/DX =    0.0                 !
 ! A9    A(1,3,6)              108.9224         -DE/DX =    0.0                 !
 ! A10   A(4,3,5)              107.748          -DE/DX =    0.0                 !
 ! A11   A(4,3,6)              107.925          -DE/DX =    0.0                 !
 ! A12   A(5,3,6)              107.925          -DE/DX =    0.0                 !
 ! D1    D(2,1,3,4)             58.8533         -DE/DX =    0.0                 !
 ! D2    D(2,1,3,5)           -179.8476         -DE/DX =    0.0                 !
 ! D3    D(2,1,3,6)            -60.4971         -DE/DX =    0.0                 !
 ! D4    D(7,1,3,4)            -60.6496         -DE/DX =    0.0                 !
 ! D5    D(7,1,3,5)             60.6496         -DE/DX =    0.0                 !
 ! D6    D(7,1,3,6)            180.0            -DE/DX =    0.0                 !
 ! D7    D(8,1,3,4)            179.8476         -DE/DX =    0.0                 !
 ! D8    D(8,1,3,5)            -58.8533         -DE/DX =    0.0                 !
 ! D9    D(8,1,3,6)             60.4971         -DE/DX =    0.0                 !
 --------------------------------------------------------------------------------
 GradGradGradGradGradGradGradGradGradGradGradGradGradGradGradGradGradGrad

 Leave Link  103 at Thu Apr  2 15:49:22 2026, MaxMem=  1073741824 cpu:               0.0 elap:               0.0
 (Enter /Users/yarger/Applications/g16/l9999.exe)

 ----------------------------------------------------------------------

 Electric dipole moment (input orientation):
 (Debye = 10**-18 statcoulomb cm , SI units = C m)
                  (au)            (Debye)         (10**-30 SI)
   Tot        0.824906D+00      0.209670D+01      0.699385D+01
   x         -0.367158D+00     -0.933223D+00     -0.311290D+01
   y          0.606211D+00      0.154083D+01      0.513967D+01
   z         -0.422106D+00     -0.107289D+01     -0.357876D+01

 Dipole polarizability, Alpha (input orientation).
 (esu units = cm**3 , SI units = C**2 m**2 J**-1)
 Alpha(0;0):
               (au)            (10**-24 esu)      (10**-40 SI)
   iso        0.302184D+02      0.447791D+01      0.498234D+01
   aniso      0.187493D+01      0.277835D+00      0.309134D+00
   xx         0.301630D+02      0.446970D+01      0.497321D+01
   yx        -0.405898D+00     -0.601479D-01     -0.669235D-01
   yy         0.297114D+02      0.440277D+01      0.489874D+01
   zx        -0.813382D+00     -0.120531D+00     -0.134109D+00
   zy        -0.239140D+00     -0.354369D-01     -0.394288D-01
   zz         0.307808D+02      0.456125D+01      0.507508D+01

 First dipole hyperpolarizability, Beta (input orientation).
 ||, _|_  parallel and perpendicular components, (z) with respect to z axis,
 vector components x,y,z.  Values do not include the 1/n! factor of 1/2.
 (esu units = statvolt**-1 cm**4 , SI units = C**3 m**3 J**-2)
 Beta(0;0,0):
               (au)            (10**-30 esu)      (10**-50 SI)
   || (z)    -0.267248D+02     -0.230881D+00     -0.856892D-01
   _|_(z)    -0.890825D+01     -0.769603D-01     -0.285631D-01
   x         -0.771973D+02     -0.666924D+00     -0.247522D+00
   y          0.155491D+03      0.134332D+01      0.498561D+00
   z         -0.133624D+03     -0.115441D+01     -0.428446D+00
   ||         0.438143D+02      0.378521D+00      0.140484D+00
   xxx       -0.158464D+02     -0.136901D+00     -0.508093D-01
   xxy        0.710254D+01      0.613604D-01      0.227733D-01
   yxy        0.114888D+01      0.992541D-02      0.368372D-02
   yyy        0.398839D+02      0.344566D+00      0.127882D+00
   xxz       -0.144976D+02     -0.125248D+00     -0.464846D-01
   yxz        0.253282D+00      0.218816D-02      0.812113D-03
   yyz       -0.755212D+01     -0.652445D-01     -0.242148D-01
   zxz       -0.110349D+02     -0.953330D-01     -0.353819D-01
   zyz        0.484395D+01      0.418480D-01      0.155315D-01
   zzz       -0.224915D+02     -0.194309D+00     -0.721159D-01

 ----------------------------------------------------------------------

 Dipole orientation:
     6         -3.11129212         -3.12111402          1.81745336
     1         -2.11509354         -4.51749089          2.98218246
     6         -1.29242580         -2.07613302         -0.14222158
     9         -0.35017302         -3.89638390         -1.63415876
     9         -2.39034426         -0.34531570         -1.63415876
     9          0.65954375         -0.95468113          1.05604736
     9         -5.11278464         -4.27101800          0.61740865
     1         -3.81585705         -1.55718683          2.98218246

 Electric dipole moment (dipole orientation):
 (Debye = 10**-18 statcoulomb cm , SI units = C m)
                  (au)            (Debye)         (10**-30 SI)
   Tot        0.824906D+00      0.209670D+01      0.699385D+01
   x          0.000000D+00      0.000000D+00      0.000000D+00
   y          0.000000D+00      0.000000D+00      0.000000D+00
   z          0.824906D+00      0.209670D+01      0.699385D+01

 Dipole polarizability, Alpha (dipole orientation).
 (esu units = cm**3 , SI units = C**2 m**2 J**-1)
 Alpha(0;0):
               (au)            (10**-24 esu)      (10**-40 SI)
   iso        0.302184D+02      0.447791D+01      0.498234D+01
   aniso      0.187493D+01      0.277835D+00      0.309134D+00
   xx         0.307869D+02      0.456214D+01      0.507607D+01
   yx         0.921290D+00      0.136521D+00      0.151900D+00
   yy         0.297126D+02      0.440295D+01      0.489895D+01
   zx         0.154011D+00      0.228221D-01      0.253930D-01
   zy         0.884830D-01      0.131118D-01      0.145889D-01
   zz         0.301558D+02      0.446862D+01      0.497201D+01

 First dipole hyperpolarizability, Beta (dipole orientation).
 ||, _|_  parallel and perpendicular components, (z) with respect to z axis,
 vector components x,y,z.  Values do not include the 1/n! factor of 1/2.
 (esu units = statvolt**-1 cm**4 , SI units = C**3 m**3 J**-2)
 Beta(0;0,0):
               (au)            (10**-30 esu)      (10**-50 SI)
   || (z)     0.434007D+02      0.374948D+00      0.139158D+00
   _|_(z)     0.144669D+02      0.124983D+00      0.463861D-01
   x          0.260379D+02      0.224948D+00      0.834870D-01
   y          0.149594D+02      0.129238D+00      0.479653D-01
   z          0.217003D+03      0.187474D+01      0.695791D+00
   ||         0.438143D+02      0.378521D+00      0.140484D+00
   xxx        0.549742D+01      0.474934D-01      0.176267D-01
   xxy       -0.372432D+00     -0.321752D-02     -0.119415D-02
   yxy        0.184459D+01      0.159358D-01      0.591443D-02
   yyy        0.459059D+01      0.396591D-01      0.147191D-01
   xxz        0.115007D+02      0.993568D-01      0.368753D-01
   yxz       -0.792513D+01     -0.684670D-01     -0.254108D-01
   yyz        0.207418D+02      0.179193D+00      0.665056D-01
   zxz        0.133730D+01      0.115532D-01      0.428787D-02
   zyz        0.768311D+00      0.663761D-02      0.246348D-02
   zzz        0.400920D+02      0.346364D+00      0.128550D+00

 ----------------------------------------------------------------------
 1\1\GINC-MACBOOKPRO\Freq\RwB97XD\Aug-CC-pVDZ\C2H2F4\ROOT\02-Apr-2026\0
 \\#P Geom=AllCheck Guess=TCheck SCRF=Check GenChk RwB97XD/Aug-CC-pVDZ 
 Freq\\r134a - 1,1,1,2-Tetrafluoroethane\\0,1\C,-1.5013669244,1.4121186
 89,1.4544284626\H,-1.1577320801,2.4540752436,1.4474343917\C,-0.3230821
 746,0.502862871,1.1502936681\F,0.6700095346,0.6496788143,2.0402181983\
 F,-0.6747160816,-0.7917393782,1.1397891331\F,0.16385519,0.8109118321,-
 0.070040689\F,-2.0074004176,1.1073861893,2.6979724718\H,-2.2787459504,
 1.2524548035,0.6968028434\\Version=EM64M-G16RevA.03\State=1-A'\HF=-476
 .7168951\RMSD=2.636e-09\RMSF=7.117e-06\ZeroPoint=0.0452934\Thermal=0.0
 507771\Dipole=-0.367158,0.6062109,-0.4221061\DipoleDeriv=0.3526765,0.0
 898079,-0.2123954,0.1058906,0.27306,-0.1042532,-0.2381407,-0.0802349,0
 .790809,0.0469802,-0.0399222,0.0312216,-0.0438132,-0.0418836,0.032172,
 0.0200786,-0.0344187,0.0429213,1.4823373,0.1190287,0.0869766,0.1446745
 ,1.5695717,-0.0582326,0.0459224,-0.0199324,1.6314906,-0.7123909,-0.034
 2083,-0.3584213,0.016956,-0.3174592,-0.0321771,-0.2878505,-0.0643589,-
 0.5632001,-0.3648506,-0.0722114,0.0099087,-0.1613073,-0.9485932,-0.006
 1739,0.0000593,-0.0306402,-0.2796064,-0.4229762,-0.0474329,0.2804511,-
 0.0002186,-0.3396429,0.0861514,0.2048698,0.1566627,-0.8427753,-0.37599
 39,-0.012751,0.2321521,-0.034243,-0.2711239,0.1102275,0.2665568,0.0781
 308,-0.7573685,-0.0057825,-0.0023108,-0.0698935,-0.027939,0.0760711,-0
 .0277142,-0.0114957,-0.0052084,-0.0222706\Polar=30.1630289,-0.4058979,
 29.71136,-0.8133819,-0.2391398,30.7808489\PolarDeriv=0.3368896,1.32614
 29,-2.9378839,1.2970026,-0.1744807,2.8921945,1.1960464,-2.2267141,-4.1
 372342,-0.1988013,0.2162858,0.6880391,2.4526937,-0.2973745,1.3809657,3
 .5655274,0.7158098,-0.6616763,0.9728057,1.1436785,1.8109115,-0.4099768
 ,-0.0597122,0.1567819,1.4809084,0.8741943,7.8014459,-0.0864603,-0.1314
 217,1.4127384,-0.2712084,-0.0447987,-0.1456645,-0.0923966,1.1837007,0.
 0937292,-0.0460273,-1.0436934,1.974282,-0.9668793,0.2936758,-1.8347492
 ,-1.1167507,1.2694573,2.3271026,0.0222331,-0.0653732,-0.7377285,-1.588
 7038,0.6300708,-0.3494825,-1.8949051,-0.6630427,1.0419611,4.6962932,0.
 2716247,0.7880487,1.9397227,-0.0274073,1.6874511,0.2680212,1.3086068,0
 .2495209,0.2202611,1.0430709,0.2960096,2.1040962,0.0973128,0.7741775,2
 .193538,0.0900511,3.5643772,-0.917811,-1.7764371,-1.1482037,-0.0408797
 ,-0.0064494,-0.2779433,-1.0761378,-0.7831582,-6.9738457,0.0161121,-0.1
 627617,-1.3364463,0.0577068,-0.0715131,0.0877222,-0.2937479,-1.5646149
 ,-0.0745306,1.940944,0.4836694,0.351628,-1.9227127,-0.0928457,1.405842
 1,0.3479389,0.7063564,0.8017725,-0.2317994,-1.5506615,0.7918672,-1.454
 7819,-0.3920248,-0.9753674,1.7961175,0.6127934,-6.2012673,-2.2931588,-
 0.2927126,0.0141074,2.3051924,0.0028538,-1.5877114,-0.4117694,-0.57204
 49,-0.3086627,0.3578125,1.4745403,-0.5471617,1.51161,-0.1137631,0.2842
 674,-2.8149346,-0.213767,6.0080329,-4.6899355,-0.1122724,-0.8528899,-2
 .2014695,0.0643658,-2.4418654,-0.6882569,-0.5766976,0.2399008,-0.09935
 77,-0.8236788,-0.5673176,-2.8114126,0.1920908,-1.0566185,-2.4591988,-0
 .16093,-3.7706261\HyperPolar=-15.8463988,7.1025355,1.1488776,39.883920
 7,-14.4976283,0.2532817,-7.5521219,-11.0349083,4.8439537,-22.4915028\Q
 uadrupole=0.0389312,1.4786512,-1.5175825,-0.6514361,1.8819535,-0.43238
 55\PG=CS [SG(C2F2),X(H2F2)]\NImag=0\\0.56095390,0.04758467,0.59668835,
 0.05722819,0.01472620,0.54124012,-0.07914804,-0.07862796,-0.00579445,0
 .07917794,-0.07570611,-0.29910675,-0.00805078,0.08564862,0.31917481,-0
 .00646868,-0.01641938,-0.04703137,-0.00403736,0.00219433,0.05804719,-0
 .16122831,0.06972718,0.02173034,0.01016690,-0.01151348,-0.00582146,0.5
 8786044,0.07791685,-0.12643649,-0.02911930,0.02349300,-0.01952716,-0.0
 0323838,-0.05317540,0.56625070,0.00862022,-0.01688862,-0.05777490,0.00
 039594,-0.00089018,0.00157744,-0.00870838,0.01342748,0.51654077,-0.032
 40580,-0.00453699,-0.03982769,0.00048490,0.00018433,0.00032938,-0.2094
 7652,0.00652000,-0.08933762,0.24783331,0.01643291,0.00722774,0.0139753
 5,-0.00143235,0.00201072,0.00045053,-0.00080383,-0.07604315,-0.0050871
 1,0.02828304,0.07965001,-0.00796711,-0.00247774,-0.00826249,0.00011745
 ,0.00014612,0.00025773,-0.10034118,-0.00138081,-0.14243565,0.16148133,
 0.02170441,0.21880069,0.00931583,0.02237831,0.00112518,-0.00335348,0.0
 0312163,0.00186594,-0.08209650,-0.02755075,-0.00070701,-0.02131448,-0.
 04988639,-0.02180655,0.09497740,-0.01744369,-0.04817145,0.00524352,0.0
 0734942,-0.00288927,-0.00176885,-0.01476305,-0.27388388,-0.01085741,-0
 .03708900,-0.02379226,-0.02479917,0.08455292,0.37591040,-0.00055671,-0
 .00645763,0.00541507,0.00137412,-0.00055920,0.00015376,0.00154992,-0.0
 0640382,-0.07197495,-0.02289968,-0.03454004,-0.00201858,0.00322302,-0.
 00054306,0.07539621,-0.00454536,-0.01031293,0.03295040,0.00016158,0.00
 116171,0.00006460,-0.11985640,-0.00195318,0.07567181,0.01772498,0.0033
 7576,-0.03113186,-0.00071298,-0.02416403,0.01806432,0.11401981,0.00468
 819,0.00838992,-0.01008489,-0.00109522,0.00202384,-0.00014853,-0.00720
 144,-0.07711936,0.02010234,0.00223205,0.01178860,0.00635817,-0.0318481
 6,-0.03307733,0.04950550,0.02816971,0.08834022,0.00893641,0.01231820,-
 0.02660125,-0.00078573,-0.00056357,-0.00038703,0.08407329,0.01226445,-
 0.21647057,-0.01596667,0.00625828,-0.07361840,0.01703085,0.03642164,-0
 .01031452,-0.10232662,-0.06230870,0.32825903,-0.09281990,-0.01791784,0
 .06891403,-0.00407101,-0.00387480,0.01843830,-0.00963598,-0.01566561,0
 .03452659,0.00262107,0.00028467,-0.00027526,0.00128238,0.00151460,-0.0
 0194289,-0.00784588,0.00474688,0.00720904,0.09605273,-0.01932304,-0.07
 697891,0.04662285,-0.01379305,-0.00090703,0.03766843,0.00216891,0.0029
 6230,-0.01327828,-0.00121226,0.00080422,-0.00062594,0.00020831,0.00518
 344,-0.00050143,0.00514866,-0.00007471,-0.00425666,0.02542890,0.064871
 52,0.07116349,0.04452428,-0.24343380,0.00962524,0.00765623,-0.01529097
 ,0.00597687,0.01335628,-0.03361592,0.00301942,-0.00152878,0.00625236,-
 0.00075015,-0.00378500,0.00321182,0.00656587,-0.00365663,-0.00188257,-
 0.11388370,-0.06649953,0.32358385,-0.20012234,-0.02829443,-0.13632600,
 -0.00341879,0.00097810,-0.00437072,-0.01573363,-0.00958492,-0.02046155
 ,-0.00546746,0.00374620,-0.00007682,0.00190182,0.00004283,0.00118790,0
 .00105426,0.00030800,0.00182942,0.01441660,0.00137358,0.01828295,0.207
 36954,-0.03414977,-0.06161242,-0.03331296,-0.02154246,-0.00077916,-0.0
 1873815,0.01556110,0.00379703,0.01347179,0.00561884,-0.00164588,0.0010
 7497,-0.00097586,0.00072034,-0.00050032,-0.00142570,-0.00027118,-0.000
 13363,0.00548321,0.00413916,0.00993315,0.03143064,0.05565211,-0.130955
 81,-0.02932531,-0.16355139,-0.00089521,0.00006705,0.00267326,0.0015406
 0,0.00109411,0.00415378,0.00320152,-0.00123264,0.00102435,0.00001872,0
 .00008832,0.00013118,0.00014148,0.00023275,0.00101531,-0.01298611,0.00
 087058,-0.03882477,0.13993482,0.02820515,0.19337829\\0.00000254,0.0000
 1135,-0.00002197,-0.00000247,-0.00000249,0.00000656,0.00000014,0.00000
 096,-0.00000176,0.00000796,0.00000393,-0.00000226,-0.00000025,-0.00000
 487,-0.00000776,-0.00000405,0.00000018,0.00000575,-0.00000199,-0.00000
 720,0.00001449,-0.00000190,-0.00000187,0.00000694\\\@


 SUPPORT THE RIGHT TO ARM BEARS!
 (ADD A CLAWS TO THE BILL OF RIGHTS)
 Job cpu time:       0 days  0 hours  3 minutes 46.0 seconds.
 Elapsed time:       0 days  0 hours  0 minutes 56.9 seconds.
 File lengths (MBytes):  RWF=     24 Int=      0 D2E=      0 Chk=      3 Scr=      1
 Normal termination of Gaussian 16 at Thu Apr  2 15:49:22 2026.
