%nprocshared=4
%mem=8GB
%chk=1112Tetrafluoroethane_Opt_Freq_DFT_WB97XD_pVDZ_Gaussian16.chk
#p opt=tight freq=raman wb97xd/aug-cc-pvdz guess=save geom=connectivity
polar

r134a - 1,1,1,2-Tetrafluoroethane

0 1
 C                 -1.50143898    1.41061134    1.45694908
 H                 -1.18245352    2.43192178    1.44838857
 C                 -0.30504731    0.49642730    1.13366205
 F                  0.66039106    0.67411335    2.06040712
 F                 -0.70750559   -0.79214194    1.14446270
 F                  0.18075751    0.80591537   -0.08728464
 F                 -1.98724379    1.10112327    2.67789577
 H                 -2.26663828    1.26977869    0.72241781

 1 2 1.0 3 1.0 7 1.0 8 1.0
 2
 3 4 1.0 5 1.0 6 1.0
 4
 5
 6
 7
 8

