 Entering Gaussian System, Link 0=g16
 Input=/Users/yarger/Downloads/1112Tetrafluoroethane_Opt_Freq_DFT_WB97XD_631pd_Gaussian16.gjf
 Output=/Users/yarger/Downloads/1112Tetrafluoroethane_Opt_Freq_DFT_WB97XD_631pd_Gaussian16.log
 Initial command:
 /Users/yarger/Applications/g16/l1.exe "/Users/yarger/Applications/scratch/Gau-83393.inp" -scrdir="/Users/yarger/Applications/scratch/"
 Entering Link 1 = /Users/yarger/Applications/g16/l1.exe PID=     83394.
  
 Copyright (c) 1988,1990,1992,1993,1995,1998,2003,2009,2016,
            Gaussian, Inc.  All Rights Reserved.
  
 This is part of the Gaussian(R) 16 program.  It is based on
 the Gaussian(R) 09 system (copyright 2009, Gaussian, Inc.),
 the Gaussian(R) 03 system (copyright 2003, Gaussian, Inc.),
 the Gaussian(R) 98 system (copyright 1998, Gaussian, Inc.),
 the Gaussian(R) 94 system (copyright 1995, Gaussian, Inc.),
 the Gaussian 92(TM) system (copyright 1992, Gaussian, Inc.),
 the Gaussian 90(TM) system (copyright 1990, Gaussian, Inc.),
 the Gaussian 88(TM) system (copyright 1988, Gaussian, Inc.),
 the Gaussian 86(TM) system (copyright 1986, Carnegie Mellon
 University), and the Gaussian 82(TM) system (copyright 1983,
 Carnegie Mellon University). Gaussian is a federally registered
 trademark of Gaussian, Inc.
  
 This software contains proprietary and confidential information,
 including trade secrets, belonging to Gaussian, Inc.
  
 This software is provided under written license and may be
 used, copied, transmitted, or stored only in accord with that
 written license.
  
 The following legend is applicable only to US Government
 contracts under FAR:
  
                    RESTRICTED RIGHTS LEGEND
  
 Use, reproduction and disclosure by the US Government is
 subject to restrictions as set forth in subparagraphs (a)
 and (c) of the Commercial Computer Software - Restricted
 Rights clause in FAR 52.227-19.
  
 Gaussian, Inc.
 340 Quinnipiac St., Bldg. 40, Wallingford CT 06492
  
  
 ---------------------------------------------------------------
 Warning -- This program may not be used in any manner that
 competes with the business of Gaussian, Inc. or will provide
 assistance to any competitor of Gaussian, Inc.  The licensee
 of this program is prohibited from giving any competitor of
 Gaussian, Inc. access to this program.  By using this program,
 the user acknowledges that Gaussian, Inc. is engaged in the
 business of creating and licensing software in the field of
 computational chemistry and represents and warrants to the
 licensee that it is not a competitor of Gaussian, Inc. and that
 it will not use this program in any manner prohibited above.
 ---------------------------------------------------------------
  

 Cite this work as:
 Gaussian 16, Revision A.03,
 M. J. Frisch, G. W. Trucks, H. B. Schlegel, G. E. Scuseria, 
 M. A. Robb, J. R. Cheeseman, G. Scalmani, V. Barone, 
 G. A. Petersson, H. Nakatsuji, X. Li, M. Caricato, A. V. Marenich, 
 J. Bloino, B. G. Janesko, R. Gomperts, B. Mennucci, H. P. Hratchian, 
 J. V. Ortiz, A. F. Izmaylov, J. L. Sonnenberg, D. Williams-Young, 
 F. Ding, F. Lipparini, F. Egidi, J. Goings, B. Peng, A. Petrone, 
 T. Henderson, D. Ranasinghe, V. G. Zakrzewski, J. Gao, N. Rega, 
 G. Zheng, W. Liang, M. Hada, M. Ehara, K. Toyota, R. Fukuda, 
 J. Hasegawa, M. Ishida, T. Nakajima, Y. Honda, O. Kitao, H. Nakai, 
 T. Vreven, K. Throssell, J. A. Montgomery, Jr., J. E. Peralta, 
 F. Ogliaro, M. J. Bearpark, J. J. Heyd, E. N. Brothers, K. N. Kudin, 
 V. N. Staroverov, T. A. Keith, R. Kobayashi, J. Normand, 
 K. Raghavachari, A. P. Rendell, J. C. Burant, S. S. Iyengar, 
 J. Tomasi, M. Cossi, J. M. Millam, M. Klene, C. Adamo, R. Cammi, 
 J. W. Ochterski, R. L. Martin, K. Morokuma, O. Farkas, 
 J. B. Foresman, and D. J. Fox, Gaussian, Inc., Wallingford CT, 2016.
 
 ******************************************
 Gaussian 16:  EM64M-G16RevA.03 25-Dec-2016
                 2-Apr-2026 
 ******************************************
 %nprocshared=4
 Will use up to    4 processors via shared memory.
 %mem=8GB
 %chk=1112Tetrafluoroethane_Opt_Freq_DFT_WB97XD_631pd_Gaussian16.chk
 ----------------------------------------------------------------------
 #p opt=tight freq=raman wb97xd/6-31+g(d) guess=save geom=connectivity 
 polar
 ----------------------------------------------------------------------
 1/7=10,18=20,19=15,26=3,38=1,57=2/1,3;
 2/9=110,12=2,17=6,18=5,40=1/2;
 3/5=1,6=6,7=11,11=2,25=1,30=1,71=1,74=-58/1,2,3;
 4//1;
 5/5=2,38=5,98=1/2;
 6/7=2,8=2,9=2,10=2,28=1/1;
 7//1,2,3,16;
 1/7=10,18=20,19=15,26=3/3(2);
 2/9=110/2;
 99//99;
 2/9=110/2;
 3/5=1,6=6,7=11,11=2,25=1,30=1,71=1,74=-58/1,2,3;
 4/5=5,16=3,69=1/1;
 5/5=2,38=5,98=1/2;
 7//1,2,3,16;
 1/7=10,18=20,19=15,26=3/3(-5);
 2/9=110/2;
 6/7=2,8=2,9=2,10=2,19=2,28=1/1;
 99/9=1/99;
 Leave Link    1 at Thu Apr  2 15:14:19 2026, MaxMem=  1073741824 cpu:               0.1 elap:               0.0
 (Enter /Users/yarger/Applications/g16/l101.exe)
 ---------------------------------
 r134a - 1,1,1,2-Tetrafluoroethane
 ---------------------------------
 Symbolic Z-matrix:
 Charge =  0 Multiplicity = 1
 C                    -1.50144   1.41061   1.45695 
 H                    -1.18245   2.43192   1.44839 
 C                    -0.30505   0.49643   1.13366 
 F                     0.66039   0.67411   2.06041 
 F                    -0.70751  -0.79214   1.14446 
 F                     0.18076   0.80592  -0.08728 
 F                    -1.98724   1.10112   2.6779 
 H                    -2.26664   1.26978   0.72242 
 
 ITRead=  0  0  0  0  0  0  0  0
 MicOpt= -1 -1 -1 -1 -1 -1 -1 -1
 NAtoms=      8 NQM=        8 NQMF=       0 NMMI=      0 NMMIF=      0
                NMic=       0 NMicF=      0.
                    Isotopes and Nuclear Properties:
 (Nuclear quadrupole moments (NQMom) in fm**2, nuclear magnetic moments (NMagM)
  in nuclear magnetons)

  Atom         1           2           3           4           5           6           7           8
 IAtWgt=          12           1          12          19          19          19          19           1
 AtmWgt=  12.0000000   1.0078250  12.0000000  18.9984033  18.9984033  18.9984033  18.9984033   1.0078250
 NucSpn=           0           1           0           1           1           1           1           1
 AtZEff=  -0.0000000  -0.0000000  -0.0000000  -0.0000000  -0.0000000  -0.0000000  -0.0000000  -0.0000000
 NQMom=    0.0000000   0.0000000   0.0000000   0.0000000   0.0000000   0.0000000   0.0000000   0.0000000
 NMagM=    0.0000000   2.7928460   0.0000000   2.6288670   2.6288670   2.6288670   2.6288670   2.7928460
 AtZNuc=   6.0000000   1.0000000   6.0000000   9.0000000   9.0000000   9.0000000   9.0000000   1.0000000
 Leave Link  101 at Thu Apr  2 15:14:19 2026, MaxMem=  1073741824 cpu:               0.7 elap:               0.2
 (Enter /Users/yarger/Applications/g16/l103.exe)

 GradGradGradGradGradGradGradGradGradGradGradGradGradGradGradGradGradGrad
 Berny optimization.
 Initialization pass.
                           ----------------------------
                           !    Initial Parameters    !
                           ! (Angstroms and Degrees)  !
 --------------------------                            --------------------------
 ! Name  Definition              Value          Derivative Info.                !
 --------------------------------------------------------------------------------
 ! R1    R(1,2)                  1.07           estimate D2E/DX2                !
 ! R2    R(1,3)                  1.54           estimate D2E/DX2                !
 ! R3    R(1,7)                  1.35           estimate D2E/DX2                !
 ! R4    R(1,8)                  1.07           estimate D2E/DX2                !
 ! R5    R(3,4)                  1.35           estimate D2E/DX2                !
 ! R6    R(3,5)                  1.35           estimate D2E/DX2                !
 ! R7    R(3,6)                  1.35           estimate D2E/DX2                !
 ! A1    A(2,1,3)              109.4712         estimate D2E/DX2                !
 ! A2    A(2,1,7)              109.4712         estimate D2E/DX2                !
 ! A3    A(2,1,8)              109.4712         estimate D2E/DX2                !
 ! A4    A(3,1,7)              109.4712         estimate D2E/DX2                !
 ! A5    A(3,1,8)              109.4712         estimate D2E/DX2                !
 ! A6    A(7,1,8)              109.4712         estimate D2E/DX2                !
 ! A7    A(1,3,4)              109.4712         estimate D2E/DX2                !
 ! A8    A(1,3,5)              109.4712         estimate D2E/DX2                !
 ! A9    A(1,3,6)              109.4712         estimate D2E/DX2                !
 ! A10   A(4,3,5)              109.4712         estimate D2E/DX2                !
 ! A11   A(4,3,6)              109.4712         estimate D2E/DX2                !
 ! A12   A(5,3,6)              109.4712         estimate D2E/DX2                !
 ! D1    D(2,1,3,4)             60.0            estimate D2E/DX2                !
 ! D2    D(2,1,3,5)            180.0            estimate D2E/DX2                !
 ! D3    D(2,1,3,6)            -60.0            estimate D2E/DX2                !
 ! D4    D(7,1,3,4)            -60.0            estimate D2E/DX2                !
 ! D5    D(7,1,3,5)             60.0            estimate D2E/DX2                !
 ! D6    D(7,1,3,6)            180.0            estimate D2E/DX2                !
 ! D7    D(8,1,3,4)           -180.0            estimate D2E/DX2                !
 ! D8    D(8,1,3,5)            -60.0            estimate D2E/DX2                !
 ! D9    D(8,1,3,6)             60.0            estimate D2E/DX2                !
 --------------------------------------------------------------------------------
 Trust Radius=3.00D-01 FncErr=1.00D-07 GrdErr=1.00D-06 EigMax=2.50D+02 EigMin=1.00D-04
 Number of steps in this run=     38 maximum allowed number of steps=    100.
 GradGradGradGradGradGradGradGradGradGradGradGradGradGradGradGradGradGrad

 Leave Link  103 at Thu Apr  2 15:14:19 2026, MaxMem=  1073741824 cpu:               0.0 elap:               0.0
 (Enter /Users/yarger/Applications/g16/l202.exe)
                          Input orientation:                          
 ---------------------------------------------------------------------
 Center     Atomic      Atomic             Coordinates (Angstroms)
 Number     Number       Type             X           Y           Z
 ---------------------------------------------------------------------
      1          6           0       -1.501439    1.410611    1.456949
      2          1           0       -1.182454    2.431922    1.448389
      3          6           0       -0.305047    0.496427    1.133662
      4          9           0        0.660391    0.674113    2.060407
      5          9           0       -0.707506   -0.792142    1.144463
      6          9           0        0.180758    0.805915   -0.087285
      7          9           0       -1.987244    1.101123    2.677896
      8          1           0       -2.266638    1.269779    0.722418
 ---------------------------------------------------------------------
                    Distance matrix (angstroms):
                    1          2          3          4          5
     1  C    0.000000
     2  H    1.070000   0.000000
     3  C    1.540000   2.148263   0.000000
     4  F    2.362224   2.619262   1.350000   0.000000
     5  F    2.362224   3.273001   1.350000   2.204541   0.000000
     6  F    2.362224   2.619262   1.350000   2.204541   2.204541
     7  F    1.350000   1.982524   2.362224   2.752017   2.752017
     8  H    1.070000   1.747303   2.148263   3.273001   2.619262
                    6          7          8
     6  F    0.000000
     7  F    3.526131   0.000000
     8  H    2.619262   1.982524   0.000000
 Stoichiometry    C2H2F4
 Framework group  CS[SG(C2F2),X(H2F2)]
 Deg. of freedom    11
 Full point group                 CS      NOp   2
 Largest Abelian subgroup         CS      NOp   2
 Largest concise Abelian subgroup CS      NOp   2
                         Standard orientation:                         
 ---------------------------------------------------------------------
 Center     Atomic      Atomic             Coordinates (Angstroms)
 Number     Number       Type             X           Y           Z
 ---------------------------------------------------------------------
      1          6           0        0.803253   -0.868125   -0.000000
      2          1           0        1.420351   -0.896813   -0.873651
      3          6           0       -0.026516    0.429212    0.000000
      4          9           0       -0.805098    0.465407   -1.102270
      5          9           0       -0.805098    0.465407    1.102270
      6          9           0        0.803253    1.494099   -0.000000
      7          9           0       -0.026516   -1.933012   -0.000000
      8          1           0        1.420351   -0.896813    0.873651
 ---------------------------------------------------------------------
 Rotational constants (GHZ):           5.2497613           2.7740143           2.7610135
 Leave Link  202 at Thu Apr  2 15:14:19 2026, MaxMem=  1073741824 cpu:               0.0 elap:               0.0
 (Enter /Users/yarger/Applications/g16/l301.exe)
 Standard basis: 6-31+G(d) (6D, 7F)
 Ernie: Thresh=  0.10000D-02 Tol=  0.10000D-05 Strict=F.
 There are    77 symmetry adapted cartesian basis functions of A'  symmetry.
 There are    41 symmetry adapted cartesian basis functions of A"  symmetry.
 There are    77 symmetry adapted basis functions of A'  symmetry.
 There are    41 symmetry adapted basis functions of A"  symmetry.
   118 basis functions,   200 primitive gaussians,   118 cartesian basis functions
    25 alpha electrons       25 beta electrons
       nuclear repulsion energy       271.2438406540 Hartrees.
 IExCor= 4639 DFT=T Ex+Corr=wB97XD ExCW=0 ScaHFX=  1.000000
 ScaDFX=  1.000000  1.000000  1.000000  1.000000 ScalE2=  1.000000  1.000000
 IRadAn=      5 IRanWt=     -1 IRanGd=            0 ICorTp=0 IEmpDi=121
 HFx  wShort=  0.000000 wLong=  0.200000 cFull=  0.222036 cShort=  0.000000 cLong=  0.777964
 DFx  wShort=  0.000000 wLong=  0.200000 cFull=  0.000000 cShort=  0.000000 cLong=  1.000000
 NAtoms=    8 NActive=    8 NUniq=    6 SFac= 1.78D+00 NAtFMM=   60 NAOKFM=F Big=F
 Integral buffers will be    131072 words long.
 Raffenetti 2 integral format.
 Two-electron integral symmetry is turned on.
 R6Disp:  Grimme-D2 Dispersion energy=       -0.0021561211 Hartrees.
 Nuclear repulsion after empirical dispersion term =      271.2416845329 Hartrees.
 Leave Link  301 at Thu Apr  2 15:14:19 2026, MaxMem=  1073741824 cpu:               0.1 elap:               0.0
 (Enter /Users/yarger/Applications/g16/l302.exe)
 NPDir=0 NMtPBC=     1 NCelOv=     1 NCel=       1 NClECP=     1 NCelD=      1
         NCelK=      1 NCelE2=     1 NClLst=     1 CellRange=     0.0.
 One-electron integrals computed using PRISM.
 One-electron integral symmetry used in STVInt
 NBasis=   118 RedAO= T EigKep=  2.09D-04  NBF=    77    41
 NBsUse=   118 1.00D-06 EigRej= -1.00D+00 NBFU=    77    41
 Precomputing XC quadrature grid using
 IXCGrd= 4 IRadAn=           5 IRanWt=          -1 IRanGd=           0 AccXCQ= 0.00D+00.
 Generated NRdTot=       0 NPtTot=           0 NUsed=           0 NTot=          32
 NSgBfM=   118   118   118   118   118 MxSgAt=     8 MxSgA2=     8.
 Leave Link  302 at Thu Apr  2 15:14:19 2026, MaxMem=  1073741824 cpu:               0.4 elap:               0.1
 (Enter /Users/yarger/Applications/g16/l303.exe)
 DipDrv:  MaxL=1.
 Leave Link  303 at Thu Apr  2 15:14:19 2026, MaxMem=  1073741824 cpu:               0.1 elap:               0.0
 (Enter /Users/yarger/Applications/g16/l401.exe)
 ExpMin= 4.38D-02 ExpMax= 7.00D+03 ExpMxC= 1.05D+03 IAcc=3 IRadAn=         5 AccDes= 0.00D+00
 Harris functional with IExCor= 4639 and IRadAn=       5 diagonalized for initial guess.
 HarFok:  IExCor= 4639 AccDes= 0.00D+00 IRadAn=         5 IDoV= 1 UseB2=F ITyADJ=14
 ICtDFT=  3500011 ScaDFX=  1.000000  1.000000  1.000000  1.000000
 FoFCou: FMM=F IPFlag=           0 FMFlag=      100000 FMFlg1=           0
         NFxFlg=           0 DoJE=T BraDBF=F KetDBF=T FulRan=T
         wScrn=  0.000000 ICntrl=       500 IOpCl=  0 I1Cent=   200000004 NGrid=           0
         NMat0=    1 NMatS0=      1 NMatT0=    0 NMatD0=    1 NMtDS0=    0 NMtDT0=    0
 Petite list used in FoFCou.
 Harris En= -461.167278545670    
 JPrj=0 DoOrth=F DoCkMO=F.
 Initial guess orbital symmetries:
       Occupied  (A') (A') (A') (A") (A') (A') (A') (A') (A") (A')
                 (A') (A') (A") (A') (A') (A") (A') (A') (A") (A')
                 (A') (A") (A") (A") (A')
       Virtual   (A') (A') (A') (A") (A") (A') (A') (A') (A') (A")
                 (A') (A') (A") (A') (A") (A') (A') (A') (A") (A")
                 (A') (A') (A") (A') (A') (A") (A') (A') (A") (A')
                 (A') (A') (A') (A") (A") (A') (A') (A") (A') (A')
                 (A") (A') (A') (A") (A') (A") (A') (A') (A") (A")
                 (A') (A') (A') (A") (A') (A") (A') (A') (A") (A')
                 (A") (A") (A') (A") (A') (A') (A") (A') (A") (A')
                 (A") (A') (A') (A") (A') (A') (A") (A') (A") (A')
                 (A') (A") (A') (A') (A") (A') (A') (A') (A') (A')
                 (A") (A') (A')
 The electronic state of the initial guess is 1-A'.
 Leave Link  401 at Thu Apr  2 15:14:20 2026, MaxMem=  1073741824 cpu:               1.0 elap:               0.3
 (Enter /Users/yarger/Applications/g16/l502.exe)
 Keep R1 ints in memory in symmetry-blocked form, NReq=74222059.
 FoFCou: FMM=F IPFlag=           0 FMFlag=           0 FMFlg1=           0
         NFxFlg=           0 DoJE=F BraDBF=F KetDBF=F FulRan=T
         wScrn=  0.000000 ICntrl=       600 IOpCl=  0 I1Cent=           0 NGrid=           0
         NMat0=    1 NMatS0=   7021 NMatT0=    0 NMatD0=    1 NMtDS0=    0 NMtDT0=    0
 Petite list used in FoFCou.
 Closed shell SCF:
 Using DIIS extrapolation, IDIIS=  1040.
 NGot=  1073741824 LenX=  1061244307 LenY=  1061229942
 Requested convergence on RMS density matrix=1.00D-08 within 128 cycles.
 Requested convergence on MAX density matrix=1.00D-06.
 Requested convergence on             energy=1.00D-06.
 No special actions if energy rises.

 Cycle   1  Pass 1  IDiag  1:
 E= -476.301733953489    
 DIIS: error= 6.70D-02 at cycle   1 NSaved=   1.
 NSaved= 1 IEnMin= 1 EnMin= -476.301733953489     IErMin= 1 ErrMin= 6.70D-02
 ErrMax= 6.70D-02  0.00D+00 EMaxC= 1.00D-01 BMatC= 7.73D-01 BMatP= 7.73D-01
 IDIUse=3 WtCom= 3.30D-01 WtEn= 6.70D-01
 Coeff-Com:  0.100D+01
 Coeff-En:   0.100D+01
 Coeff:      0.100D+01
 Gap=     0.684 Goal=   None    Shift=    0.000
 GapD=    0.684 DampG=2.000 DampE=0.500 DampFc=1.0000 IDamp=-1.
 RMSDP=8.08D-03 MaxDP=1.31D-01              OVMax= 1.43D-01

 Cycle   2  Pass 1  IDiag  1:
 E= -476.421026947757     Delta-E=       -0.119292994268 Rises=F Damp=F
 DIIS: error= 4.59D-02 at cycle   2 NSaved=   2.
 NSaved= 2 IEnMin= 2 EnMin= -476.421026947757     IErMin= 2 ErrMin= 4.59D-02
 ErrMax= 4.59D-02  0.00D+00 EMaxC= 1.00D-01 BMatC= 4.52D-01 BMatP= 7.73D-01
 IDIUse=3 WtCom= 5.41D-01 WtEn= 4.59D-01
 Coeff-Com:  0.426D+00 0.574D+00
 Coeff-En:   0.389D+00 0.611D+00
 Coeff:      0.409D+00 0.591D+00
 Gap=     0.645 Goal=   None    Shift=    0.000
 RMSDP=3.46D-03 MaxDP=8.72D-02 DE=-1.19D-01 OVMax= 8.78D-02

 Cycle   3  Pass 1  IDiag  1:
 E= -476.660740279098     Delta-E=       -0.239713331341 Rises=F Damp=F
 DIIS: error= 1.04D-02 at cycle   3 NSaved=   3.
 NSaved= 3 IEnMin= 3 EnMin= -476.660740279098     IErMin= 3 ErrMin= 1.04D-02
 ErrMax= 1.04D-02  0.00D+00 EMaxC= 1.00D-01 BMatC= 2.13D-02 BMatP= 4.52D-01
 IDIUse=3 WtCom= 8.96D-01 WtEn= 1.04D-01
 Coeff-Com:  0.775D-01 0.209D+00 0.713D+00
 Coeff-En:   0.000D+00 0.000D+00 0.100D+01
 Coeff:      0.694D-01 0.188D+00 0.743D+00
 Gap=     0.534 Goal=   None    Shift=    0.000
 RMSDP=1.04D-03 MaxDP=2.27D-02 DE=-2.40D-01 OVMax= 2.65D-02

 Cycle   4  Pass 1  IDiag  1:
 E= -476.672709104203     Delta-E=       -0.011968825105 Rises=F Damp=F
 DIIS: error= 4.68D-03 at cycle   4 NSaved=   4.
 NSaved= 4 IEnMin= 4 EnMin= -476.672709104203     IErMin= 4 ErrMin= 4.68D-03
 ErrMax= 4.68D-03  0.00D+00 EMaxC= 1.00D-01 BMatC= 2.82D-03 BMatP= 2.13D-02
 IDIUse=3 WtCom= 9.53D-01 WtEn= 4.68D-02
 Coeff-Com: -0.650D-02 0.125D-01 0.303D+00 0.691D+00
 Coeff-En:   0.000D+00 0.000D+00 0.513D-01 0.949D+00
 Coeff:     -0.620D-02 0.119D-01 0.291D+00 0.703D+00
 Gap=     0.530 Goal=   None    Shift=    0.000
 RMSDP=3.35D-04 MaxDP=7.38D-03 DE=-1.20D-02 OVMax= 7.72D-03

 Cycle   5  Pass 1  IDiag  1:
 E= -476.674652631106     Delta-E=       -0.001943526903 Rises=F Damp=F
 DIIS: error= 2.70D-04 at cycle   5 NSaved=   5.
 NSaved= 5 IEnMin= 5 EnMin= -476.674652631106     IErMin= 5 ErrMin= 2.70D-04
 ErrMax= 2.70D-04  0.00D+00 EMaxC= 1.00D-01 BMatC= 1.54D-05 BMatP= 2.82D-03
 IDIUse=3 WtCom= 9.97D-01 WtEn= 2.70D-03
 Coeff-Com: -0.241D-02-0.331D-02 0.343D-01 0.131D+00 0.840D+00
 Coeff-En:   0.000D+00 0.000D+00 0.000D+00 0.000D+00 0.100D+01
 Coeff:     -0.241D-02-0.331D-02 0.342D-01 0.131D+00 0.841D+00
 Gap=     0.529 Goal=   None    Shift=    0.000
 RMSDP=5.12D-05 MaxDP=7.02D-04 DE=-1.94D-03 OVMax= 1.11D-03

 Cycle   6  Pass 1  IDiag  1:
 E= -476.674663851492     Delta-E=       -0.000011220386 Rises=F Damp=F
 DIIS: error= 1.32D-04 at cycle   6 NSaved=   6.
 NSaved= 6 IEnMin= 6 EnMin= -476.674663851492     IErMin= 6 ErrMin= 1.32D-04
 ErrMax= 1.32D-04  0.00D+00 EMaxC= 1.00D-01 BMatC= 4.36D-06 BMatP= 1.54D-05
 IDIUse=3 WtCom= 9.99D-01 WtEn= 1.32D-03
 Coeff-Com: -0.264D-03-0.333D-02-0.201D-01-0.225D-01 0.383D+00 0.663D+00
 Coeff-En:   0.000D+00 0.000D+00 0.000D+00 0.000D+00 0.000D+00 0.100D+01
 Coeff:     -0.264D-03-0.332D-02-0.201D-01-0.224D-01 0.383D+00 0.664D+00
 Gap=     0.529 Goal=   None    Shift=    0.000
 RMSDP=1.82D-05 MaxDP=3.07D-04 DE=-1.12D-05 OVMax= 3.78D-04

 Cycle   7  Pass 1  IDiag  1:
 E= -476.674666858468     Delta-E=       -0.000003006976 Rises=F Damp=F
 DIIS: error= 2.82D-05 at cycle   7 NSaved=   7.
 NSaved= 7 IEnMin= 7 EnMin= -476.674666858468     IErMin= 7 ErrMin= 2.82D-05
 ErrMax= 2.82D-05  0.00D+00 EMaxC= 1.00D-01 BMatC= 1.99D-07 BMatP= 4.36D-06
 IDIUse=1 WtCom= 1.00D+00 WtEn= 0.00D+00
 Coeff-Com:  0.525D-04-0.112D-02-0.989D-02-0.174D-01 0.818D-01 0.247D+00
 Coeff-Com:  0.700D+00
 Coeff:      0.525D-04-0.112D-02-0.989D-02-0.174D-01 0.818D-01 0.247D+00
 Coeff:      0.700D+00
 Gap=     0.528 Goal=   None    Shift=    0.000
 RMSDP=4.52D-06 MaxDP=8.06D-05 DE=-3.01D-06 OVMax= 1.06D-04

 Cycle   8  Pass 1  IDiag  1:
 E= -476.674667011950     Delta-E=       -0.000000153482 Rises=F Damp=F
 DIIS: error= 7.02D-06 at cycle   8 NSaved=   8.
 NSaved= 8 IEnMin= 8 EnMin= -476.674667011950     IErMin= 8 ErrMin= 7.02D-06
 ErrMax= 7.02D-06  0.00D+00 EMaxC= 1.00D-01 BMatC= 1.08D-08 BMatP= 1.99D-07
 IDIUse=1 WtCom= 1.00D+00 WtEn= 0.00D+00
 Coeff-Com:  0.330D-04 0.420D-06-0.683D-03-0.256D-02-0.171D-01 0.319D-02
 Coeff-Com:  0.185D+00 0.832D+00
 Coeff:      0.330D-04 0.420D-06-0.683D-03-0.256D-02-0.171D-01 0.319D-02
 Coeff:      0.185D+00 0.832D+00
 Gap=     0.528 Goal=   None    Shift=    0.000
 RMSDP=1.36D-06 MaxDP=2.23D-05 DE=-1.53D-07 OVMax= 3.65D-05

 Cycle   9  Pass 1  IDiag  1:
 E= -476.674667023750     Delta-E=       -0.000000011800 Rises=F Damp=F
 DIIS: error= 1.54D-06 at cycle   9 NSaved=   9.
 NSaved= 9 IEnMin= 9 EnMin= -476.674667023750     IErMin= 9 ErrMin= 1.54D-06
 ErrMax= 1.54D-06  0.00D+00 EMaxC= 1.00D-01 BMatC= 4.87D-10 BMatP= 1.08D-08
 IDIUse=1 WtCom= 1.00D+00 WtEn= 0.00D+00
 Coeff-Com:  0.409D-05 0.722D-04 0.472D-03 0.547D-03-0.837D-02-0.141D-01
 Coeff-Com: -0.500D-02 0.163D+00 0.864D+00
 Coeff:      0.409D-05 0.722D-04 0.472D-03 0.547D-03-0.837D-02-0.141D-01
 Coeff:     -0.500D-02 0.163D+00 0.864D+00
 Gap=     0.528 Goal=   None    Shift=    0.000
 RMSDP=3.19D-07 MaxDP=4.19D-06 DE=-1.18D-08 OVMax= 9.34D-06

 Cycle  10  Pass 1  IDiag  1:
 E= -476.674667024210     Delta-E=       -0.000000000460 Rises=F Damp=F
 DIIS: error= 7.57D-07 at cycle  10 NSaved=  10.
 NSaved=10 IEnMin=10 EnMin= -476.674667024210     IErMin=10 ErrMin= 7.57D-07
 ErrMax= 7.57D-07  0.00D+00 EMaxC= 1.00D-01 BMatC= 1.51D-10 BMatP= 4.87D-10
 IDIUse=1 WtCom= 1.00D+00 WtEn= 0.00D+00
 Coeff-Com: -0.362D-06 0.346D-04 0.265D-03 0.430D-03-0.267D-02-0.676D-02
 Coeff-Com: -0.152D-01 0.152D-01 0.400D+00 0.608D+00
 Coeff:     -0.362D-06 0.346D-04 0.265D-03 0.430D-03-0.267D-02-0.676D-02
 Coeff:     -0.152D-01 0.152D-01 0.400D+00 0.608D+00
 Gap=     0.528 Goal=   None    Shift=    0.000
 RMSDP=9.26D-08 MaxDP=1.54D-06 DE=-4.60D-10 OVMax= 1.83D-06

 Cycle  11  Pass 1  IDiag  1:
 E= -476.674667024311     Delta-E=       -0.000000000101 Rises=F Damp=F
 DIIS: error= 1.37D-07 at cycle  11 NSaved=  11.
 NSaved=11 IEnMin=11 EnMin= -476.674667024311     IErMin=11 ErrMin= 1.37D-07
 ErrMax= 1.37D-07  0.00D+00 EMaxC= 1.00D-01 BMatC= 4.02D-12 BMatP= 1.51D-10
 IDIUse=1 WtCom= 1.00D+00 WtEn= 0.00D+00
 Coeff-Com: -0.163D-06-0.154D-05-0.157D-04-0.709D-05 0.499D-03 0.602D-03
 Coeff-Com: -0.704D-03-0.124D-01-0.413D-01 0.795D-01 0.974D+00
 Coeff:     -0.163D-06-0.154D-05-0.157D-04-0.709D-05 0.499D-03 0.602D-03
 Coeff:     -0.704D-03-0.124D-01-0.413D-01 0.795D-01 0.974D+00
 Gap=     0.528 Goal=   None    Shift=    0.000
 RMSDP=4.61D-08 MaxDP=7.50D-07 DE=-1.01D-10 OVMax= 8.10D-07

 Cycle  12  Pass 1  IDiag  1:
 E= -476.674667024322     Delta-E=       -0.000000000011 Rises=F Damp=F
 DIIS: error= 1.71D-08 at cycle  12 NSaved=  12.
 NSaved=12 IEnMin=12 EnMin= -476.674667024322     IErMin=12 ErrMin= 1.71D-08
 ErrMax= 1.71D-08  0.00D+00 EMaxC= 1.00D-01 BMatC= 5.85D-14 BMatP= 4.02D-12
 IDIUse=1 WtCom= 1.00D+00 WtEn= 0.00D+00
 Coeff-Com:  0.287D-07-0.106D-05-0.938D-05-0.147D-04 0.104D-03 0.244D-03
 Coeff-Com:  0.516D-03-0.145D-02-0.171D-01-0.174D-01 0.426D-01 0.993D+00
 Coeff:      0.287D-07-0.106D-05-0.938D-05-0.147D-04 0.104D-03 0.244D-03
 Coeff:      0.516D-03-0.145D-02-0.171D-01-0.174D-01 0.426D-01 0.993D+00
 Gap=     0.528 Goal=   None    Shift=    0.000
 RMSDP=7.22D-09 MaxDP=1.11D-07 DE=-1.10D-11 OVMax= 1.78D-07

 SCF Done:  E(RwB97XD) =  -476.674667024     A.U. after   12 cycles
            NFock= 12  Conv=0.72D-08     -V/T= 2.0074
 KE= 4.731553477878D+02 PE=-1.672643989544D+03 EE= 4.515722901986D+02
 Leave Link  502 at Thu Apr  2 15:14:23 2026, MaxMem=  1073741824 cpu:              12.0 elap:               3.1
 (Enter /Users/yarger/Applications/g16/l601.exe)
 Copying SCF densities to generalized density rwf, IOpCl= 0 IROHF=0.

 **********************************************************************

            Population analysis using the SCF density.

 **********************************************************************

 Orbital symmetries:
       Occupied  (A') (A') (A") (A') (A') (A') (A') (A') (A") (A')
                 (A') (A') (A') (A") (A') (A') (A") (A') (A") (A')
                 (A') (A") (A") (A") (A')
       Virtual   (A') (A') (A') (A") (A") (A') (A') (A') (A') (A")
                 (A') (A') (A') (A') (A") (A") (A') (A') (A') (A")
                 (A") (A') (A") (A') (A') (A") (A') (A') (A') (A")
                 (A') (A') (A') (A") (A') (A') (A") (A") (A') (A')
                 (A") (A') (A') (A") (A') (A") (A') (A") (A') (A")
                 (A') (A') (A') (A") (A') (A") (A') (A') (A") (A')
                 (A") (A") (A') (A") (A') (A') (A') (A") (A") (A")
                 (A') (A') (A') (A") (A') (A') (A") (A') (A") (A')
                 (A') (A") (A') (A') (A") (A') (A') (A') (A') (A')
                 (A") (A') (A')
 The electronic state is 1-A'.
 Alpha  occ. eigenvalues --  -24.89800 -24.89102 -24.89102 -24.86095 -10.57718
 Alpha  occ. eigenvalues --  -10.41383  -1.43982  -1.35868  -1.35277  -1.34768
 Alpha  occ. eigenvalues --   -0.89854  -0.79192  -0.71093  -0.70978  -0.68645
 Alpha  occ. eigenvalues --   -0.62592  -0.62471  -0.57857  -0.57818  -0.55394
 Alpha  occ. eigenvalues --   -0.54130  -0.54087  -0.52385  -0.47080  -0.45826
 Alpha virt. eigenvalues --    0.07024   0.08565   0.09714   0.10144   0.12753
 Alpha virt. eigenvalues --    0.13314   0.13775   0.17596   0.19741   0.21031
 Alpha virt. eigenvalues --    0.25411   0.26624   0.28770   0.29664   0.30423
 Alpha virt. eigenvalues --    0.31615   0.33966   0.35869   0.36370   0.36655
 Alpha virt. eigenvalues --    0.38887   0.39598   0.40944   0.41257   0.42620
 Alpha virt. eigenvalues --    0.43362   0.43936   0.45238   0.50797   0.51299
 Alpha virt. eigenvalues --    0.53063   0.67860   0.78633   0.79708   0.84444
 Alpha virt. eigenvalues --    0.86366   0.87379   1.00951   1.11361   1.24960
 Alpha virt. eigenvalues --    1.27483   1.29753   1.44145   1.60335   1.60657
 Alpha virt. eigenvalues --    1.62355   1.62461   1.65824   1.65941   1.66883
 Alpha virt. eigenvalues --    1.68240   1.72128   1.72766   1.72914   1.74464
 Alpha virt. eigenvalues --    1.75254   1.76234   1.81622   1.87004   1.88869
 Alpha virt. eigenvalues --    1.89184   1.89634   1.90833   1.95936   2.00226
 Alpha virt. eigenvalues --    2.01418   2.06132   2.06903   2.09433   2.13213
 Alpha virt. eigenvalues --    2.15024   2.19412   2.23598   2.26812   2.30734
 Alpha virt. eigenvalues --    2.41197   2.45388   2.50138   2.58748   2.61527
 Alpha virt. eigenvalues --    2.83256   2.86104   2.91503   3.17298   3.19246
 Alpha virt. eigenvalues --    3.28947   3.38999   4.38938   4.68975   5.45627
 Alpha virt. eigenvalues --    5.49822   5.69635   6.26184
          Condensed to atoms (all electrons):
               1          2          3          4          5          6
     1  C    5.108551   0.395160   0.396852  -0.086315  -0.086315  -0.082882
     2  H    0.395160   0.492876  -0.040357  -0.008600   0.008788   0.001176
     3  C    0.396852  -0.040357   4.296388   0.204475   0.204475   0.172688
     4  F   -0.086315  -0.008600   0.204475   9.250368  -0.047862  -0.034858
     5  F   -0.086315   0.008788   0.204475  -0.047862   9.250368  -0.034858
     6  F   -0.082882   0.001176   0.172688  -0.034858  -0.034858   9.261196
     7  F    0.130095  -0.043578  -0.060355   0.007245   0.007245   0.006672
     8  H    0.395160  -0.038006  -0.040357   0.008788  -0.008600   0.001176
               7          8
     1  C    0.130095   0.395160
     2  H   -0.043578  -0.038006
     3  C   -0.060355  -0.040357
     4  F    0.007245   0.008788
     5  F    0.007245  -0.008600
     6  F    0.006672   0.001176
     7  F    9.280426  -0.043578
     8  H   -0.043578   0.492876
 Mulliken charges:
               1
     1  C   -0.170307
     2  H    0.232541
     3  C    0.866191
     4  F   -0.293241
     5  F   -0.293241
     6  F   -0.290311
     7  F   -0.284172
     8  H    0.232541
 Sum of Mulliken charges =  -0.00000
 Mulliken charges with hydrogens summed into heavy atoms:
               1
     1  C    0.294775
     3  C    0.866191
     4  F   -0.293241
     5  F   -0.293241
     6  F   -0.290311
     7  F   -0.284172
 Electronic spatial extent (au):  <R**2>=            478.7674
 Charge=             -0.0000 electrons
 Dipole moment (field-independent basis, Debye):
    X=              2.1266    Y=             -0.2693    Z=             -0.0000  Tot=              2.1436
 Quadrupole moment (field-independent basis, Debye-Ang):
   XX=            -30.5192   YY=            -35.5292   ZZ=            -32.0654
   XY=             -2.2297   XZ=             -0.0000   YZ=             -0.0000
 Traceless Quadrupole moment (field-independent basis, Debye-Ang):
   XX=              2.1854   YY=             -2.8246   ZZ=              0.6392
   XY=             -2.2297   XZ=             -0.0000   YZ=             -0.0000
 Octapole moment (field-independent basis, Debye-Ang**2):
  XXX=             -2.4395  YYY=              8.2171  ZZZ=              0.0000  XYY=             -1.4019
  XXY=             -2.1005  XXZ=              0.0000  XZZ=              1.1647  YZZ=             -0.7112
  YYZ=             -0.0000  XYZ=              0.0000
 Hexadecapole moment (field-independent basis, Debye-Ang**3):
 XXXX=           -114.3418 YYYY=           -265.9478 ZZZZ=           -101.1351 XXXY=              6.0649
 XXXZ=             -0.0000 YYYX=              5.8044 YYYZ=             -0.0000 ZZZX=             -0.0000
 ZZZY=             -0.0000 XXYY=            -59.4928 XXZZ=            -34.4493 YYZZ=            -58.2652
 XXYZ=             -0.0000 YYXZ=              0.0000 ZZXY=              1.9169
 N-N= 2.712416845329D+02 E-N=-1.672643990255D+03  KE= 4.731553477878D+02
 Symmetry A'   KE= 3.570721200370D+02
 Symmetry A"   KE= 1.160832277508D+02
 No NMR shielding tensors so no spin-rotation constants.
 Leave Link  601 at Thu Apr  2 15:14:23 2026, MaxMem=  1073741824 cpu:               0.3 elap:               0.1
 (Enter /Users/yarger/Applications/g16/l701.exe)
 ... and contract with generalized density number  0.
 Compute integral first derivatives.
 R6Disp: Adding Grimme-D2 dispersion energy 1st derivatives to the gradient.
 Leave Link  701 at Thu Apr  2 15:14:23 2026, MaxMem=  1073741824 cpu:               0.3 elap:               0.1
 (Enter /Users/yarger/Applications/g16/l702.exe)
 L702 exits ... SP integral derivatives will be done elsewhere.
 Leave Link  702 at Thu Apr  2 15:14:23 2026, MaxMem=  1073741824 cpu:               0.1 elap:               0.0
 (Enter /Users/yarger/Applications/g16/l703.exe)
 Integral derivatives from FoFJK, PRISM(SPDF).
 Compute integral first derivatives, UseDBF=F ICtDFT=           0.
 Calling FoFJK, ICntrl=      2127 FMM=F ISym2X=1 I1Cent= 0 IOpClX= 0 NMat=1 NMatS=1 NMatT=0.
 FoFJK:  IHMeth= 1 ICntrl=    2127 DoSepK=T KAlg= 0 I1Cent=           0 FoldK=F
 IRaf=         1 NMat=       1 IRICut=       1 DoRegI=T DoRafI=F ISym2E= 1 IDoP0=0 IntGTp=1.
 FoFCou: FMM=F IPFlag=           0 FMFlag=      100000 FMFlg1=         800
         NFxFlg=           0 DoJE=F BraDBF=F KetDBF=F FulRan=T
         wScrn=  0.000000 ICntrl=      2527 IOpCl=  0 I1Cent=           0 NGrid=           0
         NMat0=    1 NMatS0=      1 NMatT0=    0 NMatD0=    1 NMtDS0=    0 NMtDT0=    0
 Petite list used in FoFCou.
 Leave Link  703 at Thu Apr  2 15:14:24 2026, MaxMem=  1073741824 cpu:               3.4 elap:               0.9
 (Enter /Users/yarger/Applications/g16/l716.exe)
 Dipole        = 8.36680670D-01-1.05935062D-01-1.55431223D-15
 ***** Axes restored to original set *****
 -------------------------------------------------------------------
 Center     Atomic                   Forces (Hartrees/Bohr)
 Number     Number              X              Y              Z
 -------------------------------------------------------------------
      1        6           0.016859023   -0.009646508   -0.009735479
      2        1           0.007176042    0.015568167    0.000358837
      3        6          -0.016587647    0.009438794    0.009662710
      4        9          -0.001816038   -0.007565355   -0.011225681
      5        9           0.011614677    0.006831096   -0.002232466
      6        9           0.000626713   -0.005614232    0.008051383
      7        9          -0.006488387   -0.004685117    0.017189931
      8        1          -0.011384382   -0.004326846   -0.012069234
 -------------------------------------------------------------------
 Cartesian Forces:  Max     0.017189931 RMS     0.009889034
 Leave Link  716 at Thu Apr  2 15:14:24 2026, MaxMem=  1073741824 cpu:               0.1 elap:               0.0
 (Enter /Users/yarger/Applications/g16/l103.exe)

 GradGradGradGradGradGradGradGradGradGradGradGradGradGradGradGradGradGrad
 Berny optimization.
 FormGI is forming the generalized inverse of G from B-inverse, IUseBI=4.
 Internal  Forces:  Max     0.018956777 RMS     0.008370520
 Search for a local minimum.
 Step number   1 out of a maximum of   38
 All quantities printed in internal units (Hartrees-Bohrs-Radians)
 RMS Force = .83705D-02 SwitMx=.10000D-02 MixMth= 1
 Mixed Optimization -- RFO/linear search
 Second derivative matrix not updated -- first step.
 ITU=  0
     Eigenvalues ---    0.00237   0.05720   0.05976   0.08850   0.08850
     Eigenvalues ---    0.16000   0.16000   0.22461   0.25000   0.25000
     Eigenvalues ---    0.25000   0.28519   0.37230   0.37230   0.55021
     Eigenvalues ---    0.55021   0.55021   0.55021
 RFO step:  Lambda=-5.66904209D-03 EMin= 2.36824250D-03
 Linear search not attempted -- first point.
 Iteration  1 RMS(Cart)=  0.03129485 RMS(Int)=  0.00111150
 Iteration  2 RMS(Cart)=  0.00111201 RMS(Int)=  0.00049814
 Iteration  3 RMS(Cart)=  0.00000102 RMS(Int)=  0.00049814
 Iteration  4 RMS(Cart)=  0.00000000 RMS(Int)=  0.00049814
 ITry= 1 IFail=0 DXMaxC= 7.97D-02 DCOld= 1.00D+10 DXMaxT= 3.00D-01 DXLimC= 3.00D+00 Rises=F
 ClnCor:  largest displacement from symmetrization is 8.43D-09 for atom     5.
 Variable       Old X    -DE/DX   Delta X   Delta X   Delta X     New X
                                 (Linear)    (Quad)   (Total)
    R1        2.02201   0.01700   0.00000   0.04497   0.04497   2.06697
    R2        2.91018  -0.00752   0.00000  -0.02584  -0.02584   2.88434
    R3        2.55113   0.01896   0.00000   0.03410   0.03410   2.58523
    R4        2.02201   0.01700   0.00000   0.04497   0.04497   2.06697
    R5        2.55113  -0.01000   0.00000  -0.01799  -0.01799   2.53314
    R6        2.55113  -0.01000   0.00000  -0.01799  -0.01799   2.53314
    R7        2.55113  -0.00834   0.00000  -0.01501  -0.01501   2.53612
    A1        1.91063  -0.00229   0.00000  -0.01329  -0.01333   1.89730
    A2        1.91063   0.00106   0.00000   0.00495   0.00492   1.91556
    A3        1.91063   0.00261   0.00000   0.01825   0.01818   1.92882
    A4        1.91063  -0.00016   0.00000  -0.00158  -0.00161   1.90902
    A5        1.91063  -0.00229   0.00000  -0.01329  -0.01333   1.89730
    A6        1.91063   0.00106   0.00000   0.00495   0.00492   1.91556
    A7        1.91063   0.01316   0.00000   0.05318   0.05205   1.96268
    A8        1.91063   0.01316   0.00000   0.05318   0.05205   1.96268
    A9        1.91063   0.00405   0.00000   0.01244   0.01217   1.92281
   A10        1.91063  -0.01190   0.00000  -0.03979  -0.04159   1.86905
   A11        1.91063  -0.00924   0.00000  -0.03951  -0.03975   1.87088
   A12        1.91063  -0.00924   0.00000  -0.03951  -0.03975   1.87088
    D1        1.04720  -0.00097   0.00000  -0.01124  -0.01164   1.03555
    D2        3.14159   0.00057   0.00000   0.00517   0.00555  -3.13604
    D3       -1.04720  -0.00020   0.00000  -0.00304  -0.00305  -1.05024
    D4       -1.04720  -0.00077   0.00000  -0.00820  -0.00860  -1.05580
    D5        1.04720   0.00077   0.00000   0.00820   0.00860   1.05580
    D6        3.14159   0.00000   0.00000  -0.00000  -0.00000   3.14159
    D7       -3.14159  -0.00057   0.00000  -0.00517  -0.00555   3.13604
    D8       -1.04720   0.00097   0.00000   0.01124   0.01164  -1.03555
    D9        1.04720   0.00020   0.00000   0.00304   0.00305   1.05024
         Item               Value     Threshold  Converged?
 Maximum Force            0.018957     0.000015     NO 
 RMS     Force            0.008371     0.000010     NO 
 Maximum Displacement     0.079680     0.000060     NO 
 RMS     Displacement     0.031155     0.000040     NO 
 Predicted change in Energy=-2.891157D-03
 Lowest energy point so far.  Saving SCF results.
 GradGradGradGradGradGradGradGradGradGradGradGradGradGradGradGradGradGrad

 Leave Link  103 at Thu Apr  2 15:14:24 2026, MaxMem=  1073741824 cpu:               0.0 elap:               0.0
 (Enter /Users/yarger/Applications/g16/l202.exe)
                          Input orientation:                          
 ---------------------------------------------------------------------
 Center     Atomic      Atomic             Coordinates (Angstroms)
 Number     Number       Type             X           Y           Z
 ---------------------------------------------------------------------
      1          6           0       -1.510021    1.417069    1.459428
      2          1           0       -1.166880    2.455580    1.447749
      3          6           0       -0.325340    0.506520    1.147811
      4          9           0        0.672645    0.644123    2.032105
      5          9           0       -0.665341   -0.790071    1.136189
      6          9           0        0.174991    0.796316   -0.063307
      7          9           0       -2.006981    1.108208    2.696031
      8          1           0       -2.282253    1.260005    0.700894
 ---------------------------------------------------------------------
                    Distance matrix (angstroms):
                    1          2          3          4          5
     1  C    0.000000
     2  H    1.093795   0.000000
     3  C    1.526327   2.144058   0.000000
     4  F    2.385254   2.647017   1.340479   0.000000
     5  F    2.385254   3.298918   1.340479   2.156337   0.000000
     6  F    2.354426   2.614778   1.342059   2.159068   2.159068
     7  F    1.368046   2.019749   2.363669   2.799388   2.799388
     8  H    1.093795   1.797568   2.144058   3.298918   2.647017
                    6          7          8
     6  F    0.000000
     7  F    3.531604   0.000000
     8  H    2.614778   2.019749   0.000000
 Stoichiometry    C2H2F4
 Framework group  CS[SG(C2F2),X(H2F2)]
 Deg. of freedom    11
 Full point group                 CS      NOp   2
 RotChk:  IX=2 Diff= 1.38D+00
 Largest Abelian subgroup         CS      NOp   2
 Largest concise Abelian subgroup CS      NOp   2
                         Standard orientation:                         
 ---------------------------------------------------------------------
 Center     Atomic      Atomic             Coordinates (Angstroms)
 Number     Number       Type             X           Y           Z
 ---------------------------------------------------------------------
      1          6           0        1.173439    0.235572    0.000000
      2          1           0        1.510569    0.759898   -0.898784
      3          6           0       -0.352358    0.195384   -0.000000
      4          9           0       -0.848088   -0.428066   -1.078168
      5          9           0       -0.848088   -0.428066    1.078168
      6          9           0       -0.848088    1.442530   -0.000000
      7          9           0        1.661196   -1.042569    0.000000
      8          1           0        1.510569    0.759898    0.898784
 ---------------------------------------------------------------------
 Rotational constants (GHZ):           5.3640674           2.7667315           2.7276000
 Leave Link  202 at Thu Apr  2 15:14:24 2026, MaxMem=  1073741824 cpu:               0.0 elap:               0.0
 (Enter /Users/yarger/Applications/g16/l301.exe)
 Standard basis: 6-31+G(d) (6D, 7F)
 Ernie: Thresh=  0.10000D-02 Tol=  0.10000D-05 Strict=F.
 There are    77 symmetry adapted cartesian basis functions of A'  symmetry.
 There are    41 symmetry adapted cartesian basis functions of A"  symmetry.
 There are    77 symmetry adapted basis functions of A'  symmetry.
 There are    41 symmetry adapted basis functions of A"  symmetry.
   118 basis functions,   200 primitive gaussians,   118 cartesian basis functions
    25 alpha electrons       25 beta electrons
       nuclear repulsion energy       271.7330428925 Hartrees.
 IExCor= 4639 DFT=T Ex+Corr=wB97XD ExCW=0 ScaHFX=  1.000000
 ScaDFX=  1.000000  1.000000  1.000000  1.000000 ScalE2=  1.000000  1.000000
 IRadAn=      5 IRanWt=     -1 IRanGd=            0 ICorTp=0 IEmpDi=121
 HFx  wShort=  0.000000 wLong=  0.200000 cFull=  0.222036 cShort=  0.000000 cLong=  0.777964
 DFx  wShort=  0.000000 wLong=  0.200000 cFull=  0.000000 cShort=  0.000000 cLong=  1.000000
 NAtoms=    8 NActive=    8 NUniq=    6 SFac= 1.78D+00 NAtFMM=   60 NAOKFM=F Big=F
 Integral buffers will be    131072 words long.
 Raffenetti 2 integral format.
 Two-electron integral symmetry is turned on.
 R6Disp:  Grimme-D2 Dispersion energy=       -0.0021709065 Hartrees.
 Nuclear repulsion after empirical dispersion term =      271.7308719860 Hartrees.
 Leave Link  301 at Thu Apr  2 15:14:24 2026, MaxMem=  1073741824 cpu:               0.1 elap:               0.0
 (Enter /Users/yarger/Applications/g16/l302.exe)
 NPDir=0 NMtPBC=     1 NCelOv=     1 NCel=       1 NClECP=     1 NCelD=      1
         NCelK=      1 NCelE2=     1 NClLst=     1 CellRange=     0.0.
 One-electron integrals computed using PRISM.
 One-electron integral symmetry used in STVInt
 NBasis=   118 RedAO= T EigKep=  1.99D-04  NBF=    77    41
 NBsUse=   118 1.00D-06 EigRej= -1.00D+00 NBFU=    77    41
 Precomputing XC quadrature grid using
 IXCGrd= 4 IRadAn=           5 IRanWt=          -1 IRanGd=           0 AccXCQ= 0.00D+00.
 Generated NRdTot=       0 NPtTot=           0 NUsed=           0 NTot=          32
 NSgBfM=   118   118   118   118   118 MxSgAt=     8 MxSgA2=     8.
 Leave Link  302 at Thu Apr  2 15:14:24 2026, MaxMem=  1073741824 cpu:               0.4 elap:               0.1
 (Enter /Users/yarger/Applications/g16/l303.exe)
 DipDrv:  MaxL=1.
 Leave Link  303 at Thu Apr  2 15:14:24 2026, MaxMem=  1073741824 cpu:               0.1 elap:               0.0
 (Enter /Users/yarger/Applications/g16/l401.exe)
 Initial guess from the checkpoint file:  "1112Tetrafluoroethane_Opt_Freq_DFT_WB97XD_631pd_Gaussian16.chk"
 B after Tr=     0.000000    0.000000    0.000000
         Rot=    0.873114   -0.000000    0.000000   -0.487516 Ang= -58.35 deg.
 Guess basis will be translated and rotated to current coordinates.
 JPrj=2 DoOrth=T DoCkMO=T.
 Initial guess orbital symmetries:
       Occupied  (A') (A') (A") (A') (A') (A') (A') (A') (A") (A')
                 (A') (A') (A') (A") (A') (A') (A") (A') (A") (A')
                 (A') (A") (A") (A") (A')
       Virtual   (A') (A') (A') (A") (A") (A') (A') (A') (A') (A")
                 (A') (A') (A') (A') (A") (A") (A') (A') (A') (A")
                 (A") (A') (A") (A') (A') (A") (A') (A') (A') (A")
                 (A') (A') (A') (A") (A') (A') (A") (A") (A') (A')
                 (A") (A') (A') (A") (A') (A") (A') (A") (A') (A")
                 (A') (A') (A') (A") (A') (A") (A') (A') (A") (A')
                 (A") (A") (A') (A") (A') (A') (A') (A") (A") (A")
                 (A') (A') (A') (A") (A') (A') (A") (A') (A") (A')
                 (A') (A") (A') (A') (A") (A') (A') (A') (A') (A')
                 (A") (A') (A')
 The electronic state of the initial guess is 1-A'.
 Generating alternative initial guess.
 ExpMin= 4.38D-02 ExpMax= 7.00D+03 ExpMxC= 1.05D+03 IAcc=2 IRadAn=         4 AccDes= 0.00D+00
 Harris functional with IExCor= 4639 and IRadAn=       4 diagonalized for initial guess.
 HarFok:  IExCor= 4639 AccDes= 0.00D+00 IRadAn=         4 IDoV= 1 UseB2=F ITyADJ=14
 ICtDFT=  3500011 ScaDFX=  1.000000  1.000000  1.000000  1.000000
 FoFCou: FMM=F IPFlag=           0 FMFlag=      100000 FMFlg1=           0
         NFxFlg=           0 DoJE=T BraDBF=F KetDBF=T FulRan=T
         wScrn=  0.000000 ICntrl=       500 IOpCl=  0 I1Cent=   200000004 NGrid=           0
         NMat0=    1 NMatS0=      1 NMatT0=    0 NMatD0=    1 NMtDS0=    0 NMtDT0=    0
 Petite list used in FoFCou.
 Harris En= -461.162768625809    
 Leave Link  401 at Thu Apr  2 15:14:25 2026, MaxMem=  1073741824 cpu:               0.8 elap:               0.2
 (Enter /Users/yarger/Applications/g16/l502.exe)
 Keep R1 ints in memory in symmetry-blocked form, NReq=74222059.
 FoFCou: FMM=F IPFlag=           0 FMFlag=           0 FMFlg1=           0
         NFxFlg=           0 DoJE=F BraDBF=F KetDBF=F FulRan=T
         wScrn=  0.000000 ICntrl=       600 IOpCl=  0 I1Cent=           0 NGrid=           0
         NMat0=    1 NMatS0=   7021 NMatT0=    0 NMatD0=    1 NMtDS0=    0 NMtDT0=    0
 Petite list used in FoFCou.
 Closed shell SCF:
 Using DIIS extrapolation, IDIIS=  1040.
 NGot=  1073741824 LenX=  1061244307 LenY=  1061229942
 Requested convergence on RMS density matrix=1.00D-08 within 128 cycles.
 Requested convergence on MAX density matrix=1.00D-06.
 Requested convergence on             energy=1.00D-06.
 No special actions if energy rises.

 Cycle   1  Pass 1  IDiag  1:
 E= -476.674444780138    
 DIIS: error= 2.81D-03 at cycle   1 NSaved=   1.
 NSaved= 1 IEnMin= 1 EnMin= -476.674444780138     IErMin= 1 ErrMin= 2.81D-03
 ErrMax= 2.81D-03  0.00D+00 EMaxC= 1.00D-01 BMatC= 1.73D-03 BMatP= 1.73D-03
 IDIUse=3 WtCom= 9.72D-01 WtEn= 2.81D-02
 Coeff-Com:  0.100D+01
 Coeff-En:   0.100D+01
 Coeff:      0.100D+01
 Gap=     0.536 Goal=   None    Shift=    0.000
 GapD=    0.536 DampG=2.000 DampE=1.000 DampFc=2.0000 IDamp=-1.
 RMSDP=5.28D-04 MaxDP=8.00D-03              OVMax= 1.18D-02

 Cycle   2  Pass 1  IDiag  1:
 E= -476.676750643490     Delta-E=       -0.002305863351 Rises=F Damp=F
 DIIS: error= 8.12D-04 at cycle   2 NSaved=   2.
 NSaved= 2 IEnMin= 2 EnMin= -476.676750643490     IErMin= 2 ErrMin= 8.12D-04
 ErrMax= 8.12D-04  0.00D+00 EMaxC= 1.00D-01 BMatC= 1.19D-04 BMatP= 1.73D-03
 IDIUse=3 WtCom= 9.92D-01 WtEn= 8.12D-03
 Coeff-Com: -0.211D-01 0.102D+01
 Coeff-En:   0.000D+00 0.100D+01
 Coeff:     -0.209D-01 0.102D+01
 Gap=     0.533 Goal=   None    Shift=    0.000
 RMSDP=1.62D-04 MaxDP=2.64D-03 DE=-2.31D-03 OVMax= 3.84D-03

 Cycle   3  Pass 1  IDiag  1:
 E= -476.676876809979     Delta-E=       -0.000126166489 Rises=F Damp=F
 DIIS: error= 7.30D-04 at cycle   3 NSaved=   3.
 NSaved= 3 IEnMin= 3 EnMin= -476.676876809979     IErMin= 3 ErrMin= 7.30D-04
 ErrMax= 7.30D-04  0.00D+00 EMaxC= 1.00D-01 BMatC= 6.77D-05 BMatP= 1.19D-04
 IDIUse=3 WtCom= 9.93D-01 WtEn= 7.30D-03
 Coeff-Com: -0.817D-01 0.452D+00 0.629D+00
 Coeff-En:   0.000D+00 0.000D+00 0.100D+01
 Coeff:     -0.811D-01 0.449D+00 0.632D+00
 Gap=     0.533 Goal=   None    Shift=    0.000
 RMSDP=5.42D-05 MaxDP=1.50D-03 DE=-1.26D-04 OVMax= 1.44D-03

 Cycle   4  Pass 1  IDiag  1:
 E= -476.676927888437     Delta-E=       -0.000051078459 Rises=F Damp=F
 DIIS: error= 1.24D-04 at cycle   4 NSaved=   4.
 NSaved= 4 IEnMin= 4 EnMin= -476.676927888437     IErMin= 4 ErrMin= 1.24D-04
 ErrMax= 1.24D-04  0.00D+00 EMaxC= 1.00D-01 BMatC= 2.60D-06 BMatP= 6.77D-05
 IDIUse=3 WtCom= 9.99D-01 WtEn= 1.24D-03
 Coeff-Com: -0.205D-01 0.524D-01 0.175D+00 0.793D+00
 Coeff-En:   0.000D+00 0.000D+00 0.000D+00 0.100D+01
 Coeff:     -0.205D-01 0.523D-01 0.175D+00 0.793D+00
 Gap=     0.533 Goal=   None    Shift=    0.000
 RMSDP=1.60D-05 MaxDP=3.30D-04 DE=-5.11D-05 OVMax= 3.52D-04

 Cycle   5  Pass 1  IDiag  1:
 E= -476.676929911004     Delta-E=       -0.000002022566 Rises=F Damp=F
 DIIS: error= 3.95D-05 at cycle   5 NSaved=   5.
 NSaved= 5 IEnMin= 5 EnMin= -476.676929911004     IErMin= 5 ErrMin= 3.95D-05
 ErrMax= 3.95D-05  0.00D+00 EMaxC= 1.00D-01 BMatC= 4.17D-07 BMatP= 2.60D-06
 IDIUse=1 WtCom= 1.00D+00 WtEn= 0.00D+00
 Coeff-Com:  0.461D-02-0.499D-01-0.271D-01 0.302D+00 0.770D+00
 Coeff:      0.461D-02-0.499D-01-0.271D-01 0.302D+00 0.770D+00
 Gap=     0.533 Goal=   None    Shift=    0.000
 RMSDP=7.57D-06 MaxDP=1.55D-04 DE=-2.02D-06 OVMax= 1.73D-04

 Cycle   6  Pass 1  IDiag  1:
 E= -476.676930292504     Delta-E=       -0.000000381500 Rises=F Damp=F
 DIIS: error= 4.89D-06 at cycle   6 NSaved=   6.
 NSaved= 6 IEnMin= 6 EnMin= -476.676930292504     IErMin= 6 ErrMin= 4.89D-06
 ErrMax= 4.89D-06  0.00D+00 EMaxC= 1.00D-01 BMatC= 3.78D-09 BMatP= 4.17D-07
 IDIUse=1 WtCom= 1.00D+00 WtEn= 0.00D+00
 Coeff-Com:  0.112D-02-0.821D-02-0.771D-02 0.178D-01 0.926D-01 0.904D+00
 Coeff:      0.112D-02-0.821D-02-0.771D-02 0.178D-01 0.926D-01 0.904D+00
 Gap=     0.533 Goal=   None    Shift=    0.000
 RMSDP=1.21D-06 MaxDP=1.99D-05 DE=-3.81D-07 OVMax= 2.31D-05

 Cycle   7  Pass 1  IDiag  1:
 E= -476.676930296133     Delta-E=       -0.000000003629 Rises=F Damp=F
 DIIS: error= 2.59D-06 at cycle   7 NSaved=   7.
 NSaved= 7 IEnMin= 7 EnMin= -476.676930296133     IErMin= 7 ErrMin= 2.59D-06
 ErrMax= 2.59D-06  0.00D+00 EMaxC= 1.00D-01 BMatC= 1.75D-09 BMatP= 3.78D-09
 IDIUse=1 WtCom= 1.00D+00 WtEn= 0.00D+00
 Coeff-Com:  0.182D-03-0.133D-03-0.153D-02-0.139D-01-0.138D-01 0.431D+00
 Coeff-Com:  0.598D+00
 Coeff:      0.182D-03-0.133D-03-0.153D-02-0.139D-01-0.138D-01 0.431D+00
 Coeff:      0.598D+00
 Gap=     0.533 Goal=   None    Shift=    0.000
 RMSDP=3.05D-07 MaxDP=5.53D-06 DE=-3.63D-09 OVMax= 5.82D-06

 Cycle   8  Pass 1  IDiag  1:
 E= -476.676930297232     Delta-E=       -0.000000001099 Rises=F Damp=F
 DIIS: error= 4.34D-07 at cycle   8 NSaved=   8.
 NSaved= 8 IEnMin= 8 EnMin= -476.676930297232     IErMin= 8 ErrMin= 4.34D-07
 ErrMax= 4.34D-07  0.00D+00 EMaxC= 1.00D-01 BMatC= 4.50D-11 BMatP= 1.75D-09
 IDIUse=1 WtCom= 1.00D+00 WtEn= 0.00D+00
 Coeff-Com: -0.602D-04 0.714D-03 0.406D-03-0.464D-02-0.118D-01 0.724D-02
 Coeff-Com:  0.135D+00 0.873D+00
 Coeff:     -0.602D-04 0.714D-03 0.406D-03-0.464D-02-0.118D-01 0.724D-02
 Coeff:      0.135D+00 0.873D+00
 Gap=     0.533 Goal=   None    Shift=    0.000
 RMSDP=1.15D-07 MaxDP=1.80D-06 DE=-1.10D-09 OVMax= 2.14D-06

 Cycle   9  Pass 1  IDiag  1:
 E= -476.676930297268     Delta-E=       -0.000000000036 Rises=F Damp=F
 DIIS: error= 1.11D-07 at cycle   9 NSaved=   9.
 NSaved= 9 IEnMin= 9 EnMin= -476.676930297268     IErMin= 9 ErrMin= 1.11D-07
 ErrMax= 1.11D-07  0.00D+00 EMaxC= 1.00D-01 BMatC= 1.46D-12 BMatP= 4.50D-11
 IDIUse=1 WtCom= 1.00D+00 WtEn= 0.00D+00
 Coeff-Com: -0.180D-04 0.129D-03 0.158D-03-0.212D-03-0.142D-02-0.186D-01
 Coeff-Com: -0.317D-02 0.143D+00 0.880D+00
 Coeff:     -0.180D-04 0.129D-03 0.158D-03-0.212D-03-0.142D-02-0.186D-01
 Coeff:     -0.317D-02 0.143D+00 0.880D+00
 Gap=     0.533 Goal=   None    Shift=    0.000
 RMSDP=1.99D-08 MaxDP=3.14D-07 DE=-3.63D-11 OVMax= 5.07D-07

 Cycle  10  Pass 1  IDiag  1:
 E= -476.676930297278     Delta-E=       -0.000000000010 Rises=F Damp=F
 DIIS: error= 3.43D-08 at cycle  10 NSaved=  10.
 NSaved=10 IEnMin=10 EnMin= -476.676930297278     IErMin=10 ErrMin= 3.43D-08
 ErrMax= 3.43D-08  0.00D+00 EMaxC= 1.00D-01 BMatC= 1.58D-13 BMatP= 1.46D-12
 IDIUse=1 WtCom= 1.00D+00 WtEn= 0.00D+00
 Coeff-Com: -0.264D-05 0.304D-05 0.275D-04 0.167D-03 0.110D-03-0.573D-02
 Coeff-Com: -0.723D-02-0.120D-02 0.250D+00 0.764D+00
 Coeff:     -0.264D-05 0.304D-05 0.275D-04 0.167D-03 0.110D-03-0.573D-02
 Coeff:     -0.723D-02-0.120D-02 0.250D+00 0.764D+00
 Gap=     0.533 Goal=   None    Shift=    0.000
 RMSDP=4.56D-09 MaxDP=7.43D-08 DE=-1.01D-11 OVMax= 1.41D-07

 SCF Done:  E(RwB97XD) =  -476.676930297     A.U. after   10 cycles
            NFock= 10  Conv=0.46D-08     -V/T= 2.0074
 KE= 4.731549082986D+02 PE=-1.673649661845D+03 EE= 4.520869512632D+02
 Leave Link  502 at Thu Apr  2 15:14:27 2026, MaxMem=  1073741824 cpu:              10.6 elap:               2.7
 (Enter /Users/yarger/Applications/g16/l701.exe)
 ... and contract with generalized density number  0.
 Compute integral first derivatives.
 R6Disp: Adding Grimme-D2 dispersion energy 1st derivatives to the gradient.
 Leave Link  701 at Thu Apr  2 15:14:28 2026, MaxMem=  1073741824 cpu:               0.3 elap:               0.1
 (Enter /Users/yarger/Applications/g16/l702.exe)
 L702 exits ... SP integral derivatives will be done elsewhere.
 Leave Link  702 at Thu Apr  2 15:14:28 2026, MaxMem=  1073741824 cpu:               0.1 elap:               0.0
 (Enter /Users/yarger/Applications/g16/l703.exe)
 Integral derivatives from FoFJK, PRISM(SPDF).
 Compute integral first derivatives, UseDBF=F ICtDFT=           0.
 Calling FoFJK, ICntrl=      2127 FMM=F ISym2X=1 I1Cent= 0 IOpClX= 0 NMat=1 NMatS=1 NMatT=0.
 FoFJK:  IHMeth= 1 ICntrl=    2127 DoSepK=T KAlg= 0 I1Cent=           0 FoldK=F
 IRaf=         1 NMat=       1 IRICut=       1 DoRegI=T DoRafI=F ISym2E= 1 IDoP0=0 IntGTp=1.
 FoFCou: FMM=F IPFlag=           0 FMFlag=      100000 FMFlg1=         800
         NFxFlg=           0 DoJE=F BraDBF=F KetDBF=F FulRan=T
         wScrn=  0.000000 ICntrl=      2527 IOpCl=  0 I1Cent=           0 NGrid=           0
         NMat0=    1 NMatS0=      1 NMatT0=    0 NMatD0=    1 NMtDS0=    0 NMtDT0=    0
 Petite list used in FoFCou.
 Leave Link  703 at Thu Apr  2 15:14:29 2026, MaxMem=  1073741824 cpu:               3.4 elap:               0.9
 (Enter /Users/yarger/Applications/g16/l716.exe)
 Dipole        = 5.99243575D-01 6.68207387D-01 2.66453526D-15
 ***** Axes restored to original set *****
 -------------------------------------------------------------------
 Center     Atomic                   Forces (Hartrees/Bohr)
 Number     Number              X              Y              Z
 -------------------------------------------------------------------
      1        6           0.005080140   -0.000978183   -0.006020934
      2        1          -0.000436061   -0.000449151    0.000758877
      3        6           0.003896500   -0.005054810    0.002272662
      4        9          -0.001096778    0.002644184    0.002795309
      5        9          -0.003875982   -0.000334859    0.000934352
      6        9          -0.001696635    0.004442028   -0.004577052
      7        9          -0.001750339   -0.000157942    0.002866840
      8        1          -0.000120844   -0.000111268    0.000969946
 -------------------------------------------------------------------
 Cartesian Forces:  Max     0.006020934 RMS     0.002870355
 Leave Link  716 at Thu Apr  2 15:14:29 2026, MaxMem=  1073741824 cpu:               0.1 elap:               0.0
 (Enter /Users/yarger/Applications/g16/l103.exe)

 GradGradGradGradGradGradGradGradGradGradGradGradGradGradGradGradGradGrad
 Berny optimization.
 Using GEDIIS/GDIIS optimizer.
 FormGI is forming the generalized inverse of G from B-inverse, IUseBI=4.
 Internal  Forces:  Max     0.006442491 RMS     0.002723737
 Search for a local minimum.
 Step number   2 out of a maximum of   38
 All quantities printed in internal units (Hartrees-Bohrs-Radians)
 RMS Force = .27237D-02 SwitMx=.10000D-02 MixMth= 1
 Mixed Optimization -- RFO/linear search
 Update second derivatives using D2CorX and points    1    2
 DE= -2.26D-03 DEPred=-2.89D-03 R= 7.83D-01
 TightC=F SS=  1.41D+00  RLast= 1.36D-01 DXNew= 5.0454D-01 4.0738D-01
 Trust test= 7.83D-01 RLast= 1.36D-01 DXMaxT set to 4.07D-01
 ITU=  1  0
 Use linear search instead of GDIIS.
     Eigenvalues ---    0.00237   0.05800   0.06072   0.07976   0.08406
     Eigenvalues ---    0.16000   0.16028   0.22489   0.24128   0.25000
     Eigenvalues ---    0.27557   0.31789   0.37230   0.38600   0.52410
     Eigenvalues ---    0.55021   0.55021   0.57809
 RFO step:  Lambda=-3.75382245D-04 EMin= 2.36824250D-03
 Quartic linear search produced a step of -0.16579.
 Iteration  1 RMS(Cart)=  0.01143497 RMS(Int)=  0.00013320
 Iteration  2 RMS(Cart)=  0.00011594 RMS(Int)=  0.00007775
 Iteration  3 RMS(Cart)=  0.00000002 RMS(Int)=  0.00007775
 ITry= 1 IFail=0 DXMaxC= 2.80D-02 DCOld= 1.00D+10 DXMaxT= 4.07D-01 DXLimC= 3.00D+00 Rises=F
 ClnCor:  largest displacement from symmetrization is 1.06D-08 for atom     5.
 Variable       Old X    -DE/DX   Delta X   Delta X   Delta X     New X
                                 (Linear)    (Quad)   (Total)
    R1        2.06697  -0.00057  -0.00745   0.00918   0.00173   2.06870
    R2        2.88434  -0.00346   0.00428  -0.01611  -0.01183   2.87251
    R3        2.58523   0.00327  -0.00565   0.01288   0.00722   2.59245
    R4        2.06697  -0.00057  -0.00745   0.00918   0.00173   2.06870
    R5        2.53314   0.00130   0.00298  -0.00222   0.00077   2.53391
    R6        2.53314   0.00130   0.00298  -0.00222   0.00077   2.53391
    R7        2.53612   0.00446   0.00249   0.00327   0.00576   2.54188
    A1        1.89730   0.00040   0.00221  -0.00013   0.00208   1.89938
    A2        1.91556  -0.00094  -0.00082  -0.00463  -0.00544   1.91011
    A3        1.92882  -0.00006  -0.00301   0.00665   0.00364   1.93245
    A4        1.90902   0.00117   0.00027   0.00298   0.00325   1.91227
    A5        1.89730   0.00040   0.00221  -0.00013   0.00208   1.89938
    A6        1.91556  -0.00094  -0.00082  -0.00463  -0.00544   1.91011
    A7        1.96268  -0.00407  -0.00863  -0.00120  -0.00972   1.95296
    A8        1.96268  -0.00407  -0.00863  -0.00120  -0.00972   1.95296
    A9        1.92281  -0.00644  -0.00202  -0.01962  -0.02173   1.90107
   A10        1.86905   0.00476   0.00689   0.00730   0.01446   1.88351
   A11        1.87088   0.00548   0.00659   0.00813   0.01463   1.88551
   A12        1.87088   0.00548   0.00659   0.00813   0.01463   1.88551
    D1        1.03555  -0.00033   0.00193  -0.00783  -0.00581   1.02974
    D2       -3.13604  -0.00007  -0.00092  -0.00005  -0.00107  -3.13711
    D3       -1.05024  -0.00020   0.00051  -0.00394  -0.00344  -1.05368
    D4       -1.05580  -0.00013   0.00143  -0.00389  -0.00237  -1.05817
    D5        1.05580   0.00013  -0.00143   0.00389   0.00237   1.05817
    D6        3.14159  -0.00000   0.00000  -0.00000   0.00000   3.14159
    D7        3.13604   0.00007   0.00092   0.00005   0.00107   3.13711
    D8       -1.03555   0.00033  -0.00193   0.00783   0.00581  -1.02974
    D9        1.05024   0.00020  -0.00051   0.00394   0.00344   1.05368
         Item               Value     Threshold  Converged?
 Maximum Force            0.006442     0.000015     NO 
 RMS     Force            0.002724     0.000010     NO 
 Maximum Displacement     0.028018     0.000060     NO 
 RMS     Displacement     0.011501     0.000040     NO 
 Predicted change in Energy=-2.793626D-04
 Lowest energy point so far.  Saving SCF results.
 GradGradGradGradGradGradGradGradGradGradGradGradGradGradGradGradGradGrad

 Leave Link  103 at Thu Apr  2 15:14:29 2026, MaxMem=  1073741824 cpu:               0.1 elap:               0.0
 (Enter /Users/yarger/Applications/g16/l202.exe)
                          Input orientation:                          
 ---------------------------------------------------------------------
 Center     Atomic      Atomic             Coordinates (Angstroms)
 Number     Number       Type             X           Y           Z
 ---------------------------------------------------------------------
      1          6           0       -1.501443    1.411411    1.455674
      2          1           0       -1.158106    2.450847    1.446755
      3          6           0       -0.322119    0.502626    1.149234
      4          9           0        0.668837    0.651760    2.040154
      5          9           0       -0.676670   -0.790496    1.139201
      6          9           0        0.161777    0.811143   -0.067307
      7          9           0       -2.005638    1.107692    2.694852
      8          1           0       -2.275817    1.252767    0.698335
 ---------------------------------------------------------------------
                    Distance matrix (angstroms):
                    1          2          3          4          5
     1  C    0.000000
     2  H    1.094708   0.000000
     3  C    1.520066   2.140784   0.000000
     4  F    2.372510   2.631835   1.340885   0.000000
     5  F    2.372510   3.291303   1.340885   2.168458   0.000000
     6  F    2.333687   2.592895   1.345105   2.173454   2.173454
     7  F    1.371868   2.019931   2.364165   2.790936   2.790936
     8  H    1.094708   1.801334   2.140784   3.291303   2.631835
                    6          7          8
     6  F    0.000000
     7  F    3.523514   0.000000
     8  H    2.592895   2.019931   0.000000
 Stoichiometry    C2H2F4
 Framework group  CS[SG(C2F2),X(H2F2)]
 Deg. of freedom    11
 Full point group                 CS      NOp   2
 RotChk:  IX=2 Diff= 6.60D-03
 Largest Abelian subgroup         CS      NOp   2
 Largest concise Abelian subgroup CS      NOp   2
                         Standard orientation:                         
 ---------------------------------------------------------------------
 Center     Atomic      Atomic             Coordinates (Angstroms)
 Number     Number       Type             X           Y           Z
 ---------------------------------------------------------------------
      1          6           0        1.157418    0.242192   -0.000000
      2          1           0        1.493122    0.766107   -0.900667
      3          6           0       -0.361775    0.190686    0.000000
      4          9           0       -0.840865   -0.436127   -1.084229
      5          9           0       -0.840865   -0.436127    1.084229
      6          9           0       -0.840865    1.447580    0.000000
      7          9           0        1.660361   -1.034158   -0.000000
      8          1           0        1.493122    0.766107    0.900667
 ---------------------------------------------------------------------
 Rotational constants (GHZ):           5.3137408           2.7797402           2.7419863
 Leave Link  202 at Thu Apr  2 15:14:29 2026, MaxMem=  1073741824 cpu:               0.0 elap:               0.0
 (Enter /Users/yarger/Applications/g16/l301.exe)
 Standard basis: 6-31+G(d) (6D, 7F)
 Ernie: Thresh=  0.10000D-02 Tol=  0.10000D-05 Strict=F.
 There are    77 symmetry adapted cartesian basis functions of A'  symmetry.
 There are    41 symmetry adapted cartesian basis functions of A"  symmetry.
 There are    77 symmetry adapted basis functions of A'  symmetry.
 There are    41 symmetry adapted basis functions of A"  symmetry.
   118 basis functions,   200 primitive gaussians,   118 cartesian basis functions
    25 alpha electrons       25 beta electrons
       nuclear repulsion energy       271.7026572448 Hartrees.
 IExCor= 4639 DFT=T Ex+Corr=wB97XD ExCW=0 ScaHFX=  1.000000
 ScaDFX=  1.000000  1.000000  1.000000  1.000000 ScalE2=  1.000000  1.000000
 IRadAn=      5 IRanWt=     -1 IRanGd=            0 ICorTp=0 IEmpDi=121
 HFx  wShort=  0.000000 wLong=  0.200000 cFull=  0.222036 cShort=  0.000000 cLong=  0.777964
 DFx  wShort=  0.000000 wLong=  0.200000 cFull=  0.000000 cShort=  0.000000 cLong=  1.000000
 NAtoms=    8 NActive=    8 NUniq=    6 SFac= 1.78D+00 NAtFMM=   60 NAOKFM=F Big=F
 Integral buffers will be    131072 words long.
 Raffenetti 2 integral format.
 Two-electron integral symmetry is turned on.
 R6Disp:  Grimme-D2 Dispersion energy=       -0.0021676694 Hartrees.
 Nuclear repulsion after empirical dispersion term =      271.7004895755 Hartrees.
 Leave Link  301 at Thu Apr  2 15:14:29 2026, MaxMem=  1073741824 cpu:               0.1 elap:               0.0
 (Enter /Users/yarger/Applications/g16/l302.exe)
 NPDir=0 NMtPBC=     1 NCelOv=     1 NCel=       1 NClECP=     1 NCelD=      1
         NCelK=      1 NCelE2=     1 NClLst=     1 CellRange=     0.0.
 One-electron integrals computed using PRISM.
 One-electron integral symmetry used in STVInt
 NBasis=   118 RedAO= T EigKep=  1.96D-04  NBF=    77    41
 NBsUse=   118 1.00D-06 EigRej= -1.00D+00 NBFU=    77    41
 Precomputing XC quadrature grid using
 IXCGrd= 4 IRadAn=           5 IRanWt=          -1 IRanGd=           0 AccXCQ= 0.00D+00.
 Generated NRdTot=       0 NPtTot=           0 NUsed=           0 NTot=          32
 NSgBfM=   118   118   118   118   118 MxSgAt=     8 MxSgA2=     8.
 Leave Link  302 at Thu Apr  2 15:14:29 2026, MaxMem=  1073741824 cpu:               0.4 elap:               0.1
 (Enter /Users/yarger/Applications/g16/l303.exe)
 DipDrv:  MaxL=1.
 Leave Link  303 at Thu Apr  2 15:14:29 2026, MaxMem=  1073741824 cpu:               0.1 elap:               0.0
 (Enter /Users/yarger/Applications/g16/l401.exe)
 Initial guess from the checkpoint file:  "1112Tetrafluoroethane_Opt_Freq_DFT_WB97XD_631pd_Gaussian16.chk"
 B after Tr=    -0.000000   -0.000000   -0.000000
         Rot=    0.999999    0.000000   -0.000000   -0.001646 Ang=  -0.19 deg.
 Guess basis will be translated and rotated to current coordinates.
 JPrj=2 DoOrth=T DoCkMO=T.
 Initial guess orbital symmetries:
       Occupied  (A') (A') (A") (A') (A') (A') (A') (A') (A") (A')
                 (A') (A') (A') (A") (A') (A') (A") (A') (A") (A')
                 (A') (A") (A") (A") (A')
       Virtual   (A') (A') (A') (A") (A") (A') (A') (A') (A') (A")
                 (A') (A') (A') (A") (A') (A") (A') (A') (A") (A')
                 (A") (A') (A") (A') (A') (A") (A') (A') (A') (A")
                 (A') (A') (A') (A") (A') (A') (A") (A") (A') (A')
                 (A") (A') (A') (A') (A") (A') (A") (A') (A") (A")
                 (A') (A') (A') (A") (A') (A") (A') (A') (A") (A')
                 (A") (A") (A') (A") (A') (A') (A") (A') (A') (A")
                 (A") (A') (A') (A") (A') (A") (A') (A') (A") (A')
                 (A") (A') (A') (A') (A") (A') (A') (A') (A') (A')
                 (A") (A') (A')
 The electronic state of the initial guess is 1-A'.
 Generating alternative initial guess.
 ExpMin= 4.38D-02 ExpMax= 7.00D+03 ExpMxC= 1.05D+03 IAcc=2 IRadAn=         4 AccDes= 0.00D+00
 Harris functional with IExCor= 4639 and IRadAn=       4 diagonalized for initial guess.
 HarFok:  IExCor= 4639 AccDes= 0.00D+00 IRadAn=         4 IDoV= 1 UseB2=F ITyADJ=14
 ICtDFT=  3500011 ScaDFX=  1.000000  1.000000  1.000000  1.000000
 FoFCou: FMM=F IPFlag=           0 FMFlag=      100000 FMFlg1=           0
         NFxFlg=           0 DoJE=T BraDBF=F KetDBF=T FulRan=T
         wScrn=  0.000000 ICntrl=       500 IOpCl=  0 I1Cent=   200000004 NGrid=           0
         NMat0=    1 NMatS0=      1 NMatT0=    0 NMatD0=    1 NMtDS0=    0 NMtDT0=    0
 Petite list used in FoFCou.
 Harris En= -461.164700900722    
 Leave Link  401 at Thu Apr  2 15:14:29 2026, MaxMem=  1073741824 cpu:               0.8 elap:               0.2
 (Enter /Users/yarger/Applications/g16/l502.exe)
 Keep R1 ints in memory in symmetry-blocked form, NReq=74222059.
 FoFCou: FMM=F IPFlag=           0 FMFlag=           0 FMFlg1=           0
         NFxFlg=           0 DoJE=F BraDBF=F KetDBF=F FulRan=T
         wScrn=  0.000000 ICntrl=       600 IOpCl=  0 I1Cent=           0 NGrid=           0
         NMat0=    1 NMatS0=   7021 NMatT0=    0 NMatD0=    1 NMtDS0=    0 NMtDT0=    0
 Petite list used in FoFCou.
 Closed shell SCF:
 Using DIIS extrapolation, IDIIS=  1040.
 NGot=  1073741824 LenX=  1061244307 LenY=  1061229942
 Requested convergence on RMS density matrix=1.00D-08 within 128 cycles.
 Requested convergence on MAX density matrix=1.00D-06.
 Requested convergence on             energy=1.00D-06.
 No special actions if energy rises.

 Cycle   1  Pass 1  IDiag  1:
 E= -476.676914747407    
 DIIS: error= 8.21D-04 at cycle   1 NSaved=   1.
 NSaved= 1 IEnMin= 1 EnMin= -476.676914747407     IErMin= 1 ErrMin= 8.21D-04
 ErrMax= 8.21D-04  0.00D+00 EMaxC= 1.00D-01 BMatC= 1.90D-04 BMatP= 1.90D-04
 IDIUse=3 WtCom= 9.92D-01 WtEn= 8.21D-03
 Coeff-Com:  0.100D+01
 Coeff-En:   0.100D+01
 Coeff:      0.100D+01
 Gap=     0.533 Goal=   None    Shift=    0.000
 RMSDP=1.79D-04 MaxDP=3.31D-03              OVMax= 4.15D-03

 Cycle   2  Pass 1  IDiag  1:
 E= -476.677185103113     Delta-E=       -0.000270355707 Rises=F Damp=F
 DIIS: error= 2.02D-04 at cycle   2 NSaved=   2.
 NSaved= 2 IEnMin= 2 EnMin= -476.677185103113     IErMin= 2 ErrMin= 2.02D-04
 ErrMax= 2.02D-04  0.00D+00 EMaxC= 1.00D-01 BMatC= 8.07D-06 BMatP= 1.90D-04
 IDIUse=3 WtCom= 9.98D-01 WtEn= 2.02D-03
 Coeff-Com: -0.129D+00 0.113D+01
 Coeff-En:   0.000D+00 0.100D+01
 Coeff:     -0.129D+00 0.113D+01
 Gap=     0.533 Goal=   None    Shift=    0.000
 RMSDP=4.70D-05 MaxDP=8.76D-04 DE=-2.70D-04 OVMax= 1.31D-03

 Cycle   3  Pass 1  IDiag  1:
 E= -476.677199581853     Delta-E=       -0.000014478740 Rises=F Damp=F
 DIIS: error= 1.19D-04 at cycle   3 NSaved=   3.
 NSaved= 3 IEnMin= 3 EnMin= -476.677199581853     IErMin= 3 ErrMin= 1.19D-04
 ErrMax= 1.19D-04  0.00D+00 EMaxC= 1.00D-01 BMatC= 2.83D-06 BMatP= 8.07D-06
 IDIUse=3 WtCom= 9.99D-01 WtEn= 1.19D-03
 Coeff-Com: -0.780D-01 0.449D+00 0.629D+00
 Coeff-En:   0.000D+00 0.000D+00 0.100D+01
 Coeff:     -0.779D-01 0.449D+00 0.629D+00
 Gap=     0.533 Goal=   None    Shift=    0.000
 RMSDP=1.18D-05 MaxDP=2.67D-04 DE=-1.45D-05 OVMax= 3.47D-04

 Cycle   4  Pass 1  IDiag  1:
 E= -476.677201455914     Delta-E=       -0.000001874061 Rises=F Damp=F
 DIIS: error= 3.49D-05 at cycle   4 NSaved=   4.
 NSaved= 4 IEnMin= 4 EnMin= -476.677201455914     IErMin= 4 ErrMin= 3.49D-05
 ErrMax= 3.49D-05  0.00D+00 EMaxC= 1.00D-01 BMatC= 2.77D-07 BMatP= 2.83D-06
 IDIUse=1 WtCom= 1.00D+00 WtEn= 0.00D+00
 Coeff-Com:  0.419D-04-0.652D-01 0.201D+00 0.864D+00
 Coeff:      0.419D-04-0.652D-01 0.201D+00 0.864D+00
 Gap=     0.533 Goal=   None    Shift=    0.000
 RMSDP=5.47D-06 MaxDP=1.14D-04 DE=-1.87D-06 OVMax= 1.24D-04

 Cycle   5  Pass 1  IDiag  1:
 E= -476.677201690726     Delta-E=       -0.000000234812 Rises=F Damp=F
 DIIS: error= 5.58D-06 at cycle   5 NSaved=   5.
 NSaved= 5 IEnMin= 5 EnMin= -476.677201690726     IErMin= 5 ErrMin= 5.58D-06
 ErrMax= 5.58D-06  0.00D+00 EMaxC= 1.00D-01 BMatC= 7.27D-09 BMatP= 2.77D-07
 IDIUse=1 WtCom= 1.00D+00 WtEn= 0.00D+00
 Coeff-Com:  0.353D-02-0.381D-01 0.205D-01 0.206D+00 0.808D+00
 Coeff:      0.353D-02-0.381D-01 0.205D-01 0.206D+00 0.808D+00
 Gap=     0.533 Goal=   None    Shift=    0.000
 RMSDP=1.16D-06 MaxDP=1.89D-05 DE=-2.35D-07 OVMax= 2.66D-05

 Cycle   6  Pass 1  IDiag  1:
 E= -476.677201697536     Delta-E=       -0.000000006810 Rises=F Damp=F
 DIIS: error= 2.43D-06 at cycle   6 NSaved=   6.
 NSaved= 6 IEnMin= 6 EnMin= -476.677201697536     IErMin= 6 ErrMin= 2.43D-06
 ErrMax= 2.43D-06  0.00D+00 EMaxC= 1.00D-01 BMatC= 1.22D-09 BMatP= 7.27D-09
 IDIUse=1 WtCom= 1.00D+00 WtEn= 0.00D+00
 Coeff-Com:  0.136D-02-0.108D-01-0.496D-02 0.257D-01 0.326D+00 0.663D+00
 Coeff:      0.136D-02-0.108D-01-0.496D-02 0.257D-01 0.326D+00 0.663D+00
 Gap=     0.533 Goal=   None    Shift=    0.000
 RMSDP=3.17D-07 MaxDP=7.00D-06 DE=-6.81D-09 OVMax= 6.67D-06

 Cycle   7  Pass 1  IDiag  1:
 E= -476.677201698393     Delta-E=       -0.000000000857 Rises=F Damp=F
 DIIS: error= 7.47D-07 at cycle   7 NSaved=   7.
 NSaved= 7 IEnMin= 7 EnMin= -476.677201698393     IErMin= 7 ErrMin= 7.47D-07
 ErrMax= 7.47D-07  0.00D+00 EMaxC= 1.00D-01 BMatC= 9.61D-11 BMatP= 1.22D-09
 IDIUse=1 WtCom= 1.00D+00 WtEn= 0.00D+00
 Coeff-Com:  0.158D-03-0.150D-03-0.384D-02-0.106D-01 0.365D-01 0.237D+00
 Coeff-Com:  0.741D+00
 Coeff:      0.158D-03-0.150D-03-0.384D-02-0.106D-01 0.365D-01 0.237D+00
 Coeff:      0.741D+00
 Gap=     0.533 Goal=   None    Shift=    0.000
 RMSDP=1.01D-07 MaxDP=1.94D-06 DE=-8.57D-10 OVMax= 2.26D-06

 Cycle   8  Pass 1  IDiag  1:
 E= -476.677201698462     Delta-E=       -0.000000000069 Rises=F Damp=F
 DIIS: error= 1.65D-07 at cycle   8 NSaved=   8.
 NSaved= 8 IEnMin= 8 EnMin= -476.677201698462     IErMin= 8 ErrMin= 1.65D-07
 ErrMax= 1.65D-07  0.00D+00 EMaxC= 1.00D-01 BMatC= 6.95D-12 BMatP= 9.61D-11
 IDIUse=1 WtCom= 1.00D+00 WtEn= 0.00D+00
 Coeff-Com: -0.748D-04 0.966D-03-0.757D-03-0.567D-02-0.184D-01 0.140D-01
 Coeff-Com:  0.240D+00 0.770D+00
 Coeff:     -0.748D-04 0.966D-03-0.757D-03-0.567D-02-0.184D-01 0.140D-01
 Coeff:      0.240D+00 0.770D+00
 Gap=     0.533 Goal=   None    Shift=    0.000
 RMSDP=2.77D-08 MaxDP=5.60D-07 DE=-6.90D-11 OVMax= 6.74D-07

 Cycle   9  Pass 1  IDiag  1:
 E= -476.677201698470     Delta-E=       -0.000000000008 Rises=F Damp=F
 DIIS: error= 2.86D-08 at cycle   9 NSaved=   9.
 NSaved= 9 IEnMin= 9 EnMin= -476.677201698470     IErMin= 9 ErrMin= 2.86D-08
 ErrMax= 2.86D-08  0.00D+00 EMaxC= 1.00D-01 BMatC= 1.73D-13 BMatP= 6.95D-12
 IDIUse=1 WtCom= 1.00D+00 WtEn= 0.00D+00
 Coeff-Com: -0.163D-04 0.114D-03 0.101D-03-0.148D-03-0.445D-02-0.115D-01
 Coeff-Com: -0.849D-02 0.107D+00 0.918D+00
 Coeff:     -0.163D-04 0.114D-03 0.101D-03-0.148D-03-0.445D-02-0.115D-01
 Coeff:     -0.849D-02 0.107D+00 0.918D+00
 Gap=     0.533 Goal=   None    Shift=    0.000
 RMSDP=6.31D-09 MaxDP=1.02D-07 DE=-8.41D-12 OVMax= 1.72D-07

 SCF Done:  E(RwB97XD) =  -476.677201698     A.U. after    9 cycles
            NFock=  9  Conv=0.63D-08     -V/T= 2.0075
 KE= 4.731406953922D+02 PE=-1.673566621429D+03 EE= 4.520482347631D+02
 Leave Link  502 at Thu Apr  2 15:14:32 2026, MaxMem=  1073741824 cpu:               9.8 elap:               2.5
 (Enter /Users/yarger/Applications/g16/l701.exe)
 ... and contract with generalized density number  0.
 Compute integral first derivatives.
 R6Disp: Adding Grimme-D2 dispersion energy 1st derivatives to the gradient.
 Leave Link  701 at Thu Apr  2 15:14:32 2026, MaxMem=  1073741824 cpu:               0.3 elap:               0.1
 (Enter /Users/yarger/Applications/g16/l702.exe)
 L702 exits ... SP integral derivatives will be done elsewhere.
 Leave Link  702 at Thu Apr  2 15:14:32 2026, MaxMem=  1073741824 cpu:               0.1 elap:               0.0
 (Enter /Users/yarger/Applications/g16/l703.exe)
 Integral derivatives from FoFJK, PRISM(SPDF).
 Compute integral first derivatives, UseDBF=F ICtDFT=           0.
 Calling FoFJK, ICntrl=      2127 FMM=F ISym2X=1 I1Cent= 0 IOpClX= 0 NMat=1 NMatS=1 NMatT=0.
 FoFJK:  IHMeth= 1 ICntrl=    2127 DoSepK=T KAlg= 0 I1Cent=           0 FoldK=F
 IRaf=         1 NMat=       1 IRICut=       1 DoRegI=T DoRafI=F ISym2E= 1 IDoP0=0 IntGTp=1.
 FoFCou: FMM=F IPFlag=           0 FMFlag=      100000 FMFlg1=         800
         NFxFlg=           0 DoJE=F BraDBF=F KetDBF=F FulRan=T
         wScrn=  0.000000 ICntrl=      2527 IOpCl=  0 I1Cent=           0 NGrid=           0
         NMat0=    1 NMatS0=      1 NMatT0=    0 NMatD0=    1 NMtDS0=    0 NMtDT0=    0
 Petite list used in FoFCou.
 Leave Link  703 at Thu Apr  2 15:14:33 2026, MaxMem=  1073741824 cpu:               3.5 elap:               0.9
 (Enter /Users/yarger/Applications/g16/l716.exe)
 Dipole        = 5.52677339D-01 6.68186803D-01-6.66133815D-16
 ***** Axes restored to original set *****
 -------------------------------------------------------------------
 Center     Atomic                   Forces (Hartrees/Bohr)
 Number     Number              X              Y              Z
 -------------------------------------------------------------------
      1        6           0.000460739    0.001288760   -0.002751143
      2        1          -0.000743183   -0.001095810    0.000313703
      3        6          -0.000490977   -0.000925713    0.002215131
      4        9          -0.000338456   -0.000446432   -0.000709327
      5        9           0.000656371    0.000619928   -0.000043191
      6        9           0.000725827    0.000226021   -0.001445787
      7        9          -0.000842120    0.000019519    0.001226398
      8        1           0.000571799    0.000313727    0.001194216
 -------------------------------------------------------------------
 Cartesian Forces:  Max     0.002751143 RMS     0.001034119
 Leave Link  716 at Thu Apr  2 15:14:33 2026, MaxMem=  1073741824 cpu:               0.1 elap:               0.0
 (Enter /Users/yarger/Applications/g16/l103.exe)

 GradGradGradGradGradGradGradGradGradGradGradGradGradGradGradGradGradGrad
 Berny optimization.
 Using GEDIIS/GDIIS optimizer.
 FormGI is forming the generalized inverse of G from B-inverse, IUseBI=4.
 Internal  Forces:  Max     0.001622531 RMS     0.000675071
 Search for a local minimum.
 Step number   3 out of a maximum of   38
 All quantities printed in internal units (Hartrees-Bohrs-Radians)
 RMS Force = .67507D-03 SwitMx=.10000D-02 MixMth= 2
 Mixed Optimization -- En-DIIS/RFO-DIIS
 Update second derivatives using D2CorX and points    1    2    3
 DE= -2.71D-04 DEPred=-2.79D-04 R= 9.72D-01
 TightC=F SS=  1.41D+00  RLast= 4.16D-02 DXNew= 6.8514D-01 1.2470D-01
 Trust test= 9.72D-01 RLast= 4.16D-02 DXMaxT set to 4.07D-01
 ITU=  1  1  0
 Use linear search instead of GDIIS.
     Eigenvalues ---    0.00237   0.05782   0.05934   0.08092   0.08690
     Eigenvalues ---    0.15950   0.16000   0.21643   0.23957   0.25000
     Eigenvalues ---    0.28088   0.37111   0.37230   0.37887   0.50085
     Eigenvalues ---    0.55021   0.55266   0.57748
 RFO step:  Lambda=-3.37244337D-05 EMin= 2.36824250D-03
 Quartic linear search produced a step of -0.03309.
 Iteration  1 RMS(Cart)=  0.00279624 RMS(Int)=  0.00000591
 Iteration  2 RMS(Cart)=  0.00000515 RMS(Int)=  0.00000356
 Iteration  3 RMS(Cart)=  0.00000000 RMS(Int)=  0.00000356
 ITry= 1 IFail=0 DXMaxC= 6.73D-03 DCOld= 1.00D+10 DXMaxT= 4.07D-01 DXLimC= 3.00D+00 Rises=F
 ClnCor:  largest displacement from symmetrization is 1.39D-12 for atom     5.
 Variable       Old X    -DE/DX   Delta X   Delta X   Delta X     New X
                                 (Linear)    (Quad)   (Total)
    R1        2.06870  -0.00128  -0.00006  -0.00294  -0.00300   2.06570
    R2        2.87251   0.00074   0.00039   0.00109   0.00148   2.87399
    R3        2.59245   0.00142  -0.00024   0.00341   0.00317   2.59563
    R4        2.06870  -0.00128  -0.00006  -0.00294  -0.00300   2.06570
    R5        2.53391  -0.00077  -0.00003  -0.00134  -0.00136   2.53254
    R6        2.53391  -0.00077  -0.00003  -0.00134  -0.00136   2.53254
    R7        2.54188   0.00162  -0.00019   0.00342   0.00323   2.54511
    A1        1.89938   0.00043  -0.00007   0.00322   0.00315   1.90253
    A2        1.91011  -0.00058   0.00018  -0.00436  -0.00418   1.90593
    A3        1.93245  -0.00031  -0.00012  -0.00020  -0.00033   1.93213
    A4        1.91227   0.00063  -0.00011   0.00260   0.00249   1.91477
    A5        1.89938   0.00043  -0.00007   0.00322   0.00315   1.90253
    A6        1.91011  -0.00058   0.00018  -0.00436  -0.00418   1.90593
    A7        1.95296   0.00063   0.00032   0.00162   0.00194   1.95490
    A8        1.95296   0.00063   0.00032   0.00162   0.00194   1.95490
    A9        1.90107   0.00010   0.00072  -0.00213  -0.00141   1.89967
   A10        1.88351  -0.00066  -0.00048  -0.00087  -0.00135   1.88216
   A11        1.88551  -0.00039  -0.00048  -0.00017  -0.00064   1.88487
   A12        1.88551  -0.00039  -0.00048  -0.00017  -0.00064   1.88487
    D1        1.02974  -0.00010   0.00019  -0.00241  -0.00222   1.02752
    D2       -3.13711  -0.00004   0.00004  -0.00122  -0.00118  -3.13829
    D3       -1.05368  -0.00007   0.00011  -0.00181  -0.00170  -1.05539
    D4       -1.05817  -0.00003   0.00008  -0.00060  -0.00052  -1.05869
    D5        1.05817   0.00003  -0.00008   0.00060   0.00052   1.05869
    D6        3.14159  -0.00000   0.00000   0.00000   0.00000   3.14159
    D7        3.13711   0.00004  -0.00004   0.00122   0.00118   3.13829
    D8       -1.02974   0.00010  -0.00019   0.00241   0.00222  -1.02752
    D9        1.05368   0.00007  -0.00011   0.00181   0.00170   1.05539
         Item               Value     Threshold  Converged?
 Maximum Force            0.001623     0.000015     NO 
 RMS     Force            0.000675     0.000010     NO 
 Maximum Displacement     0.006726     0.000060     NO 
 RMS     Displacement     0.002797     0.000040     NO 
 Predicted change in Energy=-1.717613D-05
 Lowest energy point so far.  Saving SCF results.
 GradGradGradGradGradGradGradGradGradGradGradGradGradGradGradGradGradGrad

 Leave Link  103 at Thu Apr  2 15:14:33 2026, MaxMem=  1073741824 cpu:               0.0 elap:               0.0
 (Enter /Users/yarger/Applications/g16/l202.exe)
                          Input orientation:                          
 ---------------------------------------------------------------------
 Center     Atomic      Atomic             Coordinates (Angstroms)
 Number     Number       Type             X           Y           Z
 ---------------------------------------------------------------------
      1          6           0       -1.501008    1.411600    1.454722
      2          1           0       -1.160535    2.450322    1.447835
      3          6           0       -0.321262    0.501628    1.149552
      4          9           0        0.670263    0.649498    2.038964
      5          9           0       -0.673861   -0.791277    1.138937
      6          9           0        0.162922    0.810871   -0.068582
      7          9           0       -2.009198    1.110991    2.694886
      8          1           0       -2.276500    1.254115    0.700585
 ---------------------------------------------------------------------
                    Distance matrix (angstroms):
                    1          2          3          4          5
     1  C    0.000000
     2  H    1.093120   0.000000
     3  C    1.520848   2.142606   0.000000
     4  F    2.374144   2.635190   1.340165   0.000000
     5  F    2.374144   3.292451   1.340165   2.166229   0.000000
     6  F    2.334522   2.595931   1.346816   2.173749   2.173749
     7  F    1.373546   2.017218   2.368228   2.796913   2.796913
     8  H    1.093120   1.798519   2.142606   3.292451   2.635190
                    6          7          8
     6  F    0.000000
     7  F    3.527736   0.000000
     8  H    2.595931   2.017218   0.000000
 Stoichiometry    C2H2F4
 Framework group  CS[SG(C2F2),X(H2F2)]
 Deg. of freedom    11
 Full point group                 CS      NOp   2
 RotChk:  IX=2 Diff= 1.02D-03
 Largest Abelian subgroup         CS      NOp   2
 Largest concise Abelian subgroup CS      NOp   2
                         Standard orientation:                         
 ---------------------------------------------------------------------
 Center     Atomic      Atomic             Coordinates (Angstroms)
 Number     Number       Type             X           Y           Z
 ---------------------------------------------------------------------
      1          6           0        1.157284    0.243557    0.000000
      2          1           0        1.494899    0.765343   -0.899260
      3          6           0       -0.362596    0.189321   -0.000000
      4          9           0       -0.842764   -0.437053   -1.083115
      5          9           0       -0.842764   -0.437053    1.083115
      6          9           0       -0.842764    1.447634    0.000000
      7          9           0        1.666299   -1.032190    0.000000
      8          1           0        1.494899    0.765343    0.899260
 ---------------------------------------------------------------------
 Rotational constants (GHZ):           5.3145028           2.7744418           2.7341641
 Leave Link  202 at Thu Apr  2 15:14:33 2026, MaxMem=  1073741824 cpu:               0.0 elap:               0.0
 (Enter /Users/yarger/Applications/g16/l301.exe)
 Standard basis: 6-31+G(d) (6D, 7F)
 Ernie: Thresh=  0.10000D-02 Tol=  0.10000D-05 Strict=F.
 There are    77 symmetry adapted cartesian basis functions of A'  symmetry.
 There are    41 symmetry adapted cartesian basis functions of A"  symmetry.
 There are    77 symmetry adapted basis functions of A'  symmetry.
 There are    41 symmetry adapted basis functions of A"  symmetry.
   118 basis functions,   200 primitive gaussians,   118 cartesian basis functions
    25 alpha electrons       25 beta electrons
       nuclear repulsion energy       271.5625752453 Hartrees.
 IExCor= 4639 DFT=T Ex+Corr=wB97XD ExCW=0 ScaHFX=  1.000000
 ScaDFX=  1.000000  1.000000  1.000000  1.000000 ScalE2=  1.000000  1.000000
 IRadAn=      5 IRanWt=     -1 IRanGd=            0 ICorTp=0 IEmpDi=121
 HFx  wShort=  0.000000 wLong=  0.200000 cFull=  0.222036 cShort=  0.000000 cLong=  0.777964
 DFx  wShort=  0.000000 wLong=  0.200000 cFull=  0.000000 cShort=  0.000000 cLong=  1.000000
 NAtoms=    8 NActive=    8 NUniq=    6 SFac= 1.78D+00 NAtFMM=   60 NAOKFM=F Big=F
 Integral buffers will be    131072 words long.
 Raffenetti 2 integral format.
 Two-electron integral symmetry is turned on.
 R6Disp:  Grimme-D2 Dispersion energy=       -0.0021690857 Hartrees.
 Nuclear repulsion after empirical dispersion term =      271.5604061596 Hartrees.
 Leave Link  301 at Thu Apr  2 15:14:33 2026, MaxMem=  1073741824 cpu:               0.1 elap:               0.0
 (Enter /Users/yarger/Applications/g16/l302.exe)
 NPDir=0 NMtPBC=     1 NCelOv=     1 NCel=       1 NClECP=     1 NCelD=      1
         NCelK=      1 NCelE2=     1 NClLst=     1 CellRange=     0.0.
 One-electron integrals computed using PRISM.
 One-electron integral symmetry used in STVInt
 NBasis=   118 RedAO= T EigKep=  1.96D-04  NBF=    77    41
 NBsUse=   118 1.00D-06 EigRej= -1.00D+00 NBFU=    77    41
 Precomputing XC quadrature grid using
 IXCGrd= 4 IRadAn=           5 IRanWt=          -1 IRanGd=           0 AccXCQ= 0.00D+00.
 Generated NRdTot=       0 NPtTot=           0 NUsed=           0 NTot=          32
 NSgBfM=   118   118   118   118   118 MxSgAt=     8 MxSgA2=     8.
 Leave Link  302 at Thu Apr  2 15:14:33 2026, MaxMem=  1073741824 cpu:               0.4 elap:               0.1
 (Enter /Users/yarger/Applications/g16/l303.exe)
 DipDrv:  MaxL=1.
 Leave Link  303 at Thu Apr  2 15:14:33 2026, MaxMem=  1073741824 cpu:               0.1 elap:               0.0
 (Enter /Users/yarger/Applications/g16/l401.exe)
 Initial guess from the checkpoint file:  "1112Tetrafluoroethane_Opt_Freq_DFT_WB97XD_631pd_Gaussian16.chk"
 B after Tr=     0.000000   -0.000000    0.000000
         Rot=    1.000000   -0.000000    0.000000   -0.000641 Ang=  -0.07 deg.
 Guess basis will be translated and rotated to current coordinates.
 JPrj=2 DoOrth=T DoCkMO=T.
 Initial guess orbital symmetries:
       Occupied  (A') (A') (A") (A') (A') (A') (A') (A') (A") (A')
                 (A') (A') (A") (A') (A') (A') (A") (A') (A") (A')
                 (A') (A") (A") (A") (A')
       Virtual   (A') (A') (A') (A") (A") (A') (A') (A') (A') (A")
                 (A') (A') (A') (A") (A') (A") (A') (A') (A') (A")
                 (A") (A') (A") (A') (A') (A") (A') (A') (A') (A")
                 (A') (A') (A') (A") (A') (A') (A") (A") (A') (A')
                 (A") (A') (A') (A') (A") (A') (A") (A') (A") (A")
                 (A') (A') (A') (A") (A') (A") (A') (A') (A") (A')
                 (A") (A") (A') (A") (A') (A') (A") (A') (A") (A')
                 (A") (A') (A') (A") (A') (A") (A') (A') (A") (A')
                 (A") (A') (A') (A') (A") (A') (A') (A') (A') (A')
                 (A") (A') (A')
 The electronic state of the initial guess is 1-A'.
 Leave Link  401 at Thu Apr  2 15:14:33 2026, MaxMem=  1073741824 cpu:               0.2 elap:               0.1
 (Enter /Users/yarger/Applications/g16/l502.exe)
 Keep R1 ints in memory in symmetry-blocked form, NReq=74222059.
 FoFCou: FMM=F IPFlag=           0 FMFlag=           0 FMFlg1=           0
         NFxFlg=           0 DoJE=F BraDBF=F KetDBF=F FulRan=T
         wScrn=  0.000000 ICntrl=       600 IOpCl=  0 I1Cent=           0 NGrid=           0
         NMat0=    1 NMatS0=   7021 NMatT0=    0 NMatD0=    1 NMtDS0=    0 NMtDT0=    0
 Petite list used in FoFCou.
 Closed shell SCF:
 Using DIIS extrapolation, IDIIS=  1040.
 NGot=  1073741824 LenX=  1061244307 LenY=  1061229942
 Requested convergence on RMS density matrix=1.00D-08 within 128 cycles.
 Requested convergence on MAX density matrix=1.00D-06.
 Requested convergence on             energy=1.00D-06.
 No special actions if energy rises.

 Cycle   1  Pass 1  IDiag  1:
 E= -476.677210243202    
 DIIS: error= 2.13D-04 at cycle   1 NSaved=   1.
 NSaved= 1 IEnMin= 1 EnMin= -476.677210243202     IErMin= 1 ErrMin= 2.13D-04
 ErrMax= 2.13D-04  0.00D+00 EMaxC= 1.00D-01 BMatC= 8.06D-06 BMatP= 8.06D-06
 IDIUse=3 WtCom= 9.98D-01 WtEn= 2.13D-03
 Coeff-Com:  0.100D+01
 Coeff-En:   0.100D+01
 Coeff:      0.100D+01
 Gap=     0.533 Goal=   None    Shift=    0.000
 RMSDP=3.50D-05 MaxDP=4.41D-04              OVMax= 7.98D-04

 Cycle   2  Pass 1  IDiag  1:
 E= -476.677220964932     Delta-E=       -0.000010721730 Rises=F Damp=F
 DIIS: error= 6.74D-05 at cycle   2 NSaved=   2.
 NSaved= 2 IEnMin= 2 EnMin= -476.677220964932     IErMin= 2 ErrMin= 6.74D-05
 ErrMax= 6.74D-05  0.00D+00 EMaxC= 1.00D-01 BMatC= 7.17D-07 BMatP= 8.06D-06
 IDIUse=1 WtCom= 1.00D+00 WtEn= 0.00D+00
 Coeff-Com:  0.230D-01 0.977D+00
 Coeff:      0.230D-01 0.977D+00
 Gap=     0.533 Goal=   None    Shift=    0.000
 RMSDP=1.10D-05 MaxDP=2.36D-04 DE=-1.07D-05 OVMax= 2.99D-04

 Cycle   3  Pass 1  IDiag  1:
 E= -476.677221427125     Delta-E=       -0.000000462193 Rises=F Damp=F
 DIIS: error= 5.28D-05 at cycle   3 NSaved=   3.
 NSaved= 3 IEnMin= 3 EnMin= -476.677221427125     IErMin= 3 ErrMin= 5.28D-05
 ErrMax= 5.28D-05  0.00D+00 EMaxC= 1.00D-01 BMatC= 5.29D-07 BMatP= 7.17D-07
 IDIUse=1 WtCom= 1.00D+00 WtEn= 0.00D+00
 Coeff-Com: -0.775D-01 0.485D+00 0.592D+00
 Coeff:     -0.775D-01 0.485D+00 0.592D+00
 Gap=     0.533 Goal=   None    Shift=    0.000
 RMSDP=4.22D-06 MaxDP=1.13D-04 DE=-4.62D-07 OVMax= 1.30D-04

 Cycle   4  Pass 1  IDiag  1:
 E= -476.677221774217     Delta-E=       -0.000000347092 Rises=F Damp=F
 DIIS: error= 6.88D-06 at cycle   4 NSaved=   4.
 NSaved= 4 IEnMin= 4 EnMin= -476.677221774217     IErMin= 4 ErrMin= 6.88D-06
 ErrMax= 6.88D-06  0.00D+00 EMaxC= 1.00D-01 BMatC= 1.11D-08 BMatP= 5.29D-07
 IDIUse=1 WtCom= 1.00D+00 WtEn= 0.00D+00
 Coeff-Com: -0.160D-01 0.314D-01 0.136D+00 0.849D+00
 Coeff:     -0.160D-01 0.314D-01 0.136D+00 0.849D+00
 Gap=     0.533 Goal=   None    Shift=    0.000
 RMSDP=1.28D-06 MaxDP=2.44D-05 DE=-3.47D-07 OVMax= 3.03D-05

 Cycle   5  Pass 1  IDiag  1:
 E= -476.677221784144     Delta-E=       -0.000000009928 Rises=F Damp=F
 DIIS: error= 2.51D-06 at cycle   5 NSaved=   5.
 NSaved= 5 IEnMin= 5 EnMin= -476.677221784144     IErMin= 5 ErrMin= 2.51D-06
 ErrMax= 2.51D-06  0.00D+00 EMaxC= 1.00D-01 BMatC= 9.98D-10 BMatP= 1.11D-08
 IDIUse=1 WtCom= 1.00D+00 WtEn= 0.00D+00
 Coeff-Com:  0.558D-03-0.288D-01-0.155D-02 0.245D+00 0.785D+00
 Coeff:      0.558D-03-0.288D-01-0.155D-02 0.245D+00 0.785D+00
 Gap=     0.533 Goal=   None    Shift=    0.000
 RMSDP=4.12D-07 MaxDP=9.47D-06 DE=-9.93D-09 OVMax= 1.05D-05

 Cycle   6  Pass 1  IDiag  1:
 E= -476.677221785263     Delta-E=       -0.000000001119 Rises=F Damp=F
 DIIS: error= 5.86D-07 at cycle   6 NSaved=   6.
 NSaved= 6 IEnMin= 6 EnMin= -476.677221785263     IErMin= 6 ErrMin= 5.86D-07
 ErrMax= 5.86D-07  0.00D+00 EMaxC= 1.00D-01 BMatC= 5.56D-11 BMatP= 9.98D-10
 IDIUse=1 WtCom= 1.00D+00 WtEn= 0.00D+00
 Coeff-Com:  0.154D-02-0.979D-02-0.117D-01-0.141D-01 0.170D+00 0.864D+00
 Coeff:      0.154D-02-0.979D-02-0.117D-01-0.141D-01 0.170D+00 0.864D+00
 Gap=     0.533 Goal=   None    Shift=    0.000
 RMSDP=1.27D-07 MaxDP=2.99D-06 DE=-1.12D-09 OVMax= 3.08D-06

 Cycle   7  Pass 1  IDiag  1:
 E= -476.677221785326     Delta-E=       -0.000000000063 Rises=F Damp=F
 DIIS: error= 2.14D-07 at cycle   7 NSaved=   7.
 NSaved= 7 IEnMin= 7 EnMin= -476.677221785326     IErMin= 7 ErrMin= 2.14D-07
 ErrMax= 2.14D-07  0.00D+00 EMaxC= 1.00D-01 BMatC= 6.49D-12 BMatP= 5.56D-11
 IDIUse=1 WtCom= 1.00D+00 WtEn= 0.00D+00
 Coeff-Com:  0.575D-03-0.249D-02-0.436D-02-0.144D-01 0.278D-01 0.309D+00
 Coeff-Com:  0.684D+00
 Coeff:      0.575D-03-0.249D-02-0.436D-02-0.144D-01 0.278D-01 0.309D+00
 Coeff:      0.684D+00
 Gap=     0.533 Goal=   None    Shift=    0.000
 RMSDP=2.56D-08 MaxDP=4.24D-07 DE=-6.29D-11 OVMax= 6.54D-07

 Cycle   8  Pass 1  IDiag  1:
 E= -476.677221785325     Delta-E=        0.000000000001 Rises=F Damp=F
 DIIS: error= 7.34D-08 at cycle   8 NSaved=   8.
 NSaved= 8 IEnMin= 7 EnMin= -476.677221785326     IErMin= 8 ErrMin= 7.34D-08
 ErrMax= 7.34D-08  0.00D+00 EMaxC= 1.00D-01 BMatC= 8.63D-13 BMatP= 6.49D-12
 IDIUse=1 WtCom= 1.00D+00 WtEn= 0.00D+00
 Coeff-Com: -0.801D-04 0.861D-03 0.574D-03-0.165D-02-0.209D-01-0.474D-01
 Coeff-Com:  0.238D+00 0.830D+00
 Coeff:     -0.801D-04 0.861D-03 0.574D-03-0.165D-02-0.209D-01-0.474D-01
 Coeff:      0.238D+00 0.830D+00
 Gap=     0.533 Goal=   None    Shift=    0.000
 RMSDP=1.34D-08 MaxDP=2.60D-07 DE= 1.02D-12 OVMax= 4.28D-07

 Cycle   9  Pass 1  IDiag  1:
 E= -476.677221785327     Delta-E=       -0.000000000002 Rises=F Damp=F
 DIIS: error= 1.10D-08 at cycle   9 NSaved=   9.
 NSaved= 9 IEnMin= 9 EnMin= -476.677221785327     IErMin= 9 ErrMin= 1.10D-08
 ErrMax= 1.10D-08  0.00D+00 EMaxC= 1.00D-01 BMatC= 1.26D-14 BMatP= 8.63D-13
 IDIUse=1 WtCom= 1.00D+00 WtEn= 0.00D+00
 Coeff-Com: -0.311D-04 0.155D-03 0.229D-03 0.723D-03-0.262D-02-0.198D-01
 Coeff-Com: -0.278D-01 0.468D-01 0.100D+01
 Coeff:     -0.311D-04 0.155D-03 0.229D-03 0.723D-03-0.262D-02-0.198D-01
 Coeff:     -0.278D-01 0.468D-01 0.100D+01
 Gap=     0.533 Goal=   None    Shift=    0.000
 RMSDP=2.73D-09 MaxDP=3.62D-08 DE=-1.82D-12 OVMax= 1.19D-07

 SCF Done:  E(RwB97XD) =  -476.677221785     A.U. after    9 cycles
            NFock=  9  Conv=0.27D-08     -V/T= 2.0075
 KE= 4.731396920486D+02 PE=-1.673286255937D+03 EE= 4.519089359432D+02
 Leave Link  502 at Thu Apr  2 15:14:36 2026, MaxMem=  1073741824 cpu:               9.7 elap:               2.5
 (Enter /Users/yarger/Applications/g16/l701.exe)
 ... and contract with generalized density number  0.
 Compute integral first derivatives.
 R6Disp: Adding Grimme-D2 dispersion energy 1st derivatives to the gradient.
 Leave Link  701 at Thu Apr  2 15:14:36 2026, MaxMem=  1073741824 cpu:               0.3 elap:               0.1
 (Enter /Users/yarger/Applications/g16/l702.exe)
 L702 exits ... SP integral derivatives will be done elsewhere.
 Leave Link  702 at Thu Apr  2 15:14:36 2026, MaxMem=  1073741824 cpu:               0.1 elap:               0.0
 (Enter /Users/yarger/Applications/g16/l703.exe)
 Integral derivatives from FoFJK, PRISM(SPDF).
 Compute integral first derivatives, UseDBF=F ICtDFT=           0.
 Calling FoFJK, ICntrl=      2127 FMM=F ISym2X=1 I1Cent= 0 IOpClX= 0 NMat=1 NMatS=1 NMatT=0.
 FoFJK:  IHMeth= 1 ICntrl=    2127 DoSepK=T KAlg= 0 I1Cent=           0 FoldK=F
 IRaf=         1 NMat=       1 IRICut=       1 DoRegI=T DoRafI=F ISym2E= 1 IDoP0=0 IntGTp=1.
 FoFCou: FMM=F IPFlag=           0 FMFlag=      100000 FMFlg1=         800
         NFxFlg=           0 DoJE=F BraDBF=F KetDBF=F FulRan=T
         wScrn=  0.000000 ICntrl=      2527 IOpCl=  0 I1Cent=           0 NGrid=           0
         NMat0=    1 NMatS0=      1 NMatT0=    0 NMatD0=    1 NMtDS0=    0 NMtDT0=    0
 Petite list used in FoFCou.
 Leave Link  703 at Thu Apr  2 15:14:37 2026, MaxMem=  1073741824 cpu:               3.4 elap:               0.9
 (Enter /Users/yarger/Applications/g16/l716.exe)
 Dipole        = 5.51074985D-01 6.66387164D-01 2.66453526D-15
 ***** Axes restored to original set *****
 -------------------------------------------------------------------
 Center     Atomic                   Forces (Hartrees/Bohr)
 Number     Number              X              Y              Z
 -------------------------------------------------------------------
      1        6          -0.000028234    0.000609259   -0.000933145
      2        1          -0.000020196   -0.000294844   -0.000001064
      3        6          -0.000258054   -0.000493726    0.001175747
      4        9          -0.000192630   -0.000026842   -0.000344437
      5        9           0.000155447    0.000346263   -0.000111365
      6        9           0.000232312    0.000111343   -0.000525180
      7        9          -0.000127909   -0.000234725    0.000566773
      8        1           0.000239264   -0.000016727    0.000172670
 -------------------------------------------------------------------
 Cartesian Forces:  Max     0.001175747 RMS     0.000416232
 Leave Link  716 at Thu Apr  2 15:14:37 2026, MaxMem=  1073741824 cpu:               0.1 elap:               0.0
 (Enter /Users/yarger/Applications/g16/l103.exe)

 GradGradGradGradGradGradGradGradGradGradGradGradGradGradGradGradGradGrad
 Berny optimization.
 Using GEDIIS/GDIIS optimizer.
 FormGI is forming the generalized inverse of G from B-inverse, IUseBI=4.
 Internal  Forces:  Max     0.000612546 RMS     0.000220731
 Search for a local minimum.
 Step number   4 out of a maximum of   38
 All quantities printed in internal units (Hartrees-Bohrs-Radians)
 RMS Force = .22073D-03 SwitMx=.10000D-02 MixMth= 2
 Mixed Optimization -- En-DIIS/RFO-DIIS
 Swapping is turned off.
 Update second derivatives using D2CorX and points    1    2    3    4
 DE= -2.01D-05 DEPred=-1.72D-05 R= 1.17D+00
 TightC=F SS=  1.41D+00  RLast= 1.17D-02 DXNew= 6.8514D-01 3.5085D-02
 Trust test= 1.17D+00 RLast= 1.17D-02 DXMaxT set to 4.07D-01
 ITU=  1  1  1  0
     Eigenvalues ---    0.00237   0.05718   0.05758   0.07827   0.08692
     Eigenvalues ---    0.16000   0.17061   0.22093   0.24434   0.25000
     Eigenvalues ---    0.28889   0.33821   0.37230   0.38032   0.42231
     Eigenvalues ---    0.54630   0.55021   0.57531
 En-DIIS/RFO-DIIS/Sim-DIIS IScMMF=       -3 using points:     4    3
 RFO step:  Lambda=-5.04132355D-06.
 NNeg= 0 NGDIIS= 2 SimSw=  2.50D-01 Rises=F DC= -2.01D-05 SmlDif=  1.00D-05
 NRisDI= 0 DoIntr=F SqrtH=F CThrHd= 10.0 CDAdj=  3.0
 RMS Error=  0.1028917537D-02 NUsed= 2 OKEnD=T EnDIS=F
 InvSVX:  RCond= 3.42D-05 Info=           0 Equed=N FErr=  1.82D-15 BErr=  4.18D-17
 DidBck=F Rises=F RFO-DIIS coefs:    1.25530   -0.25530
 Iteration  1 RMS(Cart)=  0.00059953 RMS(Int)=  0.00000124
 Iteration  2 RMS(Cart)=  0.00000072 RMS(Int)=  0.00000108
 ITry= 1 IFail=0 DXMaxC= 1.66D-03 DCOld= 1.00D+10 DXMaxT= 4.07D-01 DXLimC= 3.00D+00 Rises=F
 ClnCor:  largest displacement from symmetrization is 5.34D-09 for atom     5.
 Variable       Old X    -DE/DX   Delta X   Delta X   Delta X     New X
                                 (Linear)    (Quad)   (Total)
    R1        2.06570  -0.00029  -0.00077  -0.00038  -0.00115   2.06455
    R2        2.87399  -0.00005   0.00038  -0.00081  -0.00044   2.87355
    R3        2.59563   0.00061   0.00081   0.00123   0.00204   2.59767
    R4        2.06570  -0.00029  -0.00077  -0.00038  -0.00115   2.06455
    R5        2.53254  -0.00038  -0.00035  -0.00067  -0.00102   2.53152
    R6        2.53254  -0.00038  -0.00035  -0.00067  -0.00102   2.53152
    R7        2.54511   0.00059   0.00083   0.00100   0.00182   2.54694
    A1        1.90253  -0.00004   0.00080  -0.00073   0.00007   1.90260
    A2        1.90593   0.00013  -0.00107   0.00103  -0.00004   1.90589
    A3        1.93213   0.00008  -0.00008   0.00107   0.00098   1.93311
    A4        1.91477  -0.00025   0.00064  -0.00170  -0.00106   1.91371
    A5        1.90253  -0.00004   0.00080  -0.00073   0.00007   1.90260
    A6        1.90593   0.00013  -0.00107   0.00103  -0.00004   1.90589
    A7        1.95490   0.00014   0.00050   0.00047   0.00096   1.95586
    A8        1.95490   0.00014   0.00050   0.00047   0.00096   1.95586
    A9        1.89967  -0.00004  -0.00036  -0.00102  -0.00137   1.89829
   A10        1.88216  -0.00005  -0.00034   0.00101   0.00067   1.88283
   A11        1.88487  -0.00010  -0.00016  -0.00049  -0.00066   1.88421
   A12        1.88487  -0.00010  -0.00016  -0.00049  -0.00066   1.88421
    D1        1.02752  -0.00009  -0.00057  -0.00120  -0.00177   1.02575
    D2       -3.13829   0.00004  -0.00030   0.00078   0.00048  -3.13781
    D3       -1.05539  -0.00002  -0.00043  -0.00021  -0.00064  -1.05603
    D4       -1.05869  -0.00007  -0.00013  -0.00099  -0.00112  -1.05981
    D5        1.05869   0.00007   0.00013   0.00099   0.00112   1.05981
    D6        3.14159  -0.00000   0.00000  -0.00000   0.00000   3.14159
    D7        3.13829  -0.00004   0.00030  -0.00078  -0.00048   3.13781
    D8       -1.02752   0.00009   0.00057   0.00120   0.00177  -1.02575
    D9        1.05539   0.00002   0.00043   0.00021   0.00064   1.05603
         Item               Value     Threshold  Converged?
 Maximum Force            0.000613     0.000015     NO 
 RMS     Force            0.000221     0.000010     NO 
 Maximum Displacement     0.001663     0.000060     NO 
 RMS     Displacement     0.000600     0.000040     NO 
 Predicted change in Energy=-2.521312D-06
 Lowest energy point so far.  Saving SCF results.
 GradGradGradGradGradGradGradGradGradGradGradGradGradGradGradGradGradGrad

 Leave Link  103 at Thu Apr  2 15:14:37 2026, MaxMem=  1073741824 cpu:               0.1 elap:               0.0
 (Enter /Users/yarger/Applications/g16/l202.exe)
                          Input orientation:                          
 ---------------------------------------------------------------------
 Center     Atomic      Atomic             Coordinates (Angstroms)
 Number     Number       Type             X           Y           Z
 ---------------------------------------------------------------------
      1          6           0       -1.501006    1.411905    1.454231
      2          1           0       -1.160229    2.449888    1.447602
      3          6           0       -0.321612    0.501405    1.150432
      4          9           0        0.670250    0.649462    2.038622
      5          9           0       -0.673659   -0.791081    1.138740
      6          9           0        0.162550    0.811245   -0.068625
      7          9           0       -2.009521    1.110983    2.695381
      8          1           0       -2.275951    1.253941    0.700514
 ---------------------------------------------------------------------
                    Distance matrix (angstroms):
                    1          2          3          4          5
     1  C    0.000000
     2  H    1.092512   0.000000
     3  C    1.520617   2.142003   0.000000
     4  F    2.374276   2.634672   1.339624   0.000000
     5  F    2.374276   3.291812   1.339624   2.165881   0.000000
     6  F    2.333946   2.594965   1.347781   2.173574   2.173574
     7  F    1.374625   2.017651   2.368014   2.797411   2.797411
     8  H    1.092512   1.798129   2.142003   3.291812   2.634672
                    6          7          8
     6  F    0.000000
     7  F    3.528097   0.000000
     8  H    2.594965   2.017651   0.000000
 Stoichiometry    C2H2F4
 Framework group  CS[SG(C2F2),X(H2F2)]
 Deg. of freedom    11
 Full point group                 CS      NOp   2
 RotChk:  IX=2 Diff= 4.41D-04
 Largest Abelian subgroup         CS      NOp   2
 Largest concise Abelian subgroup CS      NOp   2
                         Standard orientation:                         
 ---------------------------------------------------------------------
 Center     Atomic      Atomic             Coordinates (Angstroms)
 Number     Number       Type             X           Y           Z
 ---------------------------------------------------------------------
      1          6           0        1.157121    0.244481   -0.000000
      2          1           0        1.493966    0.765826   -0.899064
      3          6           0       -0.362458    0.188288    0.000000
      4          9           0       -0.842867   -0.437044   -1.082941
      5          9           0       -0.842867   -0.437044    1.082941
      6          9           0       -0.842867    1.447542    0.000000
      7          9           0        1.666833   -1.032150   -0.000000
      8          1           0        1.493966    0.765826    0.899064
 ---------------------------------------------------------------------
 Rotational constants (GHZ):           5.3147303           2.7744144           2.7337531
 Leave Link  202 at Thu Apr  2 15:14:37 2026, MaxMem=  1073741824 cpu:               0.0 elap:               0.0
 (Enter /Users/yarger/Applications/g16/l301.exe)
 Standard basis: 6-31+G(d) (6D, 7F)
 Ernie: Thresh=  0.10000D-02 Tol=  0.10000D-05 Strict=F.
 There are    77 symmetry adapted cartesian basis functions of A'  symmetry.
 There are    41 symmetry adapted cartesian basis functions of A"  symmetry.
 There are    77 symmetry adapted basis functions of A'  symmetry.
 There are    41 symmetry adapted basis functions of A"  symmetry.
   118 basis functions,   200 primitive gaussians,   118 cartesian basis functions
    25 alpha electrons       25 beta electrons
       nuclear repulsion energy       271.5583251819 Hartrees.
 IExCor= 4639 DFT=T Ex+Corr=wB97XD ExCW=0 ScaHFX=  1.000000
 ScaDFX=  1.000000  1.000000  1.000000  1.000000 ScalE2=  1.000000  1.000000
 IRadAn=      5 IRanWt=     -1 IRanGd=            0 ICorTp=0 IEmpDi=121
 HFx  wShort=  0.000000 wLong=  0.200000 cFull=  0.222036 cShort=  0.000000 cLong=  0.777964
 DFx  wShort=  0.000000 wLong=  0.200000 cFull=  0.000000 cShort=  0.000000 cLong=  1.000000
 NAtoms=    8 NActive=    8 NUniq=    6 SFac= 1.78D+00 NAtFMM=   60 NAOKFM=F Big=F
 Integral buffers will be    131072 words long.
 Raffenetti 2 integral format.
 Two-electron integral symmetry is turned on.
 R6Disp:  Grimme-D2 Dispersion energy=       -0.0021689171 Hartrees.
 Nuclear repulsion after empirical dispersion term =      271.5561562649 Hartrees.
 Leave Link  301 at Thu Apr  2 15:14:37 2026, MaxMem=  1073741824 cpu:               0.1 elap:               0.0
 (Enter /Users/yarger/Applications/g16/l302.exe)
 NPDir=0 NMtPBC=     1 NCelOv=     1 NCel=       1 NClECP=     1 NCelD=      1
         NCelK=      1 NCelE2=     1 NClLst=     1 CellRange=     0.0.
 One-electron integrals computed using PRISM.
 One-electron integral symmetry used in STVInt
 NBasis=   118 RedAO= T EigKep=  1.96D-04  NBF=    77    41
 NBsUse=   118 1.00D-06 EigRej= -1.00D+00 NBFU=    77    41
 Precomputing XC quadrature grid using
 IXCGrd= 4 IRadAn=           5 IRanWt=          -1 IRanGd=           0 AccXCQ= 0.00D+00.
 Generated NRdTot=       0 NPtTot=           0 NUsed=           0 NTot=          32
 NSgBfM=   118   118   118   118   118 MxSgAt=     8 MxSgA2=     8.
 Leave Link  302 at Thu Apr  2 15:14:37 2026, MaxMem=  1073741824 cpu:               0.4 elap:               0.1
 (Enter /Users/yarger/Applications/g16/l303.exe)
 DipDrv:  MaxL=1.
 Leave Link  303 at Thu Apr  2 15:14:37 2026, MaxMem=  1073741824 cpu:               0.1 elap:               0.0
 (Enter /Users/yarger/Applications/g16/l401.exe)
 Initial guess from the checkpoint file:  "1112Tetrafluoroethane_Opt_Freq_DFT_WB97XD_631pd_Gaussian16.chk"
 B after Tr=     0.000000    0.000000   -0.000000
         Rot=    1.000000   -0.000000    0.000000   -0.000100 Ang=  -0.01 deg.
 Guess basis will be translated and rotated to current coordinates.
 JPrj=2 DoOrth=T DoCkMO=T.
 Initial guess orbital symmetries:
       Occupied  (A') (A') (A") (A') (A') (A') (A') (A') (A") (A')
                 (A') (A') (A") (A') (A') (A') (A") (A') (A") (A')
                 (A') (A") (A") (A") (A')
       Virtual   (A') (A') (A') (A") (A") (A') (A') (A') (A') (A")
                 (A') (A') (A') (A") (A') (A") (A') (A') (A') (A")
                 (A") (A') (A") (A') (A') (A") (A') (A') (A') (A")
                 (A') (A') (A') (A") (A') (A') (A") (A") (A') (A')
                 (A") (A') (A') (A') (A") (A') (A") (A') (A") (A")
                 (A') (A') (A') (A") (A') (A") (A') (A') (A") (A')
                 (A") (A") (A') (A") (A') (A') (A') (A") (A") (A')
                 (A") (A') (A') (A") (A') (A") (A') (A') (A") (A')
                 (A") (A') (A') (A') (A") (A') (A') (A') (A') (A')
                 (A") (A') (A')
 The electronic state of the initial guess is 1-A'.
 Leave Link  401 at Thu Apr  2 15:14:37 2026, MaxMem=  1073741824 cpu:               0.2 elap:               0.1
 (Enter /Users/yarger/Applications/g16/l502.exe)
 Keep R1 ints in memory in symmetry-blocked form, NReq=74222059.
 FoFCou: FMM=F IPFlag=           0 FMFlag=           0 FMFlg1=           0
         NFxFlg=           0 DoJE=F BraDBF=F KetDBF=F FulRan=T
         wScrn=  0.000000 ICntrl=       600 IOpCl=  0 I1Cent=           0 NGrid=           0
         NMat0=    1 NMatS0=   7021 NMatT0=    0 NMatD0=    1 NMtDS0=    0 NMtDT0=    0
 Petite list used in FoFCou.
 Closed shell SCF:
 Using DIIS extrapolation, IDIIS=  1040.
 NGot=  1073741824 LenX=  1061244307 LenY=  1061229942
 Requested convergence on RMS density matrix=1.00D-08 within 128 cycles.
 Requested convergence on MAX density matrix=1.00D-06.
 Requested convergence on             energy=1.00D-06.
 No special actions if energy rises.

 Cycle   1  Pass 1  IDiag  1:
 E= -476.677222010695    
 DIIS: error= 1.23D-04 at cycle   1 NSaved=   1.
 NSaved= 1 IEnMin= 1 EnMin= -476.677222010695     IErMin= 1 ErrMin= 1.23D-04
 ErrMax= 1.23D-04  0.00D+00 EMaxC= 1.00D-01 BMatC= 1.80D-06 BMatP= 1.80D-06
 IDIUse=3 WtCom= 9.99D-01 WtEn= 1.23D-03
 Coeff-Com:  0.100D+01
 Coeff-En:   0.100D+01
 Coeff:      0.100D+01
 Gap=     0.533 Goal=   None    Shift=    0.000
 RMSDP=1.65D-05 MaxDP=2.01D-04              OVMax= 3.08D-04

 Cycle   2  Pass 1  IDiag  1:
 E= -476.677224277465     Delta-E=       -0.000002266770 Rises=F Damp=F
 DIIS: error= 3.37D-05 at cycle   2 NSaved=   2.
 NSaved= 2 IEnMin= 2 EnMin= -476.677224277465     IErMin= 2 ErrMin= 3.37D-05
 ErrMax= 3.37D-05  0.00D+00 EMaxC= 1.00D-01 BMatC= 2.08D-07 BMatP= 1.80D-06
 IDIUse=1 WtCom= 1.00D+00 WtEn= 0.00D+00
 Coeff-Com:  0.687D-01 0.931D+00
 Coeff:      0.687D-01 0.931D+00
 Gap=     0.533 Goal=   None    Shift=    0.000
 RMSDP=4.60D-06 MaxDP=1.02D-04 DE=-2.27D-06 OVMax= 1.13D-04

 Cycle   3  Pass 1  IDiag  1:
 E= -476.677224369415     Delta-E=       -0.000000091949 Rises=F Damp=F
 DIIS: error= 2.86D-05 at cycle   3 NSaved=   3.
 NSaved= 3 IEnMin= 3 EnMin= -476.677224369415     IErMin= 3 ErrMin= 2.86D-05
 ErrMax= 2.86D-05  0.00D+00 EMaxC= 1.00D-01 BMatC= 1.60D-07 BMatP= 2.08D-07
 IDIUse=1 WtCom= 1.00D+00 WtEn= 0.00D+00
 Coeff-Com: -0.860D-01 0.487D+00 0.599D+00
 Coeff:     -0.860D-01 0.487D+00 0.599D+00
 Gap=     0.533 Goal=   None    Shift=    0.000
 RMSDP=2.15D-06 MaxDP=6.05D-05 DE=-9.19D-08 OVMax= 5.38D-05

 Cycle   4  Pass 1  IDiag  1:
 E= -476.677224471733     Delta-E=       -0.000000102318 Rises=F Damp=F
 DIIS: error= 2.34D-06 at cycle   4 NSaved=   4.
 NSaved= 4 IEnMin= 4 EnMin= -476.677224471733     IErMin= 4 ErrMin= 2.34D-06
 ErrMax= 2.34D-06  0.00D+00 EMaxC= 1.00D-01 BMatC= 1.43D-09 BMatP= 1.60D-07
 IDIUse=1 WtCom= 1.00D+00 WtEn= 0.00D+00
 Coeff-Com: -0.993D-02 0.144D-01 0.868D-01 0.909D+00
 Coeff:     -0.993D-02 0.144D-01 0.868D-01 0.909D+00
 Gap=     0.533 Goal=   None    Shift=    0.000
 RMSDP=4.33D-07 MaxDP=7.93D-06 DE=-1.02D-07 OVMax= 1.22D-05

 Cycle   5  Pass 1  IDiag  1:
 E= -476.677224473097     Delta-E=       -0.000000001364 Rises=F Damp=F
 DIIS: error= 8.21D-07 at cycle   5 NSaved=   5.
 NSaved= 5 IEnMin= 5 EnMin= -476.677224473097     IErMin= 5 ErrMin= 8.21D-07
 ErrMax= 8.21D-07  0.00D+00 EMaxC= 1.00D-01 BMatC= 1.51D-10 BMatP= 1.43D-09
 IDIUse=1 WtCom= 1.00D+00 WtEn= 0.00D+00
 Coeff-Com:  0.293D-02-0.340D-01-0.155D-01 0.257D+00 0.790D+00
 Coeff:      0.293D-02-0.340D-01-0.155D-01 0.257D+00 0.790D+00
 Gap=     0.533 Goal=   None    Shift=    0.000
 RMSDP=1.44D-07 MaxDP=3.37D-06 DE=-1.36D-09 OVMax= 3.62D-06

 Cycle   6  Pass 1  IDiag  1:
 E= -476.677224473259     Delta-E=       -0.000000000162 Rises=F Damp=F
 DIIS: error= 2.49D-07 at cycle   6 NSaved=   6.
 NSaved= 6 IEnMin= 6 EnMin= -476.677224473259     IErMin= 6 ErrMin= 2.49D-07
 ErrMax= 2.49D-07  0.00D+00 EMaxC= 1.00D-01 BMatC= 9.93D-12 BMatP= 1.51D-10
 IDIUse=1 WtCom= 1.00D+00 WtEn= 0.00D+00
 Coeff-Com:  0.165D-02-0.118D-01-0.108D-01 0.206D-01 0.228D+00 0.773D+00
 Coeff:      0.165D-02-0.118D-01-0.108D-01 0.206D-01 0.228D+00 0.773D+00
 Gap=     0.533 Goal=   None    Shift=    0.000
 RMSDP=3.71D-08 MaxDP=5.46D-07 DE=-1.62D-10 OVMax= 1.06D-06

 Cycle   7  Pass 1  IDiag  1:
 E= -476.677224473266     Delta-E=       -0.000000000007 Rises=F Damp=F
 DIIS: error= 1.05D-07 at cycle   7 NSaved=   7.
 NSaved= 7 IEnMin= 7 EnMin= -476.677224473266     IErMin= 7 ErrMin= 1.05D-07
 ErrMax= 1.05D-07  0.00D+00 EMaxC= 1.00D-01 BMatC= 1.90D-12 BMatP= 9.93D-12
 IDIUse=1 WtCom= 1.00D+00 WtEn= 0.00D+00
 Coeff-Com:  0.515D-03-0.264D-02-0.379D-02-0.108D-01 0.394D-01 0.344D+00
 Coeff-Com:  0.633D+00
 Coeff:      0.515D-03-0.264D-02-0.379D-02-0.108D-01 0.394D-01 0.344D+00
 Coeff:      0.633D+00
 Gap=     0.533 Goal=   None    Shift=    0.000
 RMSDP=1.18D-08 MaxDP=2.42D-07 DE=-6.82D-12 OVMax= 3.32D-07

 Cycle   8  Pass 1  IDiag  1:
 E= -476.677224473275     Delta-E=       -0.000000000009 Rises=F Damp=F
 DIIS: error= 2.61D-08 at cycle   8 NSaved=   8.
 NSaved= 8 IEnMin= 8 EnMin= -476.677224473275     IErMin= 8 ErrMin= 2.61D-08
 ErrMax= 2.61D-08  0.00D+00 EMaxC= 1.00D-01 BMatC= 8.17D-14 BMatP= 1.90D-12
 IDIUse=1 WtCom= 1.00D+00 WtEn= 0.00D+00
 Coeff-Com: -0.111D-03 0.983D-03 0.634D-03-0.373D-02-0.229D-01-0.382D-01
 Coeff-Com:  0.129D+00 0.935D+00
 Coeff:     -0.111D-03 0.983D-03 0.634D-03-0.373D-02-0.229D-01-0.382D-01
 Coeff:      0.129D+00 0.935D+00
 Gap=     0.533 Goal=   None    Shift=    0.000
 RMSDP=4.91D-09 MaxDP=5.39D-08 DE=-9.09D-12 OVMax= 1.68D-07

 SCF Done:  E(RwB97XD) =  -476.677224473     A.U. after    8 cycles
            NFock=  8  Conv=0.49D-08     -V/T= 2.0075
 KE= 4.731402629559D+02 PE=-1.673279110209D+03 EE= 4.519054665153D+02
 Leave Link  502 at Thu Apr  2 15:14:40 2026, MaxMem=  1073741824 cpu:               9.0 elap:               2.3
 (Enter /Users/yarger/Applications/g16/l701.exe)
 ... and contract with generalized density number  0.
 Compute integral first derivatives.
 R6Disp: Adding Grimme-D2 dispersion energy 1st derivatives to the gradient.
 Leave Link  701 at Thu Apr  2 15:14:40 2026, MaxMem=  1073741824 cpu:               0.3 elap:               0.1
 (Enter /Users/yarger/Applications/g16/l702.exe)
 L702 exits ... SP integral derivatives will be done elsewhere.
 Leave Link  702 at Thu Apr  2 15:14:40 2026, MaxMem=  1073741824 cpu:               0.1 elap:               0.0
 (Enter /Users/yarger/Applications/g16/l703.exe)
 Integral derivatives from FoFJK, PRISM(SPDF).
 Compute integral first derivatives, UseDBF=F ICtDFT=           0.
 Calling FoFJK, ICntrl=      2127 FMM=F ISym2X=1 I1Cent= 0 IOpClX= 0 NMat=1 NMatS=1 NMatT=0.
 FoFJK:  IHMeth= 1 ICntrl=    2127 DoSepK=T KAlg= 0 I1Cent=           0 FoldK=F
 IRaf=         1 NMat=       1 IRICut=       1 DoRegI=T DoRafI=F ISym2E= 1 IDoP0=0 IntGTp=1.
 FoFCou: FMM=F IPFlag=           0 FMFlag=      100000 FMFlg1=         800
         NFxFlg=           0 DoJE=F BraDBF=F KetDBF=F FulRan=T
         wScrn=  0.000000 ICntrl=      2527 IOpCl=  0 I1Cent=           0 NGrid=           0
         NMat0=    1 NMatS0=      1 NMatT0=    0 NMatD0=    1 NMtDS0=    0 NMtDT0=    0
 Petite list used in FoFCou.
 Leave Link  703 at Thu Apr  2 15:14:41 2026, MaxMem=  1073741824 cpu:               3.4 elap:               0.9
 (Enter /Users/yarger/Applications/g16/l716.exe)
 Dipole        = 5.50541921D-01 6.64768542D-01-1.11022302D-15
 ***** Axes restored to original set *****
 -------------------------------------------------------------------
 Center     Atomic                   Forces (Hartrees/Bohr)
 Number     Number              X              Y              Z
 -------------------------------------------------------------------
      1        6          -0.000065871    0.000020774    0.000065118
      2        1           0.000041721    0.000062274    0.000008691
      3        6          -0.000004552   -0.000127446    0.000210815
      4        9          -0.000065154   -0.000013280   -0.000043323
      5        9           0.000018314    0.000076190    0.000012568
      6        9           0.000091940    0.000027792   -0.000181797
      7        9           0.000029887   -0.000014243   -0.000021834
      8        1          -0.000046286   -0.000032061   -0.000050239
 -------------------------------------------------------------------
 Cartesian Forces:  Max     0.000210815 RMS     0.000075705
 Leave Link  716 at Thu Apr  2 15:14:41 2026, MaxMem=  1073741824 cpu:               0.1 elap:               0.0
 (Enter /Users/yarger/Applications/g16/l103.exe)

 GradGradGradGradGradGradGradGradGradGradGradGradGradGradGradGradGradGrad
 Berny optimization.
 Using GEDIIS/GDIIS optimizer.
 FormGI is forming the generalized inverse of G from B-inverse, IUseBI=4.
 Internal  Forces:  Max     0.000205730 RMS     0.000052792
 Search for a local minimum.
 Step number   5 out of a maximum of   38
 All quantities printed in internal units (Hartrees-Bohrs-Radians)
 RMS Force = .52792D-04 SwitMx=.10000D-02 MixMth= 2
 Mixed Optimization -- En-DIIS/RFO-DIIS
 Swapping is turned off.
 Update second derivatives using D2CorX and points    1    2    3    4    5
 DE= -2.69D-06 DEPred=-2.52D-06 R= 1.07D+00
 TightC=F SS=  1.41D+00  RLast= 5.44D-03 DXNew= 6.8514D-01 1.6329D-02
 Trust test= 1.07D+00 RLast= 5.44D-03 DXMaxT set to 4.07D-01
 ITU=  1  1  1  1  0
     Eigenvalues ---    0.00237   0.05548   0.05766   0.08159   0.08703
     Eigenvalues ---    0.16000   0.17059   0.22810   0.23918   0.25000
     Eigenvalues ---    0.28918   0.32987   0.37230   0.38284   0.39938
     Eigenvalues ---    0.55021   0.55142   0.57705
 En-DIIS/RFO-DIIS/Sim-DIIS IScMMF=       -3 using points:     5    4    3
 RFO step:  Lambda=-2.13908713D-07.
 NNeg= 0 NGDIIS= 3 SimSw=  2.50D-01 Rises=F DC= -2.69D-06 SmlDif=  1.00D-05
 NRisDI= 0 DoIntr=F SqrtH=F CThrHd= 10.0 CDAdj=  3.0
 RMS Error=  0.1824852624D-03 NUsed= 3 OKEnD=F EnDIS=F
 InvSVX:  RCond= 2.04D-06 Info=           0 Equed=N FErr=  1.49D-15 BErr=  1.17D-17
 DidBck=F Rises=F RFO-DIIS coefs:    1.03705   -0.01786   -0.01919
 Iteration  1 RMS(Cart)=  0.00020728 RMS(Int)=  0.00000010
 Iteration  2 RMS(Cart)=  0.00000003 RMS(Int)=  0.00000010
 ITry= 1 IFail=0 DXMaxC= 5.08D-04 DCOld= 1.00D+10 DXMaxT= 4.07D-01 DXLimC= 3.00D+00 Rises=F
 ClnCor:  largest displacement from symmetrization is 3.10D-10 for atom     7.
 Variable       Old X    -DE/DX   Delta X   Delta X   Delta X     New X
                                 (Linear)    (Quad)   (Total)
    R1        2.06455   0.00007  -0.00010   0.00022   0.00012   2.06467
    R2        2.87355   0.00005   0.00001   0.00016   0.00017   2.87372
    R3        2.59767  -0.00003   0.00014  -0.00006   0.00008   2.59774
    R4        2.06455   0.00007  -0.00010   0.00022   0.00012   2.06467
    R5        2.53152  -0.00008  -0.00006  -0.00013  -0.00020   2.53132
    R6        2.53152  -0.00008  -0.00006  -0.00013  -0.00020   2.53132
    R7        2.54694   0.00021   0.00013   0.00036   0.00049   2.54743
    A1        1.90260  -0.00001   0.00006  -0.00006   0.00000   1.90260
    A2        1.90589   0.00003  -0.00008   0.00007  -0.00001   1.90588
    A3        1.93311   0.00002   0.00003   0.00029   0.00032   1.93343
    A4        1.91371  -0.00006   0.00001  -0.00033  -0.00032   1.91339
    A5        1.90260  -0.00001   0.00006  -0.00006   0.00000   1.90260
    A6        1.90589   0.00003  -0.00008   0.00007  -0.00001   1.90588
    A7        1.95586  -0.00001   0.00007  -0.00011  -0.00004   1.95583
    A8        1.95586  -0.00001   0.00007  -0.00011  -0.00004   1.95583
    A9        1.89829   0.00005  -0.00008   0.00022   0.00014   1.89843
   A10        1.88283  -0.00000  -0.00000  -0.00006  -0.00006   1.88276
   A11        1.88421  -0.00001  -0.00004   0.00004  -0.00000   1.88421
   A12        1.88421  -0.00001  -0.00004   0.00004  -0.00000   1.88421
    D1        1.02575  -0.00000  -0.00011  -0.00002  -0.00013   1.02562
    D2       -3.13781  -0.00002  -0.00000  -0.00026  -0.00027  -3.13808
    D3       -1.05603  -0.00001  -0.00006  -0.00014  -0.00020  -1.05623
    D4       -1.05981   0.00001  -0.00005   0.00012   0.00007  -1.05975
    D5        1.05981  -0.00001   0.00005  -0.00012  -0.00007   1.05975
    D6       -3.14159  -0.00000   0.00000   0.00000  -0.00000   3.14159
    D7        3.13781   0.00002   0.00000   0.00026   0.00027   3.13808
    D8       -1.02575   0.00000   0.00011   0.00002   0.00013  -1.02562
    D9        1.05603   0.00001   0.00006   0.00014   0.00020   1.05623
         Item               Value     Threshold  Converged?
 Maximum Force            0.000206     0.000015     NO 
 RMS     Force            0.000053     0.000010     NO 
 Maximum Displacement     0.000508     0.000060     NO 
 RMS     Displacement     0.000207     0.000040     NO 
 Predicted change in Energy=-1.068628D-07
 Lowest energy point so far.  Saving SCF results.
 GradGradGradGradGradGradGradGradGradGradGradGradGradGradGradGradGradGrad

 Leave Link  103 at Thu Apr  2 15:14:41 2026, MaxMem=  1073741824 cpu:               0.0 elap:               0.0
 (Enter /Users/yarger/Applications/g16/l202.exe)
                          Input orientation:                          
 ---------------------------------------------------------------------
 Center     Atomic      Atomic             Coordinates (Angstroms)
 Number     Number       Type             X           Y           Z
 ---------------------------------------------------------------------
      1          6           0       -1.501073    1.412005    1.454172
      2          1           0       -1.160213    2.450031    1.447722
      3          6           0       -0.321618    0.501412    1.150429
      4          9           0        0.670078    0.649438    2.038651
      5          9           0       -0.673694   -0.790958    1.138861
      6          9           0        0.162819    0.811128   -0.068839
      7          9           0       -2.009353    1.110816    2.695398
      8          1           0       -2.276126    1.253877    0.700505
 ---------------------------------------------------------------------
                    Distance matrix (angstroms):
                    1          2          3          4          5
     1  C    0.000000
     2  H    1.092577   0.000000
     3  C    1.520708   2.142134   0.000000
     4  F    2.374241   2.634634   1.339519   0.000000
     5  F    2.374241   3.291824   1.339519   2.165661   0.000000
     6  F    2.334342   2.595452   1.348042   2.173700   2.173700
     7  F    1.374665   2.017729   2.367859   2.797059   2.797059
     8  H    1.092577   1.798438   2.142134   3.291824   2.634634
                    6          7          8
     6  F    0.000000
     7  F    3.528336   0.000000
     8  H    2.595452   2.017729   0.000000
 Stoichiometry    C2H2F4
 Framework group  CS[SG(C2F2),X(H2F2)]
 Deg. of freedom    11
 Full point group                 CS      NOp   2
 RotChk:  IX=2 Diff= 3.41D-04
 Largest Abelian subgroup         CS      NOp   2
 Largest concise Abelian subgroup CS      NOp   2
                         Standard orientation:                         
 ---------------------------------------------------------------------
 Center     Atomic      Atomic             Coordinates (Angstroms)
 Number     Number       Type             X           Y           Z
 ---------------------------------------------------------------------
      1          6           0        1.157313    0.244289    0.000000
      2          1           0        1.494285    0.765423   -0.899219
      3          6           0       -0.362367    0.188375   -0.000000
      4          9           0       -0.842808   -0.436898   -1.082830
      5          9           0       -0.842808   -0.436898    1.082830
      6          9           0       -0.842808    1.447896   -0.000000
      7          9           0        1.666398   -1.032636    0.000000
      8          1           0        1.494285    0.765423    0.899219
 ---------------------------------------------------------------------
 Rotational constants (GHZ):           5.3151402           2.7744869           2.7336800
 Leave Link  202 at Thu Apr  2 15:14:41 2026, MaxMem=  1073741824 cpu:               0.0 elap:               0.0
 (Enter /Users/yarger/Applications/g16/l301.exe)
 Standard basis: 6-31+G(d) (6D, 7F)
 Ernie: Thresh=  0.10000D-02 Tol=  0.10000D-05 Strict=F.
 There are    77 symmetry adapted cartesian basis functions of A'  symmetry.
 There are    41 symmetry adapted cartesian basis functions of A"  symmetry.
 There are    77 symmetry adapted basis functions of A'  symmetry.
 There are    41 symmetry adapted basis functions of A"  symmetry.
   118 basis functions,   200 primitive gaussians,   118 cartesian basis functions
    25 alpha electrons       25 beta electrons
       nuclear repulsion energy       271.5566453978 Hartrees.
 IExCor= 4639 DFT=T Ex+Corr=wB97XD ExCW=0 ScaHFX=  1.000000
 ScaDFX=  1.000000  1.000000  1.000000  1.000000 ScalE2=  1.000000  1.000000
 IRadAn=      5 IRanWt=     -1 IRanGd=            0 ICorTp=0 IEmpDi=121
 HFx  wShort=  0.000000 wLong=  0.200000 cFull=  0.222036 cShort=  0.000000 cLong=  0.777964
 DFx  wShort=  0.000000 wLong=  0.200000 cFull=  0.000000 cShort=  0.000000 cLong=  1.000000
 NAtoms=    8 NActive=    8 NUniq=    6 SFac= 1.78D+00 NAtFMM=   60 NAOKFM=F Big=F
 Integral buffers will be    131072 words long.
 Raffenetti 2 integral format.
 Two-electron integral symmetry is turned on.
 R6Disp:  Grimme-D2 Dispersion energy=       -0.0021689899 Hartrees.
 Nuclear repulsion after empirical dispersion term =      271.5544764079 Hartrees.
 Leave Link  301 at Thu Apr  2 15:14:41 2026, MaxMem=  1073741824 cpu:               0.1 elap:               0.0
 (Enter /Users/yarger/Applications/g16/l302.exe)
 NPDir=0 NMtPBC=     1 NCelOv=     1 NCel=       1 NClECP=     1 NCelD=      1
         NCelK=      1 NCelE2=     1 NClLst=     1 CellRange=     0.0.
 One-electron integrals computed using PRISM.
 One-electron integral symmetry used in STVInt
 NBasis=   118 RedAO= T EigKep=  1.96D-04  NBF=    77    41
 NBsUse=   118 1.00D-06 EigRej= -1.00D+00 NBFU=    77    41
 Precomputing XC quadrature grid using
 IXCGrd= 4 IRadAn=           5 IRanWt=          -1 IRanGd=           0 AccXCQ= 0.00D+00.
 Generated NRdTot=       0 NPtTot=           0 NUsed=           0 NTot=          32
 NSgBfM=   118   118   118   118   118 MxSgAt=     8 MxSgA2=     8.
 Leave Link  302 at Thu Apr  2 15:14:41 2026, MaxMem=  1073741824 cpu:               0.4 elap:               0.1
 (Enter /Users/yarger/Applications/g16/l303.exe)
 DipDrv:  MaxL=1.
 Leave Link  303 at Thu Apr  2 15:14:41 2026, MaxMem=  1073741824 cpu:               0.1 elap:               0.0
 (Enter /Users/yarger/Applications/g16/l401.exe)
 Initial guess from the checkpoint file:  "1112Tetrafluoroethane_Opt_Freq_DFT_WB97XD_631pd_Gaussian16.chk"
 B after Tr=     0.000000   -0.000000    0.000000
         Rot=    1.000000    0.000000    0.000000    0.000110 Ang=   0.01 deg.
 Guess basis will be translated and rotated to current coordinates.
 JPrj=2 DoOrth=T DoCkMO=T.
 Initial guess orbital symmetries:
       Occupied  (A') (A') (A") (A') (A') (A') (A') (A') (A") (A')
                 (A') (A') (A") (A') (A') (A') (A") (A') (A") (A')
                 (A') (A") (A") (A") (A')
       Virtual   (A') (A') (A') (A") (A") (A') (A') (A') (A') (A")
                 (A') (A') (A') (A") (A') (A") (A') (A') (A') (A")
                 (A") (A') (A") (A') (A') (A") (A') (A') (A') (A")
                 (A') (A') (A') (A") (A') (A') (A") (A") (A') (A')
                 (A") (A') (A') (A') (A") (A') (A") (A') (A") (A")
                 (A') (A') (A') (A") (A') (A") (A') (A') (A") (A')
                 (A") (A") (A') (A") (A') (A') (A") (A') (A") (A')
                 (A") (A') (A') (A") (A') (A") (A') (A') (A") (A')
                 (A") (A') (A') (A') (A") (A') (A') (A') (A') (A')
                 (A") (A') (A')
 The electronic state of the initial guess is 1-A'.
 Leave Link  401 at Thu Apr  2 15:14:41 2026, MaxMem=  1073741824 cpu:               0.2 elap:               0.1
 (Enter /Users/yarger/Applications/g16/l502.exe)
 Keep R1 ints in memory in symmetry-blocked form, NReq=74222059.
 FoFCou: FMM=F IPFlag=           0 FMFlag=           0 FMFlg1=           0
         NFxFlg=           0 DoJE=F BraDBF=F KetDBF=F FulRan=T
         wScrn=  0.000000 ICntrl=       600 IOpCl=  0 I1Cent=           0 NGrid=           0
         NMat0=    1 NMatS0=   7021 NMatT0=    0 NMatD0=    1 NMtDS0=    0 NMtDT0=    0
 Petite list used in FoFCou.
 Closed shell SCF:
 Using DIIS extrapolation, IDIIS=  1040.
 NGot=  1073741824 LenX=  1061244307 LenY=  1061229942
 Requested convergence on RMS density matrix=1.00D-08 within 128 cycles.
 Requested convergence on MAX density matrix=1.00D-06.
 Requested convergence on             energy=1.00D-06.
 No special actions if energy rises.

 Cycle   1  Pass 1  IDiag  1:
 E= -476.677224463681    
 DIIS: error= 1.71D-05 at cycle   1 NSaved=   1.
 NSaved= 1 IEnMin= 1 EnMin= -476.677224463681     IErMin= 1 ErrMin= 1.71D-05
 ErrMax= 1.71D-05  0.00D+00 EMaxC= 1.00D-01 BMatC= 7.51D-08 BMatP= 7.51D-08
 IDIUse=1 WtCom= 1.00D+00 WtEn= 0.00D+00
 Coeff-Com:  0.100D+01
 Coeff:      0.100D+01
 Gap=     0.533 Goal=   None    Shift=    0.000
 RMSDP=3.34D-06 MaxDP=4.81D-05              OVMax= 7.02D-05

 Cycle   2  Pass 1  IDiag  1:
 E= -476.677224565234     Delta-E=       -0.000000101553 Rises=F Damp=F
 DIIS: error= 3.84D-06 at cycle   2 NSaved=   2.
 NSaved= 2 IEnMin= 2 EnMin= -476.677224565234     IErMin= 2 ErrMin= 3.84D-06
 ErrMax= 3.84D-06  0.00D+00 EMaxC= 1.00D-01 BMatC= 4.02D-09 BMatP= 7.51D-08
 IDIUse=1 WtCom= 1.00D+00 WtEn= 0.00D+00
 Coeff-Com: -0.570D-01 0.106D+01
 Coeff:     -0.570D-01 0.106D+01
 Gap=     0.533 Goal=   None    Shift=    0.000
 RMSDP=9.39D-07 MaxDP=1.28D-05 DE=-1.02D-07 OVMax= 2.73D-05

 Cycle   3  Pass 1  IDiag  1:
 E= -476.677224569534     Delta-E=       -0.000000004299 Rises=F Damp=F
 DIIS: error= 4.56D-06 at cycle   3 NSaved=   3.
 NSaved= 3 IEnMin= 3 EnMin= -476.677224569534     IErMin= 2 ErrMin= 3.84D-06
 ErrMax= 4.56D-06  0.00D+00 EMaxC= 1.00D-01 BMatC= 3.20D-09 BMatP= 4.02D-09
 IDIUse=1 WtCom= 1.00D+00 WtEn= 0.00D+00
 Coeff-Com: -0.844D-01 0.524D+00 0.560D+00
 Coeff:     -0.844D-01 0.524D+00 0.560D+00
 Gap=     0.533 Goal=   None    Shift=    0.000
 RMSDP=3.32D-07 MaxDP=7.74D-06 DE=-4.30D-09 OVMax= 8.08D-06

 Cycle   4  Pass 1  IDiag  1:
 E= -476.677224571574     Delta-E=       -0.000000002040 Rises=F Damp=F
 DIIS: error= 5.46D-07 at cycle   4 NSaved=   4.
 NSaved= 4 IEnMin= 4 EnMin= -476.677224571574     IErMin= 4 ErrMin= 5.46D-07
 ErrMax= 5.46D-07  0.00D+00 EMaxC= 1.00D-01 BMatC= 8.61D-11 BMatP= 3.20D-09
 IDIUse=1 WtCom= 1.00D+00 WtEn= 0.00D+00
 Coeff-Com: -0.115D-01 0.735D-02 0.130D+00 0.874D+00
 Coeff:     -0.115D-01 0.735D-02 0.130D+00 0.874D+00
 Gap=     0.533 Goal=   None    Shift=    0.000
 RMSDP=1.07D-07 MaxDP=1.69D-06 DE=-2.04D-09 OVMax= 2.68D-06

 Cycle   5  Pass 1  IDiag  1:
 E= -476.677224571659     Delta-E=       -0.000000000086 Rises=F Damp=F
 DIIS: error= 1.77D-07 at cycle   5 NSaved=   5.
 NSaved= 5 IEnMin= 5 EnMin= -476.677224571659     IErMin= 5 ErrMin= 1.77D-07
 ErrMax= 1.77D-07  0.00D+00 EMaxC= 1.00D-01 BMatC= 5.19D-12 BMatP= 8.61D-11
 IDIUse=1 WtCom= 1.00D+00 WtEn= 0.00D+00
 Coeff-Com:  0.324D-02-0.376D-01-0.645D-02 0.210D+00 0.831D+00
 Coeff:      0.324D-02-0.376D-01-0.645D-02 0.210D+00 0.831D+00
 Gap=     0.533 Goal=   None    Shift=    0.000
 RMSDP=3.40D-08 MaxDP=5.98D-07 DE=-8.56D-11 OVMax= 7.19D-07

 Cycle   6  Pass 1  IDiag  1:
 E= -476.677224571667     Delta-E=       -0.000000000008 Rises=F Damp=F
 DIIS: error= 5.05D-08 at cycle   6 NSaved=   6.
 NSaved= 6 IEnMin= 6 EnMin= -476.677224571667     IErMin= 6 ErrMin= 5.05D-08
 ErrMax= 5.05D-08  0.00D+00 EMaxC= 1.00D-01 BMatC= 4.10D-13 BMatP= 5.19D-12
 IDIUse=1 WtCom= 1.00D+00 WtEn= 0.00D+00
 Coeff-Com:  0.153D-02-0.111D-01-0.933D-02 0.145D-01 0.248D+00 0.756D+00
 Coeff:      0.153D-02-0.111D-01-0.933D-02 0.145D-01 0.248D+00 0.756D+00
 Gap=     0.533 Goal=   None    Shift=    0.000
 RMSDP=7.18D-09 MaxDP=1.15D-07 DE=-7.73D-12 OVMax= 2.18D-07

 SCF Done:  E(RwB97XD) =  -476.677224572     A.U. after    6 cycles
            NFock=  6  Conv=0.72D-08     -V/T= 2.0075
 KE= 4.731397824167D+02 PE=-1.673275677376D+03 EE= 4.519041939802D+02
 Leave Link  502 at Thu Apr  2 15:14:43 2026, MaxMem=  1073741824 cpu:               7.6 elap:               2.0
 (Enter /Users/yarger/Applications/g16/l701.exe)
 ... and contract with generalized density number  0.
 Compute integral first derivatives.
 R6Disp: Adding Grimme-D2 dispersion energy 1st derivatives to the gradient.
 Leave Link  701 at Thu Apr  2 15:14:43 2026, MaxMem=  1073741824 cpu:               0.3 elap:               0.1
 (Enter /Users/yarger/Applications/g16/l702.exe)
 L702 exits ... SP integral derivatives will be done elsewhere.
 Leave Link  702 at Thu Apr  2 15:14:43 2026, MaxMem=  1073741824 cpu:               0.1 elap:               0.0
 (Enter /Users/yarger/Applications/g16/l703.exe)
 Integral derivatives from FoFJK, PRISM(SPDF).
 Compute integral first derivatives, UseDBF=F ICtDFT=           0.
 Calling FoFJK, ICntrl=      2127 FMM=F ISym2X=1 I1Cent= 0 IOpClX= 0 NMat=1 NMatS=1 NMatT=0.
 FoFJK:  IHMeth= 1 ICntrl=    2127 DoSepK=T KAlg= 0 I1Cent=           0 FoldK=F
 IRaf=         1 NMat=       1 IRICut=       1 DoRegI=T DoRafI=F ISym2E= 1 IDoP0=0 IntGTp=1.
 FoFCou: FMM=F IPFlag=           0 FMFlag=      100000 FMFlg1=         800
         NFxFlg=           0 DoJE=F BraDBF=F KetDBF=F FulRan=T
         wScrn=  0.000000 ICntrl=      2527 IOpCl=  0 I1Cent=           0 NGrid=           0
         NMat0=    1 NMatS0=      1 NMatT0=    0 NMatD0=    1 NMtDS0=    0 NMtDT0=    0
 Petite list used in FoFCou.
 Leave Link  703 at Thu Apr  2 15:14:44 2026, MaxMem=  1073741824 cpu:               3.4 elap:               0.9
 (Enter /Users/yarger/Applications/g16/l716.exe)
 Dipole        = 5.50932310D-01 6.64181961D-01-1.11022302D-15
 ***** Axes restored to original set *****
 -------------------------------------------------------------------
 Center     Atomic                   Forces (Hartrees/Bohr)
 Number     Number              X              Y              Z
 -------------------------------------------------------------------
      1        6          -0.000024824   -0.000007949    0.000049797
      2        1           0.000009896    0.000020321   -0.000005889
      3        6           0.000005346   -0.000043447    0.000061567
      4        9          -0.000006545    0.000016015   -0.000011668
      5        9          -0.000008707    0.000013697   -0.000013116
      6        9           0.000013996   -0.000000899   -0.000019462
      7        9           0.000022299    0.000004833   -0.000041040
      8        1          -0.000011460   -0.000002571   -0.000020189
 -------------------------------------------------------------------
 Cartesian Forces:  Max     0.000061567 RMS     0.000023812
 Leave Link  716 at Thu Apr  2 15:14:44 2026, MaxMem=  1073741824 cpu:               0.1 elap:               0.0
 (Enter /Users/yarger/Applications/g16/l103.exe)

 GradGradGradGradGradGradGradGradGradGradGradGradGradGradGradGradGradGrad
 Berny optimization.
 Using GEDIIS/GDIIS optimizer.
 FormGI is forming the generalized inverse of G from B-inverse, IUseBI=4.
 Internal  Forces:  Max     0.000044268 RMS     0.000013971
 Search for a local minimum.
 Step number   6 out of a maximum of   38
 All quantities printed in internal units (Hartrees-Bohrs-Radians)
 RMS Force = .13971D-04 SwitMx=.10000D-02 MixMth= 2
 Mixed Optimization -- En-DIIS/RFO-DIIS
 Swapping is turned off.
 Update second derivatives using D2CorX and points    1    2    3    4    5
                                                      6
 DE= -9.84D-08 DEPred=-1.07D-07 R= 9.21D-01
 Trust test= 9.21D-01 RLast= 9.40D-04 DXMaxT set to 4.07D-01
 ITU=  0  1  1  1  1  0
     Eigenvalues ---    0.00237   0.05399   0.05769   0.08585   0.08702
     Eigenvalues ---    0.16000   0.17022   0.21229   0.23772   0.25000
     Eigenvalues ---    0.29089   0.35081   0.37230   0.37278   0.39855
     Eigenvalues ---    0.51159   0.55021   0.57715
 En-DIIS/RFO-DIIS/Sim-DIIS IScMMF=       -3 using points:     6    5    4    3
 RFO step:  Lambda=-1.73892167D-08.
 NNeg= 0 NGDIIS= 4 SimSw=  2.50D-01 Rises=F DC= -9.84D-08 SmlDif=  1.00D-05
 NRisDI= 0 DoIntr=F SqrtH=F CThrHd= 10.0 CDAdj=  3.0
 RMS Error=  0.7252127931D-04 NUsed= 4 OKEnD=F EnDIS=F
 InvSVX:  RCond= 8.75D-08 Info=           0 Equed=N FErr=  2.77D-15 BErr=  8.78D-17
 DIIS inversion failure, remove point   4.
 InvSVX:  RCond= 1.17D-07 Info=           0 Equed=N FErr=  2.03D-15 BErr=  6.49D-17
 RFO-DIIS uses    3 points instead of    4
 DidBck=F Rises=F RFO-DIIS coefs:    1.05184   -0.01644   -0.03540    0.00000
 Iteration  1 RMS(Cart)=  0.00006080 RMS(Int)=  0.00000002
 Iteration  2 RMS(Cart)=  0.00000000 RMS(Int)=  0.00000002
 ITry= 1 IFail=0 DXMaxC= 1.32D-04 DCOld= 1.00D+10 DXMaxT= 4.07D-01 DXLimC= 3.00D+00 Rises=F
 ClnCor:  largest displacement from symmetrization is 3.95D-10 for atom     8.
 Variable       Old X    -DE/DX   Delta X   Delta X   Delta X     New X
                                 (Linear)    (Quad)   (Total)
    R1        2.06467   0.00002  -0.00003   0.00009   0.00006   2.06473
    R2        2.87372   0.00001  -0.00001   0.00006   0.00006   2.87378
    R3        2.59774  -0.00004   0.00008  -0.00015  -0.00008   2.59766
    R4        2.06467   0.00002  -0.00003   0.00009   0.00006   2.06473
    R5        2.53132  -0.00001  -0.00005   0.00001  -0.00004   2.53128
    R6        2.53132  -0.00001  -0.00005   0.00001  -0.00004   2.53128
    R7        2.54743   0.00002   0.00009   0.00000   0.00009   2.54752
    A1        1.90260   0.00000   0.00000   0.00000   0.00001   1.90261
    A2        1.90588   0.00001  -0.00000   0.00004   0.00003   1.90591
    A3        1.93343   0.00000   0.00005  -0.00002   0.00003   1.93346
    A4        1.91339  -0.00002  -0.00005  -0.00006  -0.00012   1.91327
    A5        1.90260   0.00000   0.00000   0.00000   0.00001   1.90261
    A6        1.90588   0.00001  -0.00000   0.00004   0.00003   1.90591
    A7        1.95583  -0.00001   0.00003  -0.00004  -0.00001   1.95582
    A8        1.95583  -0.00001   0.00003  -0.00004  -0.00001   1.95582
    A9        1.89843   0.00001  -0.00004   0.00004  -0.00000   1.89843
   A10        1.88276   0.00002   0.00002   0.00013   0.00015   1.88291
   A11        1.88421  -0.00000  -0.00002  -0.00004  -0.00007   1.88414
   A12        1.88421  -0.00000  -0.00002  -0.00004  -0.00007   1.88414
    D1        1.02562  -0.00001  -0.00007  -0.00005  -0.00011   1.02550
    D2       -3.13808   0.00001   0.00000   0.00006   0.00007  -3.13801
    D3       -1.05623  -0.00000  -0.00003   0.00001  -0.00002  -1.05625
    D4       -1.05975  -0.00001  -0.00004  -0.00005  -0.00009  -1.05984
    D5        1.05975   0.00001   0.00004   0.00005   0.00009   1.05984
    D6        3.14159  -0.00000  -0.00000  -0.00000   0.00000  -3.14159
    D7        3.13808  -0.00001  -0.00000  -0.00006  -0.00007   3.13801
    D8       -1.02562   0.00001   0.00007   0.00005   0.00011  -1.02550
    D9        1.05623   0.00000   0.00003  -0.00001   0.00002   1.05625
         Item               Value     Threshold  Converged?
 Maximum Force            0.000044     0.000015     NO 
 RMS     Force            0.000014     0.000010     NO 
 Maximum Displacement     0.000132     0.000060     NO 
 RMS     Displacement     0.000061     0.000040     NO 
 Predicted change in Energy=-1.109212D-08
 Lowest energy point so far.  Saving SCF results.
 GradGradGradGradGradGradGradGradGradGradGradGradGradGradGradGradGradGrad

 Leave Link  103 at Thu Apr  2 15:14:44 2026, MaxMem=  1073741824 cpu:               0.1 elap:               0.0
 (Enter /Users/yarger/Applications/g16/l202.exe)
                          Input orientation:                          
 ---------------------------------------------------------------------
 Center     Atomic      Atomic             Coordinates (Angstroms)
 Number     Number       Type             X           Y           Z
 ---------------------------------------------------------------------
      1          6           0       -1.501094    1.412022    1.454176
      2          1           0       -1.160211    2.450073    1.447736
      3          6           0       -0.321622    0.501386    1.150477
      4          9           0        0.670078    0.649503    2.038648
      5          9           0       -0.673745   -0.790949    1.138823
      6          9           0        0.162866    0.811078   -0.068829
      7          9           0       -2.009283    1.110764    2.695377
      8          1           0       -2.276167    1.253873    0.700490
 ---------------------------------------------------------------------
                    Distance matrix (angstroms):
                    1          2          3          4          5
     1  C    0.000000
     2  H    1.092608   0.000000
     3  C    1.520739   2.142189   0.000000
     4  F    2.374244   2.634613   1.339498   0.000000
     5  F    2.374244   3.291853   1.339498   2.165744   0.000000
     6  F    2.334404   2.595535   1.348090   2.173668   2.173668
     7  F    1.374624   2.017741   2.367754   2.796969   2.796969
     8  H    1.092608   1.798508   2.142189   3.291853   2.634613
                    6          7          8
     6  F    0.000000
     7  F    3.528297   0.000000
     8  H    2.595535   2.017741   0.000000
 Stoichiometry    C2H2F4
 Framework group  CS[SG(C2F2),X(H2F2)]
 Deg. of freedom    11
 Full point group                 CS      NOp   2
 RotChk:  IX=2 Diff= 7.52D-05
 Largest Abelian subgroup         CS      NOp   2
 Largest concise Abelian subgroup CS      NOp   2
                         Standard orientation:                         
 ---------------------------------------------------------------------
 Center     Atomic      Atomic             Coordinates (Angstroms)
 Number     Number       Type             X           Y           Z
 ---------------------------------------------------------------------
      1          6           0        1.157363    0.244230   -0.000000
      2          1           0        1.494362    0.765350   -0.899254
      3          6           0       -0.362348    0.188338    0.000000
      4          9           0       -0.842785   -0.436822   -1.082872
      5          9           0       -0.842785   -0.436822    1.082872
      6          9           0       -0.842785    1.447912    0.000000
      7          9           0        1.666263   -1.032725   -0.000000
      8          1           0        1.494362    0.765350    0.899254
 ---------------------------------------------------------------------
 Rotational constants (GHZ):           5.3151683           2.7744932           2.7337988
 Leave Link  202 at Thu Apr  2 15:14:44 2026, MaxMem=  1073741824 cpu:               0.0 elap:               0.0
 (Enter /Users/yarger/Applications/g16/l301.exe)
 Standard basis: 6-31+G(d) (6D, 7F)
 Ernie: Thresh=  0.10000D-02 Tol=  0.10000D-05 Strict=F.
 There are    77 symmetry adapted cartesian basis functions of A'  symmetry.
 There are    41 symmetry adapted cartesian basis functions of A"  symmetry.
 There are    77 symmetry adapted basis functions of A'  symmetry.
 There are    41 symmetry adapted basis functions of A"  symmetry.
   118 basis functions,   200 primitive gaussians,   118 cartesian basis functions
    25 alpha electrons       25 beta electrons
       nuclear repulsion energy       271.5576671143 Hartrees.
 IExCor= 4639 DFT=T Ex+Corr=wB97XD ExCW=0 ScaHFX=  1.000000
 ScaDFX=  1.000000  1.000000  1.000000  1.000000 ScalE2=  1.000000  1.000000
 IRadAn=      5 IRanWt=     -1 IRanGd=            0 ICorTp=0 IEmpDi=121
 HFx  wShort=  0.000000 wLong=  0.200000 cFull=  0.222036 cShort=  0.000000 cLong=  0.777964
 DFx  wShort=  0.000000 wLong=  0.200000 cFull=  0.000000 cShort=  0.000000 cLong=  1.000000
 NAtoms=    8 NActive=    8 NUniq=    6 SFac= 1.78D+00 NAtFMM=   60 NAOKFM=F Big=F
 Integral buffers will be    131072 words long.
 Raffenetti 2 integral format.
 Two-electron integral symmetry is turned on.
 R6Disp:  Grimme-D2 Dispersion energy=       -0.0021690026 Hartrees.
 Nuclear repulsion after empirical dispersion term =      271.5554981117 Hartrees.
 Leave Link  301 at Thu Apr  2 15:14:44 2026, MaxMem=  1073741824 cpu:               0.1 elap:               0.0
 (Enter /Users/yarger/Applications/g16/l302.exe)
 NPDir=0 NMtPBC=     1 NCelOv=     1 NCel=       1 NClECP=     1 NCelD=      1
         NCelK=      1 NCelE2=     1 NClLst=     1 CellRange=     0.0.
 One-electron integrals computed using PRISM.
 One-electron integral symmetry used in STVInt
 NBasis=   118 RedAO= T EigKep=  1.96D-04  NBF=    77    41
 NBsUse=   118 1.00D-06 EigRej= -1.00D+00 NBFU=    77    41
 Precomputing XC quadrature grid using
 IXCGrd= 4 IRadAn=           5 IRanWt=          -1 IRanGd=           0 AccXCQ= 0.00D+00.
 Generated NRdTot=       0 NPtTot=           0 NUsed=           0 NTot=          32
 NSgBfM=   118   118   118   118   118 MxSgAt=     8 MxSgA2=     8.
 Leave Link  302 at Thu Apr  2 15:14:45 2026, MaxMem=  1073741824 cpu:               0.4 elap:               0.1
 (Enter /Users/yarger/Applications/g16/l303.exe)
 DipDrv:  MaxL=1.
 Leave Link  303 at Thu Apr  2 15:14:45 2026, MaxMem=  1073741824 cpu:               0.1 elap:               0.0
 (Enter /Users/yarger/Applications/g16/l401.exe)
 Initial guess from the checkpoint file:  "1112Tetrafluoroethane_Opt_Freq_DFT_WB97XD_631pd_Gaussian16.chk"
 B after Tr=    -0.000000   -0.000000   -0.000000
         Rot=    1.000000   -0.000000   -0.000000    0.000026 Ang=   0.00 deg.
 Guess basis will be translated and rotated to current coordinates.
 JPrj=2 DoOrth=T DoCkMO=T.
 Initial guess orbital symmetries:
       Occupied  (A') (A') (A") (A') (A') (A') (A') (A') (A") (A')
                 (A') (A') (A") (A') (A') (A') (A") (A') (A") (A')
                 (A') (A") (A") (A") (A')
       Virtual   (A') (A') (A') (A") (A") (A') (A') (A') (A') (A")
                 (A') (A') (A') (A") (A') (A") (A') (A') (A') (A")
                 (A") (A') (A") (A') (A') (A") (A') (A') (A') (A")
                 (A') (A') (A') (A") (A') (A') (A") (A") (A') (A')
                 (A") (A') (A') (A') (A") (A') (A") (A') (A") (A")
                 (A') (A') (A') (A") (A') (A") (A') (A') (A") (A')
                 (A") (A") (A') (A") (A') (A') (A") (A') (A") (A')
                 (A") (A') (A') (A") (A') (A") (A') (A') (A") (A')
                 (A") (A') (A') (A') (A") (A') (A') (A') (A') (A')
                 (A") (A') (A')
 The electronic state of the initial guess is 1-A'.
 Leave Link  401 at Thu Apr  2 15:14:45 2026, MaxMem=  1073741824 cpu:               0.2 elap:               0.1
 (Enter /Users/yarger/Applications/g16/l502.exe)
 Keep R1 ints in memory in symmetry-blocked form, NReq=74222059.
 FoFCou: FMM=F IPFlag=           0 FMFlag=           0 FMFlg1=           0
         NFxFlg=           0 DoJE=F BraDBF=F KetDBF=F FulRan=T
         wScrn=  0.000000 ICntrl=       600 IOpCl=  0 I1Cent=           0 NGrid=           0
         NMat0=    1 NMatS0=   7021 NMatT0=    0 NMatD0=    1 NMtDS0=    0 NMtDT0=    0
 Petite list used in FoFCou.
 Closed shell SCF:
 Using DIIS extrapolation, IDIIS=  1040.
 NGot=  1073741824 LenX=  1061244307 LenY=  1061229942
 Requested convergence on RMS density matrix=1.00D-08 within 128 cycles.
 Requested convergence on MAX density matrix=1.00D-06.
 Requested convergence on             energy=1.00D-06.
 No special actions if energy rises.

 Cycle   1  Pass 1  IDiag  1:
 E= -476.677224566666    
 DIIS: error= 5.29D-06 at cycle   1 NSaved=   1.
 NSaved= 1 IEnMin= 1 EnMin= -476.677224566666     IErMin= 1 ErrMin= 5.29D-06
 ErrMax= 5.29D-06  0.00D+00 EMaxC= 1.00D-01 BMatC= 7.59D-09 BMatP= 7.59D-09
 IDIUse=1 WtCom= 1.00D+00 WtEn= 0.00D+00
 Coeff-Com:  0.100D+01
 Coeff:      0.100D+01
 Gap=     0.533 Goal=   None    Shift=    0.000
 RMSDP=1.07D-06 MaxDP=1.30D-05              OVMax= 2.97D-05

 Cycle   2  Pass 1  IDiag  1:
 E= -476.677224576944     Delta-E=       -0.000000010278 Rises=F Damp=F
 DIIS: error= 1.83D-06 at cycle   2 NSaved=   2.
 NSaved= 2 IEnMin= 2 EnMin= -476.677224576944     IErMin= 2 ErrMin= 1.83D-06
 ErrMax= 1.83D-06  0.00D+00 EMaxC= 1.00D-01 BMatC= 7.46D-10 BMatP= 7.59D-09
 IDIUse=1 WtCom= 1.00D+00 WtEn= 0.00D+00
 Coeff-Com:  0.206D-01 0.979D+00
 Coeff:      0.206D-01 0.979D+00
 Gap=     0.533 Goal=   None    Shift=    0.000
 RMSDP=3.10D-07 MaxDP=5.14D-06 DE=-1.03D-08 OVMax= 8.96D-06

 Cycle   3  Pass 1  IDiag  1:
 E= -476.677224577372     Delta-E=       -0.000000000428 Rises=F Damp=F
 DIIS: error= 1.87D-06 at cycle   3 NSaved=   3.
 NSaved= 3 IEnMin= 3 EnMin= -476.677224577372     IErMin= 2 ErrMin= 1.83D-06
 ErrMax= 1.87D-06  0.00D+00 EMaxC= 1.00D-01 BMatC= 6.59D-10 BMatP= 7.46D-10
 IDIUse=1 WtCom= 1.00D+00 WtEn= 0.00D+00
 Coeff-Com: -0.931D-01 0.520D+00 0.573D+00
 Coeff:     -0.931D-01 0.520D+00 0.573D+00
 Gap=     0.533 Goal=   None    Shift=    0.000
 RMSDP=1.50D-07 MaxDP=2.86D-06 DE=-4.28D-10 OVMax= 3.64D-06

 Cycle   4  Pass 1  IDiag  1:
 E= -476.677224577794     Delta-E=       -0.000000000422 Rises=F Damp=F
 DIIS: error= 1.61D-07 at cycle   4 NSaved=   4.
 NSaved= 4 IEnMin= 4 EnMin= -476.677224577794     IErMin= 4 ErrMin= 1.61D-07
 ErrMax= 1.61D-07  0.00D+00 EMaxC= 1.00D-01 BMatC= 6.56D-12 BMatP= 6.59D-10
 IDIUse=1 WtCom= 1.00D+00 WtEn= 0.00D+00
 Coeff-Com: -0.548D-02-0.261D-01 0.549D-01 0.977D+00
 Coeff:     -0.548D-02-0.261D-01 0.549D-01 0.977D+00
 Gap=     0.533 Goal=   None    Shift=    0.000
 RMSDP=3.65D-08 MaxDP=5.82D-07 DE=-4.22D-10 OVMax= 9.20D-07

 Cycle   5  Pass 1  IDiag  1:
 E= -476.677224577802     Delta-E=       -0.000000000008 Rises=F Damp=F
 DIIS: error= 5.49D-08 at cycle   5 NSaved=   5.
 NSaved= 5 IEnMin= 5 EnMin= -476.677224577802     IErMin= 5 ErrMin= 5.49D-08
 ErrMax= 5.49D-08  0.00D+00 EMaxC= 1.00D-01 BMatC= 6.25D-13 BMatP= 6.56D-12
 IDIUse=1 WtCom= 1.00D+00 WtEn= 0.00D+00
 Coeff-Com:  0.334D-02-0.389D-01-0.153D-01 0.286D+00 0.765D+00
 Coeff:      0.334D-02-0.389D-01-0.153D-01 0.286D+00 0.765D+00
 Gap=     0.533 Goal=   None    Shift=    0.000
 RMSDP=9.75D-09 MaxDP=2.02D-07 DE=-7.96D-12 OVMax= 1.79D-07

 SCF Done:  E(RwB97XD) =  -476.677224578     A.U. after    5 cycles
            NFock=  5  Conv=0.97D-08     -V/T= 2.0075
 KE= 4.731397383146D+02 PE=-1.673277711770D+03 EE= 4.519052507658D+02
 Leave Link  502 at Thu Apr  2 15:14:47 2026, MaxMem=  1073741824 cpu:               7.0 elap:               1.8
 (Enter /Users/yarger/Applications/g16/l701.exe)
 ... and contract with generalized density number  0.
 Compute integral first derivatives.
 R6Disp: Adding Grimme-D2 dispersion energy 1st derivatives to the gradient.
 Leave Link  701 at Thu Apr  2 15:14:47 2026, MaxMem=  1073741824 cpu:               0.3 elap:               0.1
 (Enter /Users/yarger/Applications/g16/l702.exe)
 L702 exits ... SP integral derivatives will be done elsewhere.
 Leave Link  702 at Thu Apr  2 15:14:47 2026, MaxMem=  1073741824 cpu:               0.0 elap:               0.0
 (Enter /Users/yarger/Applications/g16/l703.exe)
 Integral derivatives from FoFJK, PRISM(SPDF).
 Compute integral first derivatives, UseDBF=F ICtDFT=           0.
 Calling FoFJK, ICntrl=      2127 FMM=F ISym2X=1 I1Cent= 0 IOpClX= 0 NMat=1 NMatS=1 NMatT=0.
 FoFJK:  IHMeth= 1 ICntrl=    2127 DoSepK=T KAlg= 0 I1Cent=           0 FoldK=F
 IRaf=         1 NMat=       1 IRICut=       1 DoRegI=T DoRafI=F ISym2E= 1 IDoP0=0 IntGTp=1.
 FoFCou: FMM=F IPFlag=           0 FMFlag=      100000 FMFlg1=         800
         NFxFlg=           0 DoJE=F BraDBF=F KetDBF=F FulRan=T
         wScrn=  0.000000 ICntrl=      2527 IOpCl=  0 I1Cent=           0 NGrid=           0
         NMat0=    1 NMatS0=      1 NMatT0=    0 NMatD0=    1 NMtDS0=    0 NMtDT0=    0
 Petite list used in FoFCou.
 Leave Link  703 at Thu Apr  2 15:14:48 2026, MaxMem=  1073741824 cpu:               3.4 elap:               0.9
 (Enter /Users/yarger/Applications/g16/l716.exe)
 Dipole        = 5.51048211D-01 6.63889444D-01 6.66133815D-16
 ***** Axes restored to original set *****
 -------------------------------------------------------------------
 Center     Atomic                   Forces (Hartrees/Bohr)
 Number     Number              X              Y              Z
 -------------------------------------------------------------------
      1        6          -0.000002243   -0.000009362    0.000018338
      2        1           0.000002172    0.000001233   -0.000006997
      3        6           0.000001559   -0.000001036   -0.000000670
      4        9          -0.000007772   -0.000003194    0.000002661
      5        9          -0.000000523    0.000004576    0.000007515
      6        9           0.000002712   -0.000001132   -0.000002239
      7        9           0.000001006    0.000006699   -0.000012225
      8        1           0.000003090    0.000002216   -0.000006383
 -------------------------------------------------------------------
 Cartesian Forces:  Max     0.000018338 RMS     0.000006150
 Leave Link  716 at Thu Apr  2 15:14:48 2026, MaxMem=  1073741824 cpu:               0.1 elap:               0.0
 (Enter /Users/yarger/Applications/g16/l103.exe)

 GradGradGradGradGradGradGradGradGradGradGradGradGradGradGradGradGradGrad
 Berny optimization.
 Using GEDIIS/GDIIS optimizer.
 FormGI is forming the generalized inverse of G from B-inverse, IUseBI=4.
 Internal  Forces:  Max     0.000010785 RMS     0.000003377
 Search for a local minimum.
 Step number   7 out of a maximum of   38
 All quantities printed in internal units (Hartrees-Bohrs-Radians)
 RMS Force = .33768D-05 SwitMx=.10000D-02 MixMth= 2
 Mixed Optimization -- En-DIIS/RFO-DIIS
 Swapping is turned off.
 Update second derivatives using D2CorX and points    1    2    3    4    5
                                                      6    7
 DE= -6.13D-09 DEPred=-1.11D-08 R= 5.53D-01
 Trust test= 5.53D-01 RLast= 3.59D-04 DXMaxT set to 4.07D-01
 ITU=  0  0  1  1  1  1  0
     Eigenvalues ---    0.00237   0.05769   0.05882   0.08702   0.09825
     Eigenvalues ---    0.16000   0.16997   0.22150   0.23470   0.25000
     Eigenvalues ---    0.29061   0.33620   0.35739   0.37230   0.39033
     Eigenvalues ---    0.47437   0.55021   0.57821
 En-DIIS/RFO-DIIS/Sim-DIIS IScMMF=       -3 using points:     7    6    5    4    3
 RFO step:  Lambda=-1.04962736D-09.
 NNeg= 0 NGDIIS= 5 SimSw=  2.50D-01 Rises=F DC= -6.13D-09 SmlDif=  1.00D-05
 NRisDI= 0 DoIntr=F SqrtH=F CThrHd= 10.0 CDAdj=  3.0
 RMS Error=  0.2223465579D-04 NUsed= 5 OKEnD=F EnDIS=F
 InvSVX:  RCond= 6.29D-09 Info=           0 Equed=N FErr=  3.47D-15 BErr=  8.45D-17
 DIIS inversion failure, remove point   5.
 InvSVX:  RCond= 9.68D-09 Info=           0 Equed=N FErr=  2.00D-15 BErr=  3.06D-17
 DIIS inversion failure, remove point   4.
 InvSVX:  RCond= 2.81D-08 Info=           0 Equed=N FErr=  1.55D-15 BErr=  4.77D-17
 DIIS inversion failure, remove point   3.
 InvSVX:  RCond= 1.45D-07 Info=           0 Equed=N FErr=  1.15D-15 BErr=  2.78D-17
 RFO-DIIS uses    2 points instead of    5
 DidBck=F Rises=F RFO-DIIS coefs:    0.87137    0.12863    0.00000    0.00000    0.00000
 Iteration  1 RMS(Cart)=  0.00001473 RMS(Int)=  0.00000000
 Iteration  2 RMS(Cart)=  0.00000000 RMS(Int)=  0.00000000
 ITry= 1 IFail=0 DXMaxC= 3.13D-05 DCOld= 1.00D+10 DXMaxT= 4.07D-01 DXLimC= 3.00D+00 Rises=F
 ClnCor:  largest displacement from symmetrization is 1.04D-10 for atom     8.
 Variable       Old X    -DE/DX   Delta X   Delta X   Delta X     New X
                                 (Linear)    (Quad)   (Total)
    R1        2.06473   0.00000  -0.00001   0.00001   0.00001   2.06474
    R2        2.87378  -0.00000  -0.00001  -0.00000  -0.00001   2.87377
    R3        2.59766  -0.00001   0.00001  -0.00004  -0.00003   2.59763
    R4        2.06473   0.00000  -0.00001   0.00001   0.00001   2.06474
    R5        2.53128  -0.00001   0.00001  -0.00001  -0.00001   2.53128
    R6        2.53128  -0.00001   0.00001  -0.00001  -0.00001   2.53128
    R7        2.54752   0.00000  -0.00001   0.00002   0.00001   2.54753
    A1        1.90261  -0.00000  -0.00000  -0.00002  -0.00002   1.90259
    A2        1.90591   0.00000  -0.00000   0.00003   0.00003   1.90594
    A3        1.93346  -0.00000  -0.00000  -0.00003  -0.00003   1.93343
    A4        1.91327   0.00000   0.00002   0.00000   0.00002   1.91329
    A5        1.90261  -0.00000  -0.00000  -0.00002  -0.00002   1.90259
    A6        1.90591   0.00000  -0.00000   0.00003   0.00003   1.90594
    A7        1.95582  -0.00000   0.00000  -0.00001  -0.00001   1.95581
    A8        1.95582  -0.00000   0.00000  -0.00001  -0.00001   1.95581
    A9        1.89843  -0.00000   0.00000   0.00001   0.00001   1.89844
   A10        1.88291  -0.00000  -0.00002   0.00000  -0.00002   1.88290
   A11        1.88414   0.00000   0.00001   0.00001   0.00002   1.88416
   A12        1.88414   0.00000   0.00001   0.00001   0.00002   1.88416
    D1        1.02550   0.00000   0.00001   0.00004   0.00005   1.02555
    D2       -3.13801  -0.00000  -0.00001   0.00002   0.00001  -3.13800
    D3       -1.05625   0.00000   0.00000   0.00003   0.00003  -1.05622
    D4       -1.05984   0.00000   0.00001   0.00001   0.00002  -1.05982
    D5        1.05984  -0.00000  -0.00001  -0.00001  -0.00002   1.05982
    D6        3.14159  -0.00000   0.00000  -0.00000   0.00000   3.14159
    D7        3.13801   0.00000   0.00001  -0.00002  -0.00001   3.13800
    D8       -1.02550  -0.00000  -0.00001  -0.00004  -0.00005  -1.02555
    D9        1.05625  -0.00000  -0.00000  -0.00003  -0.00003   1.05622
         Item               Value     Threshold  Converged?
 Maximum Force            0.000011     0.000015     YES
 RMS     Force            0.000003     0.000010     YES
 Maximum Displacement     0.000031     0.000060     YES
 RMS     Displacement     0.000015     0.000040     YES
 Predicted change in Energy=-7.265928D-10
 Optimization completed.
    -- Stationary point found.
                           ----------------------------
                           !   Optimized Parameters   !
                           ! (Angstroms and Degrees)  !
 --------------------------                            --------------------------
 ! Name  Definition              Value          Derivative Info.                !
 --------------------------------------------------------------------------------
 ! R1    R(1,2)                  1.0926         -DE/DX =    0.0                 !
 ! R2    R(1,3)                  1.5207         -DE/DX =    0.0                 !
 ! R3    R(1,7)                  1.3746         -DE/DX =    0.0                 !
 ! R4    R(1,8)                  1.0926         -DE/DX =    0.0                 !
 ! R5    R(3,4)                  1.3395         -DE/DX =    0.0                 !
 ! R6    R(3,5)                  1.3395         -DE/DX =    0.0                 !
 ! R7    R(3,6)                  1.3481         -DE/DX =    0.0                 !
 ! A1    A(2,1,3)              109.0114         -DE/DX =    0.0                 !
 ! A2    A(2,1,7)              109.2006         -DE/DX =    0.0                 !
 ! A3    A(2,1,8)              110.7794         -DE/DX =    0.0                 !
 ! A4    A(3,1,7)              109.6223         -DE/DX =    0.0                 !
 ! A5    A(3,1,8)              109.0114         -DE/DX =    0.0                 !
 ! A6    A(7,1,8)              109.2006         -DE/DX =    0.0                 !
 ! A7    A(1,3,4)              112.0601         -DE/DX =    0.0                 !
 ! A8    A(1,3,5)              112.0601         -DE/DX =    0.0                 !
 ! A9    A(1,3,6)              108.772          -DE/DX =    0.0                 !
 ! A10   A(4,3,5)              107.8829         -DE/DX =    0.0                 !
 ! A11   A(4,3,6)              107.9534         -DE/DX =    0.0                 !
 ! A12   A(5,3,6)              107.9534         -DE/DX =    0.0                 !
 ! D1    D(2,1,3,4)             58.757          -DE/DX =    0.0                 !
 ! D2    D(2,1,3,5)           -179.7947         -DE/DX =    0.0                 !
 ! D3    D(2,1,3,6)            -60.5188         -DE/DX =    0.0                 !
 ! D4    D(7,1,3,4)            -60.7241         -DE/DX =    0.0                 !
 ! D5    D(7,1,3,5)             60.7241         -DE/DX =    0.0                 !
 ! D6    D(7,1,3,6)            180.0            -DE/DX =    0.0                 !
 ! D7    D(8,1,3,4)            179.7947         -DE/DX =    0.0                 !
 ! D8    D(8,1,3,5)            -58.757          -DE/DX =    0.0                 !
 ! D9    D(8,1,3,6)             60.5188         -DE/DX =    0.0                 !
 --------------------------------------------------------------------------------
 Lowest energy point so far.  Saving SCF results.
 Largest change from initial coordinates is atom    7       1.664 Angstoms.
 GradGradGradGradGradGradGradGradGradGradGradGradGradGradGradGradGradGrad

 Leave Link  103 at Thu Apr  2 15:14:48 2026, MaxMem=  1073741824 cpu:               0.0 elap:               0.0
 (Enter /Users/yarger/Applications/g16/l202.exe)
                          Input orientation:                          
 ---------------------------------------------------------------------
 Center     Atomic      Atomic             Coordinates (Angstroms)
 Number     Number       Type             X           Y           Z
 ---------------------------------------------------------------------
      1          6           0       -1.501094    1.412022    1.454176
      2          1           0       -1.160211    2.450073    1.447736
      3          6           0       -0.321622    0.501386    1.150477
      4          9           0        0.670078    0.649503    2.038648
      5          9           0       -0.673745   -0.790949    1.138823
      6          9           0        0.162866    0.811078   -0.068829
      7          9           0       -2.009283    1.110764    2.695377
      8          1           0       -2.276167    1.253873    0.700490
 ---------------------------------------------------------------------
                    Distance matrix (angstroms):
                    1          2          3          4          5
     1  C    0.000000
     2  H    1.092608   0.000000
     3  C    1.520739   2.142189   0.000000
     4  F    2.374244   2.634613   1.339498   0.000000
     5  F    2.374244   3.291853   1.339498   2.165744   0.000000
     6  F    2.334404   2.595535   1.348090   2.173668   2.173668
     7  F    1.374624   2.017741   2.367754   2.796969   2.796969
     8  H    1.092608   1.798508   2.142189   3.291853   2.634613
                    6          7          8
     6  F    0.000000
     7  F    3.528297   0.000000
     8  H    2.595535   2.017741   0.000000
 Stoichiometry    C2H2F4
 Framework group  CS[SG(C2F2),X(H2F2)]
 Deg. of freedom    11
 Full point group                 CS      NOp   2
 RotChk:  IX=2 Diff= 5.17D-15
 Largest Abelian subgroup         CS      NOp   2
 Largest concise Abelian subgroup CS      NOp   2
                         Standard orientation:                         
 ---------------------------------------------------------------------
 Center     Atomic      Atomic             Coordinates (Angstroms)
 Number     Number       Type             X           Y           Z
 ---------------------------------------------------------------------
      1          6           0        1.157363    0.244230   -0.000000
      2          1           0        1.494362    0.765350   -0.899254
      3          6           0       -0.362348    0.188338    0.000000
      4          9           0       -0.842785   -0.436822   -1.082872
      5          9           0       -0.842785   -0.436822    1.082872
      6          9           0       -0.842785    1.447912    0.000000
      7          9           0        1.666263   -1.032725   -0.000000
      8          1           0        1.494362    0.765350    0.899254
 ---------------------------------------------------------------------
 Rotational constants (GHZ):           5.3151683           2.7744932           2.7337988
 Leave Link  202 at Thu Apr  2 15:14:48 2026, MaxMem=  1073741824 cpu:               0.0 elap:               0.0
 (Enter /Users/yarger/Applications/g16/l601.exe)
 Copying SCF densities to generalized density rwf, IOpCl= 0 IROHF=0.

 **********************************************************************

            Population analysis using the SCF density.

 **********************************************************************

 Orbital symmetries:
       Occupied  (A') (A') (A") (A') (A') (A') (A') (A') (A") (A')
                 (A') (A') (A") (A') (A') (A') (A") (A') (A") (A')
                 (A') (A") (A") (A") (A')
       Virtual   (A') (A') (A') (A") (A") (A') (A') (A') (A') (A")
                 (A') (A') (A') (A") (A') (A") (A') (A') (A') (A")
                 (A") (A') (A") (A') (A') (A") (A') (A') (A') (A")
                 (A') (A') (A') (A") (A') (A') (A") (A") (A') (A')
                 (A") (A') (A') (A') (A") (A') (A") (A') (A") (A")
                 (A') (A') (A') (A") (A') (A") (A') (A') (A") (A')
                 (A") (A") (A') (A") (A') (A') (A") (A') (A") (A')
                 (A") (A') (A') (A") (A') (A") (A') (A') (A") (A')
                 (A") (A') (A') (A') (A") (A') (A') (A') (A') (A')
                 (A") (A') (A')
 The electronic state is 1-A'.
 Alpha  occ. eigenvalues --  -24.89334 -24.89012 -24.89012 -24.86086 -10.57550
 Alpha  occ. eigenvalues --  -10.42183  -1.44554  -1.35616  -1.35419  -1.34004
 Alpha  occ. eigenvalues --   -0.90383  -0.79126  -0.71162  -0.71103  -0.68650
 Alpha  occ. eigenvalues --   -0.62088  -0.61985  -0.57925  -0.57866  -0.55132
 Alpha  occ. eigenvalues --   -0.53934  -0.53857  -0.52092  -0.47339  -0.46435
 Alpha virt. eigenvalues --    0.06884   0.08307   0.09802   0.10018   0.12642
 Alpha virt. eigenvalues --    0.13237   0.13735   0.16871   0.19603   0.20719
 Alpha virt. eigenvalues --    0.26138   0.27574   0.28547   0.30343   0.30382
 Alpha virt. eigenvalues --    0.31391   0.33412   0.35917   0.36430   0.36512
 Alpha virt. eigenvalues --    0.38890   0.39265   0.40993   0.41275   0.42556
 Alpha virt. eigenvalues --    0.43357   0.44158   0.45322   0.50728   0.51504
 Alpha virt. eigenvalues --    0.52943   0.67799   0.78134   0.79459   0.84517
 Alpha virt. eigenvalues --    0.86583   0.88075   0.99909   1.09153   1.24216
 Alpha virt. eigenvalues --    1.26680   1.29824   1.44480   1.59502   1.59817
 Alpha virt. eigenvalues --    1.61848   1.62181   1.65957   1.66266   1.66746
 Alpha virt. eigenvalues --    1.68189   1.71907   1.72810   1.72941   1.74661
 Alpha virt. eigenvalues --    1.75757   1.76721   1.81519   1.87315   1.89163
 Alpha virt. eigenvalues --    1.89345   1.89999   1.91659   1.95594   1.99870
 Alpha virt. eigenvalues --    2.01658   2.09724   2.09742   2.12897   2.14049
 Alpha virt. eigenvalues --    2.14572   2.18874   2.20589   2.24993   2.30115
 Alpha virt. eigenvalues --    2.43108   2.43342   2.47241   2.58484   2.59452
 Alpha virt. eigenvalues --    2.84537   2.88432   2.91132   3.16496   3.21059
 Alpha virt. eigenvalues --    3.28217   3.37527   4.37850   4.68938   5.44170
 Alpha virt. eigenvalues --    5.53455   5.67427   6.31345
          Condensed to atoms (all electrons):
               1          2          3          4          5          6
     1  C    5.133903   0.390419   0.380929  -0.085329  -0.085329  -0.087647
     2  H    0.390419   0.486991  -0.038932  -0.009000   0.008614   0.000801
     3  C    0.380929  -0.038932   4.292086   0.209485   0.209485   0.176852
     4  F   -0.085329  -0.009000   0.209485   9.254406  -0.054815  -0.037597
     5  F   -0.085329   0.008614   0.209485  -0.054815   9.254406  -0.037597
     6  F   -0.087647   0.000801   0.176852  -0.037597  -0.037597   9.276016
     7  F    0.131196  -0.041425  -0.059476   0.006878   0.006878   0.006847
     8  H    0.390419  -0.033909  -0.038932   0.008614  -0.009000   0.000801
               7          8
     1  C    0.131196   0.390419
     2  H   -0.041425  -0.033909
     3  C   -0.059476  -0.038932
     4  F    0.006878   0.008614
     5  F    0.006878  -0.009000
     6  F    0.006847   0.000801
     7  F    9.279593  -0.041425
     8  H   -0.041425   0.486991
 Mulliken charges:
               1
     1  C   -0.168561
     2  H    0.236440
     3  C    0.868504
     4  F   -0.292641
     5  F   -0.292641
     6  F   -0.298475
     7  F   -0.289065
     8  H    0.236440
 Sum of Mulliken charges =  -0.00000
 Mulliken charges with hydrogens summed into heavy atoms:
               1
     1  C    0.304318
     3  C    0.868504
     4  F   -0.292641
     5  F   -0.292641
     6  F   -0.298475
     7  F   -0.289065
 Electronic spatial extent (au):  <R**2>=            479.5677
 Charge=              0.0000 electrons
 Dipole moment (field-independent basis, Debye):
    X=              1.4006    Y=              1.6874    Z=             -0.0000  Tot=              2.1930
 Quadrupole moment (field-independent basis, Debye-Ang):
   XX=            -32.4809   YY=            -33.9160   ZZ=            -31.9158
   XY=              3.4416   XZ=              0.0000   YZ=              0.0000
 Traceless Quadrupole moment (field-independent basis, Debye-Ang):
   XX=              0.2900   YY=             -1.1450   ZZ=              0.8551
   XY=              3.4416   XZ=              0.0000   YZ=              0.0000
 Octapole moment (field-independent basis, Debye-Ang**2):
  XXX=             -6.3290  YYY=             -3.8202  ZZZ=             -0.0000  XYY=             -1.7273
  XXY=              3.8895  XXZ=             -0.0000  XZZ=              1.2270  YZZ=              0.7577
  YYZ=              0.0000  XYZ=             -0.0000
 Hexadecapole moment (field-independent basis, Debye-Ang**3):
 XXXX=           -236.4330 YYYY=           -139.4229 ZZZZ=            -98.8651 XXXY=             33.3721
 XXXZ=              0.0000 YYYX=             28.3411 YYYZ=              0.0000 ZZZX=              0.0000
 ZZZY=              0.0000 XXYY=            -64.7645 XXZZ=            -53.5989 YYZZ=            -38.6256
 XXYZ=              0.0000 YYXZ=              0.0000 ZZXY=              9.8387
 N-N= 2.715554981117D+02 E-N=-1.673277719044D+03  KE= 4.731397383146D+02
 Symmetry A'   KE= 3.570150346686D+02
 Symmetry A"   KE= 1.161247036460D+02
 No NMR shielding tensors so no spin-rotation constants.
 Leave Link  601 at Thu Apr  2 15:14:48 2026, MaxMem=  1073741824 cpu:               0.3 elap:               0.1
 (Enter /Users/yarger/Applications/g16/l9999.exe)
 1\1\GINC-MACBOOKPRO\FOpt\RwB97XD\6-31+G(d)\C2H2F4\ROOT\02-Apr-2026\0\\
 #p opt=tight freq=raman wb97xd/6-31+g(d) guess=save geom=connectivity 
 polar\\r134a - 1,1,1,2-Tetrafluoroethane\\0,1\C,-1.5010942982,1.412021
 8804,1.4541762874\H,-1.1602105722,2.4500725759,1.4477355003\C,-0.32162
 1913,0.501385844,1.1504773165\F,0.6700783527,0.6495025953,2.0386483102
 \F,-0.6737453658,-0.7909488485,1.1388231563\F,0.1628657948,0.811077958
 9,-0.0688290368\F,-2.0092834299,1.1107643304,2.6953768435\H,-2.2761674
 722,1.2538727279,0.7004901024\\Version=EM64M-G16RevA.03\State=1-A'\HF=
 -476.6772246\RMSD=9.749e-09\RMSF=6.150e-06\Dipole=-0.3714337,0.631326,
 -0.4559252\Quadrupole=0.0206822,1.5614044,-1.5820866,-0.6730668,1.9959
 812,-0.4766568\PG=CS [SG(C2F2),X(H2F2)]\\@


 THE MOST INCOMPREHENSIBLE THING ABOUT THE WORLD
 IS THAT IT IS COMPREHENSIBLE. -- A. EINSTEIN
 Leave Link 9999 at Thu Apr  2 15:14:48 2026, MaxMem=  1073741824 cpu:               0.1 elap:               0.0
 Job cpu time:       0 days  0 hours  1 minutes 43.2 seconds.
 Elapsed time:       0 days  0 hours  0 minutes 27.0 seconds.
 File lengths (MBytes):  RWF=     10 Int=      0 D2E=      0 Chk=      2 Scr=      1
 Normal termination of Gaussian 16 at Thu Apr  2 15:14:48 2026.
 (Enter /Users/yarger/Applications/g16/l1.exe)
 Link1:  Proceeding to internal job step number  2.
 ----------------------------------------------------------------------
 #P Geom=AllCheck Guess=TCheck SCRF=Check GenChk RwB97XD/6-31+G(d) Freq
 ----------------------------------------------------------------------
 1/7=10,10=4,29=7,30=1,38=1,40=1/1,3;
 2/12=2,40=1/2;
 3/5=1,6=6,7=11,11=2,14=-4,25=1,30=1,70=2,71=2,74=-58,116=1,140=1/1,2,3;
 4/5=101/1;
 5/5=2,38=6,98=1/2;
 8/6=4,10=90,11=11/1;
 10/13=10,15=4/2;
 11/6=3,8=1,9=11,15=111,16=1/1,2,10;
 10/6=1/2;
 6/7=2,8=2,9=2,10=2,28=1/1;
 7/8=1,10=1,25=1/1,2,3,16;
 1/7=10,10=4,30=1/3;
 99//99;
 Leave Link    1 at Thu Apr  2 15:14:48 2026, MaxMem=  1073741824 cpu:               0.1 elap:               0.0
 (Enter /Users/yarger/Applications/g16/l101.exe)
 Structure from the checkpoint file:  "1112Tetrafluoroethane_Opt_Freq_DFT_WB97XD_631pd_Gaussian16.chk"
 ---------------------------------
 r134a - 1,1,1,2-Tetrafluoroethane
 ---------------------------------
 Charge =  0 Multiplicity = 1
 Redundant internal coordinates found in file.  (old form).
 C,0,-1.5010942982,1.4120218804,1.4541762874
 H,0,-1.1602105722,2.4500725759,1.4477355003
 C,0,-0.321621913,0.501385844,1.1504773165
 F,0,0.6700783527,0.6495025953,2.0386483102
 F,0,-0.6737453658,-0.7909488485,1.1388231563
 F,0,0.1628657948,0.8110779589,-0.0688290368
 F,0,-2.0092834299,1.1107643304,2.6953768435
 H,0,-2.2761674722,1.2538727279,0.7004901024
 Recover connectivity data from disk.
 ITRead=  0  0  0  0  0  0  0  0
 MicOpt= -1 -1 -1 -1 -1 -1 -1 -1
 NAtoms=      8 NQM=        8 NQMF=       0 NMMI=      0 NMMIF=      0
                NMic=       0 NMicF=      0.
                    Isotopes and Nuclear Properties:
 (Nuclear quadrupole moments (NQMom) in fm**2, nuclear magnetic moments (NMagM)
  in nuclear magnetons)

  Atom         1           2           3           4           5           6           7           8
 IAtWgt=          12           1          12          19          19          19          19           1
 AtmWgt=  12.0000000   1.0078250  12.0000000  18.9984033  18.9984033  18.9984033  18.9984033   1.0078250
 NucSpn=           0           1           0           1           1           1           1           1
 AtZEff=   3.6000000   1.0000000   3.6000000   6.7500000   6.7500000   6.7500000   6.7500000   1.0000000
 NQMom=    0.0000000   0.0000000   0.0000000   0.0000000   0.0000000   0.0000000   0.0000000   0.0000000
 NMagM=    0.0000000   2.7928460   0.0000000   2.6288670   2.6288670   2.6288670   2.6288670   2.7928460
 AtZNuc=   6.0000000   1.0000000   6.0000000   9.0000000   9.0000000   9.0000000   9.0000000   1.0000000
 Leave Link  101 at Thu Apr  2 15:14:48 2026, MaxMem=  1073741824 cpu:               0.7 elap:               0.2
 (Enter /Users/yarger/Applications/g16/l103.exe)

 GradGradGradGradGradGradGradGradGradGradGradGradGradGradGradGradGradGrad
 Berny optimization.
 Initialization pass.
                           ----------------------------
                           !    Initial Parameters    !
                           ! (Angstroms and Degrees)  !
 --------------------------                            --------------------------
 ! Name  Definition              Value          Derivative Info.                !
 --------------------------------------------------------------------------------
 ! R1    R(1,2)                  1.0926         calculate D2E/DX2 analytically  !
 ! R2    R(1,3)                  1.5207         calculate D2E/DX2 analytically  !
 ! R3    R(1,7)                  1.3746         calculate D2E/DX2 analytically  !
 ! R4    R(1,8)                  1.0926         calculate D2E/DX2 analytically  !
 ! R5    R(3,4)                  1.3395         calculate D2E/DX2 analytically  !
 ! R6    R(3,5)                  1.3395         calculate D2E/DX2 analytically  !
 ! R7    R(3,6)                  1.3481         calculate D2E/DX2 analytically  !
 ! A1    A(2,1,3)              109.0114         calculate D2E/DX2 analytically  !
 ! A2    A(2,1,7)              109.2006         calculate D2E/DX2 analytically  !
 ! A3    A(2,1,8)              110.7794         calculate D2E/DX2 analytically  !
 ! A4    A(3,1,7)              109.6223         calculate D2E/DX2 analytically  !
 ! A5    A(3,1,8)              109.0114         calculate D2E/DX2 analytically  !
 ! A6    A(7,1,8)              109.2006         calculate D2E/DX2 analytically  !
 ! A7    A(1,3,4)              112.0601         calculate D2E/DX2 analytically  !
 ! A8    A(1,3,5)              112.0601         calculate D2E/DX2 analytically  !
 ! A9    A(1,3,6)              108.772          calculate D2E/DX2 analytically  !
 ! A10   A(4,3,5)              107.8829         calculate D2E/DX2 analytically  !
 ! A11   A(4,3,6)              107.9534         calculate D2E/DX2 analytically  !
 ! A12   A(5,3,6)              107.9534         calculate D2E/DX2 analytically  !
 ! D1    D(2,1,3,4)             58.757          calculate D2E/DX2 analytically  !
 ! D2    D(2,1,3,5)           -179.7947         calculate D2E/DX2 analytically  !
 ! D3    D(2,1,3,6)            -60.5188         calculate D2E/DX2 analytically  !
 ! D4    D(7,1,3,4)            -60.7241         calculate D2E/DX2 analytically  !
 ! D5    D(7,1,3,5)             60.7241         calculate D2E/DX2 analytically  !
 ! D6    D(7,1,3,6)            180.0            calculate D2E/DX2 analytically  !
 ! D7    D(8,1,3,4)            179.7947         calculate D2E/DX2 analytically  !
 ! D8    D(8,1,3,5)            -58.757          calculate D2E/DX2 analytically  !
 ! D9    D(8,1,3,6)             60.5188         calculate D2E/DX2 analytically  !
 --------------------------------------------------------------------------------
 Trust Radius=3.00D-01 FncErr=1.00D-07 GrdErr=1.00D-07 EigMax=2.50D+02 EigMin=1.00D-04
 Number of steps in this run=      2 maximum allowed number of steps=      2.
 GradGradGradGradGradGradGradGradGradGradGradGradGradGradGradGradGradGrad

 Leave Link  103 at Thu Apr  2 15:14:48 2026, MaxMem=  1073741824 cpu:               0.0 elap:               0.0
 (Enter /Users/yarger/Applications/g16/l202.exe)
                          Input orientation:                          
 ---------------------------------------------------------------------
 Center     Atomic      Atomic             Coordinates (Angstroms)
 Number     Number       Type             X           Y           Z
 ---------------------------------------------------------------------
      1          6           0       -1.501094    1.412022    1.454176
      2          1           0       -1.160211    2.450073    1.447736
      3          6           0       -0.321622    0.501386    1.150477
      4          9           0        0.670078    0.649503    2.038648
      5          9           0       -0.673745   -0.790949    1.138823
      6          9           0        0.162866    0.811078   -0.068829
      7          9           0       -2.009283    1.110764    2.695377
      8          1           0       -2.276167    1.253873    0.700490
 ---------------------------------------------------------------------
                    Distance matrix (angstroms):
                    1          2          3          4          5
     1  C    0.000000
     2  H    1.092608   0.000000
     3  C    1.520739   2.142189   0.000000
     4  F    2.374244   2.634613   1.339498   0.000000
     5  F    2.374244   3.291853   1.339498   2.165744   0.000000
     6  F    2.334404   2.595535   1.348090   2.173668   2.173668
     7  F    1.374624   2.017741   2.367754   2.796969   2.796969
     8  H    1.092608   1.798508   2.142189   3.291853   2.634613
                    6          7          8
     6  F    0.000000
     7  F    3.528297   0.000000
     8  H    2.595535   2.017741   0.000000
 Stoichiometry    C2H2F4
 Framework group  CS[SG(C2F2),X(H2F2)]
 Deg. of freedom    11
 Full point group                 CS      NOp   2
 RotChk:  IX=2 Diff= 7.00D-16
 Largest Abelian subgroup         CS      NOp   2
 Largest concise Abelian subgroup CS      NOp   2
                         Standard orientation:                         
 ---------------------------------------------------------------------
 Center     Atomic      Atomic             Coordinates (Angstroms)
 Number     Number       Type             X           Y           Z
 ---------------------------------------------------------------------
      1          6           0        1.157363    0.244230    0.000000
      2          1           0        1.494362    0.765350   -0.899254
      3          6           0       -0.362348    0.188338   -0.000000
      4          9           0       -0.842785   -0.436822   -1.082872
      5          9           0       -0.842785   -0.436822    1.082872
      6          9           0       -0.842785    1.447912   -0.000000
      7          9           0        1.666263   -1.032725    0.000000
      8          1           0        1.494362    0.765350    0.899254
 ---------------------------------------------------------------------
 Rotational constants (GHZ):           5.3151683           2.7744932           2.7337988
 Leave Link  202 at Thu Apr  2 15:14:48 2026, MaxMem=  1073741824 cpu:               0.0 elap:               0.0
 (Enter /Users/yarger/Applications/g16/l301.exe)
 Standard basis: 6-31+G(d) (6D, 7F)
 Ernie: Thresh=  0.10000D-02 Tol=  0.10000D-05 Strict=F.
 There are    77 symmetry adapted cartesian basis functions of A'  symmetry.
 There are    41 symmetry adapted cartesian basis functions of A"  symmetry.
 There are    77 symmetry adapted basis functions of A'  symmetry.
 There are    41 symmetry adapted basis functions of A"  symmetry.
   118 basis functions,   200 primitive gaussians,   118 cartesian basis functions
    25 alpha electrons       25 beta electrons
       nuclear repulsion energy       271.5576671143 Hartrees.
 IExCor= 4639 DFT=T Ex+Corr=wB97XD ExCW=0 ScaHFX=  1.000000
 ScaDFX=  1.000000  1.000000  1.000000  1.000000 ScalE2=  1.000000  1.000000
 IRadAn=      5 IRanWt=     -1 IRanGd=            0 ICorTp=0 IEmpDi=121
 HFx  wShort=  0.000000 wLong=  0.200000 cFull=  0.222036 cShort=  0.000000 cLong=  0.777964
 DFx  wShort=  0.000000 wLong=  0.200000 cFull=  0.000000 cShort=  0.000000 cLong=  1.000000
 NAtoms=    8 NActive=    8 NUniq=    6 SFac= 1.78D+00 NAtFMM=   60 NAOKFM=F Big=F
 Integral buffers will be    131072 words long.
 Raffenetti 2 integral format.
 Two-electron integral symmetry is turned on.
 R6Disp:  Grimme-D2 Dispersion energy=       -0.0021690026 Hartrees.
 Nuclear repulsion after empirical dispersion term =      271.5554981117 Hartrees.
 Leave Link  301 at Thu Apr  2 15:14:48 2026, MaxMem=  1073741824 cpu:               0.1 elap:               0.0
 (Enter /Users/yarger/Applications/g16/l302.exe)
 NPDir=0 NMtPBC=     1 NCelOv=     1 NCel=       1 NClECP=     1 NCelD=      1
         NCelK=      1 NCelE2=     1 NClLst=     1 CellRange=     0.0.
 One-electron integrals computed using PRISM.
 One-electron integral symmetry used in STVInt
 NBasis=   118 RedAO= T EigKep=  1.96D-04  NBF=    77    41
 NBsUse=   118 1.00D-06 EigRej= -1.00D+00 NBFU=    77    41
 Precomputing XC quadrature grid using
 IXCGrd= 4 IRadAn=           5 IRanWt=          -1 IRanGd=           0 AccXCQ= 0.00D+00.
 Generated NRdTot=       0 NPtTot=           0 NUsed=           0 NTot=          32
 NSgBfM=   118   118   118   118   118 MxSgAt=     8 MxSgA2=     8.
 Leave Link  302 at Thu Apr  2 15:14:48 2026, MaxMem=  1073741824 cpu:               0.4 elap:               0.1
 (Enter /Users/yarger/Applications/g16/l303.exe)
 DipDrv:  MaxL=1.
 Leave Link  303 at Thu Apr  2 15:14:48 2026, MaxMem=  1073741824 cpu:               0.1 elap:               0.0
 (Enter /Users/yarger/Applications/g16/l401.exe)
 Initial guess from the checkpoint file:  "1112Tetrafluoroethane_Opt_Freq_DFT_WB97XD_631pd_Gaussian16.chk"
 B after Tr=     0.000000    0.000000   -0.000000
         Rot=    1.000000   -0.000000   -0.000000    0.000000 Ang=   0.00 deg.
 Guess basis will be translated and rotated to current coordinates.
 JPrj=2 DoOrth=T DoCkMO=T.
 Initial guess orbital symmetries:
       Occupied  (A') (A') (A") (A') (A') (A') (A') (A') (A") (A')
                 (A') (A') (A") (A') (A') (A') (A") (A') (A") (A')
                 (A') (A") (A") (A") (A')
       Virtual   (A') (A') (A') (A") (A") (A') (A') (A') (A') (A")
                 (A') (A') (A') (A") (A') (A") (A') (A') (A') (A")
                 (A") (A') (A") (A') (A') (A") (A') (A') (A') (A")
                 (A') (A') (A') (A") (A') (A') (A") (A") (A') (A')
                 (A") (A') (A') (A') (A") (A') (A") (A') (A") (A")
                 (A') (A') (A') (A") (A') (A") (A') (A') (A") (A')
                 (A") (A") (A') (A") (A') (A') (A") (A') (A") (A')
                 (A") (A') (A') (A") (A') (A") (A') (A') (A") (A')
                 (A") (A') (A') (A') (A") (A') (A') (A') (A') (A')
                 (A") (A') (A')
 The electronic state of the initial guess is 1-A'.
 Leave Link  401 at Thu Apr  2 15:14:49 2026, MaxMem=  1073741824 cpu:               0.2 elap:               0.1
 (Enter /Users/yarger/Applications/g16/l502.exe)
 Keep R1 ints in memory in symmetry-blocked form, NReq=74222059.
 FoFCou: FMM=F IPFlag=           0 FMFlag=           0 FMFlg1=           0
         NFxFlg=           0 DoJE=F BraDBF=F KetDBF=F FulRan=T
         wScrn=  0.000000 ICntrl=       600 IOpCl=  0 I1Cent=           0 NGrid=           0
         NMat0=    1 NMatS0=   7021 NMatT0=    0 NMatD0=    1 NMtDS0=    0 NMtDT0=    0
 Petite list used in FoFCou.
 Closed shell SCF:
 Using DIIS extrapolation, IDIIS=  1040.
 NGot=  1073741824 LenX=  1061244307 LenY=  1061229942
 Requested convergence on RMS density matrix=1.00D-08 within 128 cycles.
 Requested convergence on MAX density matrix=1.00D-06.
 Requested convergence on             energy=1.00D-06.
 No special actions if energy rises.

 Cycle   1  Pass 1  IDiag  1:
 E= -476.677224577808    
 DIIS: error= 1.38D-08 at cycle   1 NSaved=   1.
 NSaved= 1 IEnMin= 1 EnMin= -476.677224577808     IErMin= 1 ErrMin= 1.38D-08
 ErrMax= 1.38D-08  0.00D+00 EMaxC= 1.00D-01 BMatC= 3.47D-14 BMatP= 3.47D-14
 IDIUse=1 WtCom= 1.00D+00 WtEn= 0.00D+00
 Coeff-Com:  0.100D+01
 Coeff:      0.100D+01
 Gap=     0.533 Goal=   None    Shift=    0.000
 RMSDP=2.76D-09 MaxDP=4.40D-08              OVMax= 5.61D-08

 SCF Done:  E(RwB97XD) =  -476.677224578     A.U. after    1 cycles
            NFock=  1  Conv=0.28D-08     -V/T= 2.0075
 KE= 4.731397387229D+02 PE=-1.673277719452D+03 EE= 4.519052580395D+02
 Leave Link  502 at Thu Apr  2 15:14:50 2026, MaxMem=  1073741824 cpu:               4.1 elap:               1.1
 (Enter /Users/yarger/Applications/g16/l801.exe)
 DoSCS=F DFT=T ScalE2(SS,OS)=  1.000000  1.000000
 Range of M.O.s used for correlation:     1   118
 NBasis=   118 NAE=    25 NBE=    25 NFC=     0 NFV=     0
 NROrb=    118 NOA=    25 NOB=    25 NVA=    93 NVB=    93

 **** Warning!!: The largest alpha MO coefficient is  0.30456744D+02

 Leave Link  801 at Thu Apr  2 15:14:50 2026, MaxMem=  1073741824 cpu:               0.1 elap:               0.0
 (Enter /Users/yarger/Applications/g16/l1002.exe)
 Minotr:  Closed shell wavefunction.
          Direct CPHF calculation.
          Differentiating once with respect to electric field.
                with respect to dipole field.
          Electric field/nuclear overlap derivatives assumed to be zero.
          Using symmetry in CPHF.
          Requested convergence is 1.0D-08 RMS, and 1.0D-07 maximum.
          Secondary convergence is 1.0D-12 RMS, and 1.0D-12 maximum.
          NewPWx=F KeepS1=T KeepF1=T KeepIn=T MapXYZ=F SortEE=F KeepMc=T.
         2455 words used for storage of precomputed grid.
 Keep R1 ints in memory in symmetry-blocked form, NReq=74225504.
 FoFCou: FMM=F IPFlag=           0 FMFlag=           0 FMFlg1=           0
         NFxFlg=           0 DoJE=F BraDBF=F KetDBF=F FulRan=T
         wScrn=  0.000000 ICntrl=       600 IOpCl=  0 I1Cent=           0 NGrid=           0
         NMat0=    1 NMatS0=   7021 NMatT0=    0 NMatD0=    1 NMtDS0=    0 NMtDT0=    0
 Petite list used in FoFCou.
 Two-electron integral symmetry used by symmetrizing perturbed Fock matrices.
          MDV=    1073741824 using IRadAn=       1.
          Solving linear equations simultaneously, MaxMat=       0.
          There are     3 degrees of freedom in the 1st order CPHF.  IDoFFX=0 NUNeed=     3.
      3 vectors produced by pass  0 Test12= 7.75D-14 3.33D-08 XBig12= 8.45D+00 1.03D+00.
 AX will form     3 AO Fock derivatives at one time.
      3 vectors produced by pass  1 Test12= 7.75D-14 3.33D-08 XBig12= 1.46D+00 1.90D-01.
      3 vectors produced by pass  2 Test12= 7.75D-14 3.33D-08 XBig12= 2.37D-01 8.33D-02.
      3 vectors produced by pass  3 Test12= 7.75D-14 3.33D-08 XBig12= 9.79D-03 2.37D-02.
      3 vectors produced by pass  4 Test12= 7.75D-14 3.33D-08 XBig12= 1.37D-03 7.64D-03.
      3 vectors produced by pass  5 Test12= 7.75D-14 3.33D-08 XBig12= 5.87D-05 2.20D-03.
      3 vectors produced by pass  6 Test12= 7.75D-14 3.33D-08 XBig12= 4.62D-06 4.26D-04.
      3 vectors produced by pass  7 Test12= 7.75D-14 3.33D-08 XBig12= 7.41D-07 1.98D-04.
      3 vectors produced by pass  8 Test12= 7.75D-14 3.33D-08 XBig12= 1.87D-08 3.24D-05.
      3 vectors produced by pass  9 Test12= 7.75D-14 3.33D-08 XBig12= 4.94D-10 6.14D-06.
      3 vectors produced by pass 10 Test12= 7.75D-14 3.33D-08 XBig12= 1.04D-11 8.17D-07.
      1 vectors produced by pass 11 Test12= 7.75D-14 3.33D-08 XBig12= 1.89D-13 1.21D-07.
 InvSVY:  IOpt=1 It=  1 EMax= 8.88D-16
 Solved reduced A of dimension    34 with     3 vectors.
 End of Minotr F.D. properties file   721 does not exist.
 End of Minotr F.D. properties file   722 does not exist.
 End of Minotr F.D. properties file   788 does not exist.
 Leave Link 1002 at Thu Apr  2 15:14:52 2026, MaxMem=  1073741824 cpu:               8.8 elap:               2.3
 (Enter /Users/yarger/Applications/g16/l1101.exe)
 Using compressed storage, NAtomX=     8.
 Will process      9 centers per pass.
 R6Disp: Adding Grimme-D2 dispersion energy 1st derivatives to the gradient.
 Leave Link 1101 at Thu Apr  2 15:14:52 2026, MaxMem=  1073741824 cpu:               0.3 elap:               0.1
 (Enter /Users/yarger/Applications/g16/l1102.exe)
 Symmetrizing basis deriv contribution to polar:
 IMax=3 JMax=2 DiffMx= 0.00D+00
 Leave Link 1102 at Thu Apr  2 15:14:52 2026, MaxMem=  1073741824 cpu:               0.1 elap:               0.0
 (Enter /Users/yarger/Applications/g16/l1110.exe)
 Forming Gx(P) for the SCF density, NAtomX=     8.
 Integral derivatives from FoFJK, PRISM(SPDF).
 Do as many integral derivatives as possible in FoFJK.
 G2DrvN: MDV=    1073741112.
 G2DrvN: will do     9 centers at a time, making    1 passes.
 PxScal for G2LodP:  IOpCl= 0 ISclPx=1 IMOff=     1 NMtTot=     4 NTT=    7021 ScalPx= 3.11D+00
 Calling FoFCou, ICntrl=  3107 FMM=F I1Cent=   0 AccDes= 0.00D+00.
 FoFJK:  IHMeth= 1 ICntrl=    3107 DoSepK=T KAlg= 0 I1Cent=           0 FoldK=F
 IRaf=         1 NMat=       1 IRICut=       1 DoRegI=T DoRafI=F ISym2E= 1 IDoP0=0 IntGTp=1.
 FoFCou: FMM=F IPFlag=           0 FMFlag=      100000 FMFlg1=           0
         NFxFlg=           0 DoJE=F BraDBF=F KetDBF=F FulRan=T
         wScrn=  0.000000 ICntrl=      3507 IOpCl=  0 I1Cent=           0 NGrid=           0
         NMat0=    1 NMatS0=      1 NMatT0=    0 NMatD0=    4 NMtDS0=    3 NMtDT0=    0
 Petite list used in FoFCou.
 End of G2Drv F.D. properties file   721 does not exist.
 End of G2Drv F.D. properties file   722 does not exist.
 End of G2Drv F.D. properties file   788 does not exist.
 Leave Link 1110 at Thu Apr  2 15:14:58 2026, MaxMem=  1073741824 cpu:              21.9 elap:               5.5
 (Enter /Users/yarger/Applications/g16/l1002.exe)
 Minotr:  Closed shell wavefunction.
          IDoAtm=11111111
          Direct CPHF calculation.
          Differentiating once with respect to electric field.
                with respect to dipole field.
          Differentiating once with respect to nuclear coordinates.
          Using symmetry in CPHF.
          Requested convergence is 1.0D-08 RMS, and 1.0D-07 maximum.
          Secondary convergence is 1.0D-12 RMS, and 1.0D-12 maximum.
          NewPWx=T KeepS1=F KeepF1=F KeepIn=T MapXYZ=F SortEE=F KeepMc=T.
         2455 words used for storage of precomputed grid.
 Keep R1 ints in memory in symmetry-blocked form, NReq=74225688.
 FoFCou: FMM=F IPFlag=           0 FMFlag=           0 FMFlg1=           0
         NFxFlg=           0 DoJE=F BraDBF=F KetDBF=F FulRan=T
         wScrn=  0.000000 ICntrl=       600 IOpCl=  0 I1Cent=           0 NGrid=           0
         NMat0=    1 NMatS0=   7021 NMatT0=    0 NMatD0=    1 NMtDS0=    0 NMtDT0=    0
 Petite list used in FoFCou.
          MDV=    1073741824 using IRadAn=       1.
          Solving linear equations simultaneously, MaxMat=       0.
          There are    21 degrees of freedom in the 1st order CPHF.  IDoFFX=4 NUNeed=    21.
 Will reuse    3 saved solutions.
     18 vectors produced by pass  0 Test12= 1.11D-14 4.76D-09 XBig12= 1.04D-01 7.84D-02.
 AX will form    18 AO Fock derivatives at one time.
     18 vectors produced by pass  1 Test12= 1.11D-14 4.76D-09 XBig12= 1.16D-02 2.19D-02.
     18 vectors produced by pass  2 Test12= 1.11D-14 4.76D-09 XBig12= 6.86D-04 6.43D-03.
     18 vectors produced by pass  3 Test12= 1.11D-14 4.76D-09 XBig12= 9.74D-06 6.66D-04.
     18 vectors produced by pass  4 Test12= 1.11D-14 4.76D-09 XBig12= 9.02D-08 5.50D-05.
     18 vectors produced by pass  5 Test12= 1.11D-14 4.76D-09 XBig12= 5.55D-10 3.93D-06.
     18 vectors produced by pass  6 Test12= 1.11D-14 4.76D-09 XBig12= 3.33D-12 4.06D-07.
      5 vectors produced by pass  7 Test12= 1.11D-14 4.76D-09 XBig12= 1.94D-14 2.46D-08.
 InvSVY:  IOpt=1 It=  1 EMax= 4.44D-16
 Solved reduced A of dimension   131 with    21 vectors.
 FullF1:  Do perturbations      1 to      21.
 Isotropic polarizability for W=    0.000000       27.67 Bohr**3.
 FullF1:  Do perturbations      1 to       6.
 End of Minotr F.D. properties file   721 does not exist.
 End of Minotr F.D. properties file   722 does not exist.
 End of Minotr F.D. properties file   788 does not exist.
 Leave Link 1002 at Thu Apr  2 15:15:05 2026, MaxMem=  1073741824 cpu:              29.9 elap:               7.5
 (Enter /Users/yarger/Applications/g16/l601.exe)
 Copying SCF densities to generalized density rwf, IOpCl= 0 IROHF=0.

 **********************************************************************

            Population analysis using the SCF density.

 **********************************************************************

 Orbital symmetries:
       Occupied  (A') (A') (A") (A') (A') (A') (A') (A') (A") (A')
                 (A') (A') (A") (A') (A') (A') (A") (A') (A") (A')
                 (A') (A") (A") (A") (A')
       Virtual   (A') (A') (A') (A") (A") (A') (A') (A') (A') (A")
                 (A') (A') (A') (A") (A') (A") (A') (A') (A') (A")
                 (A") (A') (A") (A') (A') (A") (A') (A') (A') (A")
                 (A') (A') (A') (A") (A') (A') (A") (A") (A') (A')
                 (A") (A') (A') (A') (A") (A') (A") (A') (A") (A")
                 (A') (A') (A') (A") (A') (A") (A') (A') (A") (A')
                 (A") (A") (A') (A") (A') (A') (A") (A') (A") (A')
                 (A") (A') (A') (A") (A') (A") (A') (A') (A") (A')
                 (A") (A') (A') (A') (A") (A') (A') (A') (A') (A')
                 (A") (A') (A')
 The electronic state is 1-A'.
 Alpha  occ. eigenvalues --  -24.89334 -24.89012 -24.89012 -24.86086 -10.57550
 Alpha  occ. eigenvalues --  -10.42183  -1.44554  -1.35616  -1.35419  -1.34004
 Alpha  occ. eigenvalues --   -0.90383  -0.79126  -0.71162  -0.71103  -0.68650
 Alpha  occ. eigenvalues --   -0.62088  -0.61985  -0.57925  -0.57866  -0.55132
 Alpha  occ. eigenvalues --   -0.53934  -0.53857  -0.52092  -0.47339  -0.46435
 Alpha virt. eigenvalues --    0.06884   0.08307   0.09802   0.10018   0.12642
 Alpha virt. eigenvalues --    0.13237   0.13735   0.16871   0.19603   0.20719
 Alpha virt. eigenvalues --    0.26138   0.27574   0.28547   0.30343   0.30382
 Alpha virt. eigenvalues --    0.31391   0.33412   0.35917   0.36430   0.36512
 Alpha virt. eigenvalues --    0.38890   0.39265   0.40993   0.41275   0.42556
 Alpha virt. eigenvalues --    0.43357   0.44158   0.45322   0.50728   0.51504
 Alpha virt. eigenvalues --    0.52943   0.67799   0.78134   0.79459   0.84517
 Alpha virt. eigenvalues --    0.86583   0.88075   0.99909   1.09153   1.24216
 Alpha virt. eigenvalues --    1.26680   1.29824   1.44480   1.59502   1.59817
 Alpha virt. eigenvalues --    1.61848   1.62181   1.65957   1.66266   1.66746
 Alpha virt. eigenvalues --    1.68189   1.71907   1.72810   1.72941   1.74661
 Alpha virt. eigenvalues --    1.75757   1.76721   1.81519   1.87315   1.89163
 Alpha virt. eigenvalues --    1.89345   1.89999   1.91659   1.95594   1.99870
 Alpha virt. eigenvalues --    2.01658   2.09724   2.09742   2.12897   2.14049
 Alpha virt. eigenvalues --    2.14572   2.18874   2.20589   2.24993   2.30115
 Alpha virt. eigenvalues --    2.43108   2.43342   2.47241   2.58484   2.59452
 Alpha virt. eigenvalues --    2.84537   2.88432   2.91132   3.16496   3.21059
 Alpha virt. eigenvalues --    3.28217   3.37527   4.37850   4.68938   5.44170
 Alpha virt. eigenvalues --    5.53455   5.67427   6.31345
          Condensed to atoms (all electrons):
               1          2          3          4          5          6
     1  C    5.133903   0.390419   0.380929  -0.085329  -0.085329  -0.087647
     2  H    0.390419   0.486991  -0.038932  -0.009000   0.008614   0.000801
     3  C    0.380929  -0.038932   4.292085   0.209485   0.209485   0.176852
     4  F   -0.085329  -0.009000   0.209485   9.254406  -0.054815  -0.037597
     5  F   -0.085329   0.008614   0.209485  -0.054815   9.254406  -0.037597
     6  F   -0.087647   0.000801   0.176852  -0.037597  -0.037597   9.276016
     7  F    0.131196  -0.041425  -0.059476   0.006878   0.006878   0.006847
     8  H    0.390419  -0.033909  -0.038932   0.008614  -0.009000   0.000801
               7          8
     1  C    0.131196   0.390419
     2  H   -0.041425  -0.033909
     3  C   -0.059476  -0.038932
     4  F    0.006878   0.008614
     5  F    0.006878  -0.009000
     6  F    0.006847   0.000801
     7  F    9.279593  -0.041425
     8  H   -0.041425   0.486991
 Mulliken charges:
               1
     1  C   -0.168561
     2  H    0.236440
     3  C    0.868504
     4  F   -0.292641
     5  F   -0.292641
     6  F   -0.298476
     7  F   -0.289065
     8  H    0.236440
 Sum of Mulliken charges =  -0.00000
 Mulliken charges with hydrogens summed into heavy atoms:
               1
     1  C    0.304318
     3  C    0.868504
     4  F   -0.292641
     5  F   -0.292641
     6  F   -0.298476
     7  F   -0.289065
 APT charges:
               1
     1  C    0.501038
     2  H    0.007465
     3  C    1.624516
     4  F   -0.551825
     5  F   -0.551825
     6  F   -0.555567
     7  F   -0.481267
     8  H    0.007465
 Sum of APT charges =   0.00000
 APT charges with hydrogens summed into heavy atoms:
               1
     1  C    0.515968
     3  C    1.624516
     4  F   -0.551825
     5  F   -0.551825
     6  F   -0.555567
     7  F   -0.481267
 Electronic spatial extent (au):  <R**2>=            479.5677
 Charge=              0.0000 electrons
 Dipole moment (field-independent basis, Debye):
    X=              1.4006    Y=              1.6874    Z=              0.0000  Tot=              2.1930
 Quadrupole moment (field-independent basis, Debye-Ang):
   XX=            -32.4809   YY=            -33.9160   ZZ=            -31.9158
   XY=              3.4416   XZ=              0.0000   YZ=             -0.0000
 Traceless Quadrupole moment (field-independent basis, Debye-Ang):
   XX=              0.2900   YY=             -1.1450   ZZ=              0.8551
   XY=              3.4416   XZ=              0.0000   YZ=             -0.0000
 Octapole moment (field-independent basis, Debye-Ang**2):
  XXX=             -6.3290  YYY=             -3.8202  ZZZ=              0.0000  XYY=             -1.7273
  XXY=              3.8895  XXZ=              0.0000  XZZ=              1.2270  YZZ=              0.7577
  YYZ=             -0.0000  XYZ=              0.0000
 Hexadecapole moment (field-independent basis, Debye-Ang**3):
 XXXX=           -236.4330 YYYY=           -139.4229 ZZZZ=            -98.8651 XXXY=             33.3721
 XXXZ=             -0.0000 YYYX=             28.3411 YYYZ=              0.0000 ZZZX=             -0.0000
 ZZZY=              0.0000 XXYY=            -64.7645 XXZZ=            -53.5989 YYZZ=            -38.6256
 XXYZ=              0.0000 YYXZ=             -0.0000 ZZXY=              9.8387
 N-N= 2.715554981117D+02 E-N=-1.673277718878D+03  KE= 4.731397387229D+02
 Symmetry A'   KE= 3.570150346029D+02
 Symmetry A"   KE= 1.161247041200D+02
  Exact polarizability:  27.548  -0.482  28.366   0.000  -0.000  27.090
 Approx polarizability:  26.327  -0.539  30.402   0.000  -0.000  28.884
 No NMR shielding tensors so no spin-rotation constants.
 Leave Link  601 at Thu Apr  2 15:15:05 2026, MaxMem=  1073741824 cpu:               0.3 elap:               0.1
 (Enter /Users/yarger/Applications/g16/l701.exe)
 ... and contract with generalized density number  0.
 Compute integral second derivatives.
 R6Disp: Adding Grimme-D2 dispersion energy 2nd derivatives to the Hessian.
 Leave Link  701 at Thu Apr  2 15:15:06 2026, MaxMem=  1073741824 cpu:               0.3 elap:               0.1
 (Enter /Users/yarger/Applications/g16/l702.exe)
 L702 exits ... SP integral derivatives will be done elsewhere.
 Leave Link  702 at Thu Apr  2 15:15:06 2026, MaxMem=  1073741824 cpu:               0.1 elap:               0.0
 (Enter /Users/yarger/Applications/g16/l703.exe)
 Integral derivatives from FoFJK, PRISM(SPDF).
 Compute integral second derivatives, UseDBF=F ICtDFT=           0.
 Calling FoFJK, ICntrl=    100127 FMM=F ISym2X=1 I1Cent= 0 IOpClX= 0 NMat=1 NMatS=1 NMatT=0.
 FoFJK:  IHMeth= 1 ICntrl=  100127 DoSepK=T KAlg= 0 I1Cent=           0 FoldK=F
 IRaf=         1 NMat=       1 IRICut=       1 DoRegI=T DoRafI=F ISym2E= 1 IDoP0=0 IntGTp=1.
 FoFCou: FMM=F IPFlag=           0 FMFlag=      100000 FMFlg1=         800
         NFxFlg=           0 DoJE=F BraDBF=F KetDBF=F FulRan=T
         wScrn=  0.000000 ICntrl=    100527 IOpCl=  0 I1Cent=           0 NGrid=           0
         NMat0=    1 NMatS0=      1 NMatT0=    0 NMatD0=    1 NMtDS0=    0 NMtDT0=    0
 Petite list used in FoFCou.
 Leave Link  703 at Thu Apr  2 15:15:13 2026, MaxMem=  1073741824 cpu:              29.6 elap:               7.5
 (Enter /Users/yarger/Applications/g16/l716.exe)
 Dipole        = 5.51048418D-01 6.63889381D-01 2.23990794D-15
 Polarizability= 2.75477838D+01-4.81761343D-01 2.83656058D+01
                 3.61200244D-14-3.32754961D-14 2.70901325D+01
 HyperPolar    = 2.77318523D+00 9.92711393D+00 8.35268552D+00
                 2.01174838D+01-4.97753723D-12-8.13451928D-12
                 8.60811205D-12 1.51351428D+01 2.53021818D+01
                 4.15817179D-11
 Full mass-weighted force constant matrix:
 Low frequencies ---   -8.2202   -0.0004   -0.0002    0.0008    3.7855    4.5359
 Low frequencies ---  109.7585  219.6483  353.4070
 Diagonal vibrational polarizability:
        7.0606005       9.0403763      21.2336315
 Diagonal vibrational hyperpolarizability:
        8.1361748       6.6071086       0.0000005
 Harmonic frequencies (cm**-1), IR intensities (KM/Mole), Raman scattering
 activities (A**4/AMU), depolarization ratios for plane and unpolarized
 incident light, reduced masses (AMU), force constants (mDyne/A),
 and normal coordinates:
                      1                      2                      3
                     A"                     A'                     A"
 Frequencies --    109.7559               219.6483               353.4068
 Red. masses --      4.9215                15.9731                 3.3727
 Frc consts  --      0.0349                 0.4540                 0.2482
 IR Inten    --      6.5980                 3.4192                 1.6819
 Raman Activ --      0.0390                 0.0620                 0.2112
 Depolar (P) --      0.7500                 0.5529                 0.7500
 Depolar (U) --      0.8571                 0.7121                 0.8571
  Atom  AN      X      Y      Z        X      Y      Z        X      Y      Z
     1   6    -0.00   0.00  -0.23    -0.07  -0.11  -0.00     0.00  -0.00  -0.21
     2   1    -0.06  -0.39  -0.48    -0.27   0.04   0.01    -0.32  -0.28  -0.49
     3   6     0.00   0.00  -0.08    -0.11  -0.17  -0.00     0.00   0.00   0.08
     4   9    -0.15   0.11  -0.08    -0.39  -0.01   0.03     0.20  -0.05   0.01
     5   9     0.15  -0.11  -0.08    -0.39  -0.01  -0.03    -0.20   0.05   0.01
     6   9    -0.00  -0.00   0.09     0.36   0.03   0.00    -0.00  -0.00   0.13
     7   9    -0.00  -0.00   0.30     0.57   0.16   0.00     0.00  -0.00  -0.02
     8   1     0.06   0.39  -0.48    -0.27   0.04  -0.01     0.32   0.28  -0.49
                      4                      5                      6
                     A'                     A"                     A'
 Frequencies --    409.1925               529.6984               545.2223
 Red. masses --     13.6828                 8.1058                11.0523
 Frc consts  --      1.3498                 1.3400                 1.9358
 IR Inten    --      0.7063                 2.0973                 8.9152
 Raman Activ --      1.3708                 0.7219                 1.3943
 Depolar (P) --      0.5262                 0.7500                 0.5077
 Depolar (U) --      0.6896                 0.8571                 0.6735
  Atom  AN      X      Y      Z        X      Y      Z        X      Y      Z
     1   6    -0.16   0.27  -0.00    -0.00  -0.00   0.02     0.28   0.02   0.00
     2   1    -0.20   0.29  -0.00     0.41   0.20   0.29     0.43  -0.08  -0.00
     3   6     0.03  -0.06   0.00    -0.00  -0.00  -0.24     0.08   0.24  -0.00
     4   9     0.01  -0.27   0.14    -0.06  -0.30  -0.14    -0.08  -0.14   0.38
     5   9     0.01  -0.27  -0.14     0.06   0.30  -0.14    -0.08  -0.14  -0.38
     6   9     0.48   0.12   0.00     0.00  -0.00   0.37    -0.20   0.25   0.00
     7   9    -0.39   0.26  -0.00    -0.00   0.00   0.03     0.09  -0.12   0.00
     8   1    -0.20   0.29   0.00    -0.41  -0.20   0.29     0.43  -0.08   0.00
                      7                      8                      9
                     A'                     A'                     A"
 Frequencies --    663.1479               851.1809               993.3603
 Red. masses --      9.5534                 7.3929                 1.9583
 Frc consts  --      2.4753                 3.1558                 1.1385
 IR Inten    --     34.4478                18.0684                66.3230
 Raman Activ --      1.7015                 6.8413                 2.6307
 Depolar (P) --      0.6460                 0.0378                 0.7500
 Depolar (U) --      0.7849                 0.0728                 0.8571
  Atom  AN      X      Y      Z        X      Y      Z        X      Y      Z
     1   6    -0.37  -0.21  -0.00     0.38   0.17   0.00    -0.00  -0.00   0.20
     2   1    -0.43  -0.17   0.01     0.53   0.06  -0.01    -0.57  -0.31  -0.20
     3   6    -0.26   0.09  -0.00    -0.05   0.01   0.00    -0.00   0.00   0.11
     4   9     0.16  -0.13  -0.08    -0.10  -0.14  -0.27    -0.05  -0.04  -0.07
     5   9     0.16  -0.13   0.08    -0.10  -0.14   0.27     0.05   0.04  -0.07
     6   9    -0.03   0.43  -0.00    -0.03   0.19   0.00     0.00  -0.00   0.00
     7   9     0.16  -0.08   0.00    -0.03  -0.02   0.00     0.00   0.00  -0.03
     8   1    -0.43  -0.17  -0.01     0.53   0.06   0.01     0.57   0.31  -0.20
                     10                     11                     12
                     A'                     A'                     A"
 Frequencies --   1125.8894              1197.7751              1217.9829
 Red. masses --      6.8790                 8.6385                 1.9499
 Frc consts  --      5.1377                 7.3019                 1.7043
 IR Inten    --    104.6548               298.1280               108.1535
 Raman Activ --      4.1060                 2.2375                 2.8684
 Depolar (P) --      0.4250                 0.7295                 0.7500
 Depolar (U) --      0.5965                 0.8436                 0.8571
  Atom  AN      X      Y      Z        X      Y      Z        X      Y      Z
     1   6    -0.13   0.53   0.00    -0.08  -0.00  -0.00     0.00   0.00  -0.13
     2   1    -0.20   0.49  -0.03     0.37  -0.21   0.04    -0.23   0.62   0.14
     3   6    -0.10  -0.05  -0.00    -0.25   0.68   0.00     0.00  -0.00   0.23
     4   9     0.01   0.01   0.02    -0.00  -0.07  -0.04    -0.02  -0.02  -0.06
     5   9     0.01   0.01  -0.02    -0.00  -0.07   0.04     0.02   0.02  -0.06
     6   9     0.04  -0.03   0.00     0.13  -0.26  -0.00    -0.00   0.00  -0.02
     7   9     0.11  -0.35  -0.00     0.05  -0.01   0.00    -0.00  -0.00   0.05
     8   1    -0.20   0.49   0.03     0.37  -0.21  -0.04     0.23  -0.62   0.14
                     13                     14                     15
                     A'                     A"                     A'
 Frequencies --   1318.8254              1333.0313              1467.3017
 Red. masses --      3.7129                 1.6731                 1.7302
 Frc consts  --      3.8049                 1.7516                 2.1947
 IR Inten    --    155.0177               141.2699                13.4912
 Raman Activ --      2.5046                 5.0073                 0.3674
 Depolar (P) --      0.4630                 0.7500                 0.6247
 Depolar (U) --      0.6329                 0.8571                 0.7690
  Atom  AN      X      Y      Z        X      Y      Z        X      Y      Z
     1   6    -0.08  -0.03  -0.00     0.00   0.00  -0.02     0.19  -0.08   0.00
     2   1    -0.56   0.27  -0.01     0.58  -0.37   0.00    -0.53   0.43   0.01
     3   6     0.41   0.19   0.00    -0.00  -0.00   0.23    -0.14   0.03   0.00
     4   9    -0.06  -0.05  -0.06    -0.01  -0.02  -0.04     0.02   0.00   0.01
     5   9    -0.06  -0.05   0.06     0.01   0.02  -0.04     0.02   0.00  -0.01
     6   9    -0.04   0.01  -0.00     0.00   0.00  -0.01     0.01  -0.02  -0.00
     7   9     0.01  -0.04  -0.00    -0.00   0.00  -0.03    -0.02  -0.01  -0.00
     8   1    -0.56   0.27   0.01    -0.58   0.37   0.00    -0.53   0.43  -0.01
                     16                     17                     18
                     A'                     A'                     A"
 Frequencies --   1521.3290              3117.5637              3186.4415
 Red. masses --      1.0935                 1.0567                 1.1121
 Frc consts  --      1.4912                 6.0510                 6.6530
 IR Inten    --      6.7291                12.5043                 7.5674
 Raman Activ --      6.1603                96.8835                48.4417
 Depolar (P) --      0.7488                 0.0802                 0.7500
 Depolar (U) --      0.8563                 0.1485                 0.8571
  Atom  AN      X      Y      Z        X      Y      Z        X      Y      Z
     1   6    -0.06  -0.07   0.00     0.04   0.05   0.00     0.00   0.00  -0.10
     2   1     0.31   0.46   0.43    -0.22  -0.32   0.59    -0.23  -0.33   0.58
     3   6     0.01  -0.01  -0.00    -0.00   0.00   0.00    -0.00  -0.00  -0.00
     4   9    -0.00   0.00  -0.00    -0.00  -0.00  -0.00     0.00   0.00   0.00
     5   9    -0.00   0.00   0.00    -0.00  -0.00   0.00    -0.00  -0.00   0.00
     6   9    -0.00   0.00   0.00     0.00  -0.00  -0.00     0.00   0.00   0.00
     7   9    -0.00  -0.01  -0.00    -0.00   0.00  -0.00     0.00  -0.00   0.00
     8   1     0.31   0.46  -0.43    -0.22  -0.32  -0.59     0.23   0.33   0.58

 -------------------
 - Thermochemistry -
 -------------------
 Temperature   298.150 Kelvin.  Pressure   1.00000 Atm.
 Atom     1 has atomic number  6 and mass  12.00000
 Atom     2 has atomic number  1 and mass   1.00783
 Atom     3 has atomic number  6 and mass  12.00000
 Atom     4 has atomic number  9 and mass  18.99840
 Atom     5 has atomic number  9 and mass  18.99840
 Atom     6 has atomic number  9 and mass  18.99840
 Atom     7 has atomic number  9 and mass  18.99840
 Atom     8 has atomic number  1 and mass   1.00783
 Molecular mass:   102.00926 amu.
 Principal axes and moments of inertia in atomic units:
                           1         2         3
     Eigenvalues --   339.54545 650.47599 660.15875
           X            0.87289   0.48792   0.00000
           Y           -0.48792   0.87289   0.00000
           Z            0.00000  -0.00000   1.00000
 This molecule is an asymmetric top.
 Rotational symmetry number  1.
 Rotational temperatures (Kelvin)      0.25509     0.13315     0.13120
 Rotational constants (GHZ):           5.31517     2.77449     2.73380
 Zero-point vibrational energy     120588.1 (Joules/Mol)
                                   28.82124 (Kcal/Mol)
 Warning -- explicit consideration of   6 degrees of freedom as
           vibrations may cause significant error
 Vibrational temperatures:    157.91   316.02   508.47   588.74   762.12
          (Kelvin)            784.45   954.12  1224.66  1429.22  1619.90
                             1723.33  1752.41  1897.50  1917.93  2111.12
                             2188.85  4485.48  4584.58
 
 Zero-point correction=                           0.045930 (Hartree/Particle)
 Thermal correction to Energy=                    0.051379
 Thermal correction to Enthalpy=                  0.052323
 Thermal correction to Gibbs Free Energy=         0.016430
 Sum of electronic and zero-point Energies=           -476.631295
 Sum of electronic and thermal Energies=              -476.625846
 Sum of electronic and thermal Enthalpies=            -476.624901
 Sum of electronic and thermal Free Energies=         -476.660794
 
                     E (Thermal)             CV                S
                      KCal/Mol        Cal/Mol-Kelvin    Cal/Mol-Kelvin
 Total                   32.241             18.007             75.543
 Electronic               0.000              0.000              0.000
 Translational            0.889              2.981             39.777
 Rotational               0.889              2.981             26.480
 Vibrational             30.463             12.045              9.286
 Vibration     1          0.606              1.941              3.273
 Vibration     2          0.647              1.811              1.962
 Vibration     3          0.730              1.568              1.151
 Vibration     4          0.774              1.450              0.929
 Vibration     5          0.885              1.184              0.588
 Vibration     6          0.900              1.150              0.554
                       Q            Log10(Q)             Ln(Q)
 Total Bot       0.277134D-07         -7.557310        -17.401350
 Total V=0       0.370518D+14         13.568809         31.243338
 Vib (Bot)       0.500659D-20        -20.300458        -46.743532
 Vib (Bot)    1  0.186616D+01          0.270949          0.623883
 Vib (Bot)    2  0.900679D+00         -0.045430         -0.104606
 Vib (Bot)    3  0.520901D+00         -0.283245         -0.652195
 Vib (Bot)    4  0.432629D+00         -0.363884         -0.837874
 Vib (Bot)    5  0.302009D+00         -0.519980         -1.197299
 Vib (Bot)    6  0.289150D+00         -0.538877         -1.240809
 Vib (V=0)       0.669363D+01          0.825662          1.901156
 Vib (V=0)    1  0.243198D+01          0.385960          0.888707
 Vib (V=0)    2  0.153016D+01          0.184736          0.425370
 Vib (V=0)    3  0.122204D+01          0.087085          0.200519
 Vib (V=0)    4  0.116119D+01          0.064902          0.149443
 Vib (V=0)    5  0.108413D+01          0.035082          0.080779
 Vib (V=0)    6  0.107759D+01          0.032453          0.074725
 Electronic      0.100000D+01          0.000000          0.000000
 Translational   0.404961D+08          7.607413         17.516716
 Rotational      0.136689D+06          5.135734         11.825465
 
                                                  r134a - 1,1,1,2-Tetrafluoroetha
 ne
                                                             IR Spectrum
 
     3  3                                                               1 1    11   11  1                                            
     1  1                                                               5 4    33   21  1    9     8      6   55    4 3     2   1    
     8  1                                                               2 6    31   19  2    9     5      6   43    0 5     2   1    
     6  8                                                               1 7    39   88  6    3     1      3   50    9 3     0   0    
 
     X  X                                                               X X    XX   XX  X    X     X      X   XX    X X     X   X    
                                                                               XX   XX  X    X            X                          
                                                                               XX   XX  X    X                                       
                                                                               XX   XX  X    X                                       
                                                                               XX   XX  X                                            
                                                                               XX   XX  X                                            
                                                                               XX   XX  X                                            
                                                                               XX    X                                               
                                                                               XX    X                                               
                                                                                X    X                                               
                                                                                     X                                               
                                                                                     X                                               
                                                                                     X                                               
                                                                                     X                                               
                                                                                     X                                               
                                                                                     X                                               
                                                                                     X                                               
                                                                                     X                                               
                                                                                     X                                               
                                                                                     X                                               
 
 
                                                  r134a - 1,1,1,2-Tetrafluoroetha
 ne
                                                            Raman Spectrum
 
     3  3                                                               1 1    11   11  1                                            
     1  1                                                               5 4    33   21  1    9     8      6   55    4 3     2   1    
     8  1                                                               2 6    31   19  2    9     5      6   43    0 5     2   1    
     6  8                                                               1 7    39   88  6    3     1      3   50    9 3     0   0    
 
     X  X                                                               X X    XX   XX  X    X     X      X   XX    X X     X        
     X  X                                                                                                                            
     X  X                                                                                                                            
     X  X                                                                                                                            
     X  X                                                                                                                            
     X  X                                                                                                                            
     X  X                                                                                                                            
     X  X                                                                                                                            
     X  X                                                                                                                            
     X  X                                                                                                                            
        X                                                                                                                            
        X                                                                                                                            
        X                                                                                                                            
        X                                                                                                                            
        X                                                                                                                            
        X                                                                                                                            
        X                                                                                                                            
        X                                                                                                                            
        X                                                                                                                            
        X                                                                                                                            
 
 ***** Axes restored to original set *****
 -------------------------------------------------------------------
 Center     Atomic                   Forces (Hartrees/Bohr)
 Number     Number              X              Y              Z
 -------------------------------------------------------------------
      1        6          -0.000002250   -0.000009396    0.000018401
      2        1           0.000002173    0.000001227   -0.000007005
      3        6           0.000001485   -0.000000981   -0.000000646
      4        9          -0.000007759   -0.000003195    0.000002655
      5        9          -0.000000516    0.000004568    0.000007504
      6        9           0.000002733   -0.000001147   -0.000002245
      7        9           0.000001036    0.000006705   -0.000012279
      8        1           0.000003099    0.000002219   -0.000006385
 -------------------------------------------------------------------
 Cartesian Forces:  Max     0.000018401 RMS     0.000006163
 Force constants in Cartesian coordinates: 
                1             2             3             4             5 
      1  0.571419D+00
      2  0.519580D-01  0.607794D+00
      3  0.566470D-01  0.140505D-01  0.557954D+00
      4 -0.827632D-01 -0.786735D-01 -0.622877D-02  0.824101D-01
      5 -0.757479D-01 -0.303609D+00 -0.887096D-02  0.862372D-01  0.323717D+00
      6 -0.647147D-02 -0.163647D-01 -0.510173D-01 -0.370995D-02  0.283723D-02
      7 -0.160487D+00  0.664148D-01  0.196647D-01  0.107833D-01 -0.114765D-01
      8  0.739315D-01 -0.127767D+00 -0.277480D-01  0.247413D-01 -0.199056D-01
      9  0.763196D-02 -0.165223D-01 -0.610774D-01  0.383924D-03 -0.100992D-02
     10 -0.325638D-01 -0.450778D-02 -0.401583D-01  0.505646D-03  0.315888D-03
     11  0.164689D-01  0.771425D-02  0.140013D-01 -0.150124D-02  0.215446D-02
     12 -0.818821D-02 -0.212577D-02 -0.790693D-02  0.211621D-03  0.670161D-04
     13  0.994730D-02  0.224275D-01  0.123518D-02 -0.341587D-02  0.322356D-02
     14 -0.172914D-01 -0.484460D-01  0.525295D-02  0.748159D-02 -0.322702D-02
     15 -0.732246D-03 -0.661010D-02  0.574220D-02  0.137628D-02 -0.681302D-03
     16 -0.485989D-02 -0.100459D-01  0.334941D-01  0.729218D-04  0.126323D-02
     17  0.473143D-02  0.887553D-02 -0.103893D-01 -0.115718D-02  0.204330D-02
     18  0.983844D-02  0.116796D-01 -0.265902D-01 -0.858094D-03 -0.444598D-03
     19 -0.959947D-01 -0.189045D-01  0.715711D-01 -0.403815D-02 -0.424701D-02
     20 -0.197367D-01 -0.790665D-01  0.466553D-01 -0.141414D-01 -0.466197D-03
     21  0.729033D-01  0.454125D-01 -0.249907D+00  0.981860D-02  0.839648D-02
     22 -0.204698D+00 -0.286687D-01 -0.136225D+00 -0.355470D-02  0.431519D-03
     23 -0.343139D-01 -0.654950D-01 -0.329518D-01 -0.229868D-01 -0.706031D-03
     24 -0.131629D+00 -0.295196D-01 -0.167197D+00 -0.993610D-03 -0.293950D-03
                6             7             8             9            10 
      6  0.609073D-01
      7 -0.592363D-02  0.602236D+00
      8 -0.350238D-02 -0.460032D-01  0.585007D+00
      9  0.189971D-02 -0.497388D-02  0.120137D-01  0.537791D+00
     10  0.420437D-03 -0.217884D+00  0.560081D-02 -0.945049D-01  0.255448D+00
     11  0.577046D-03 -0.177558D-02 -0.787646D-01 -0.572516D-02  0.294673D-01
     12  0.181131D-03 -0.105339D+00 -0.220704D-02 -0.149428D+00  0.167302D+00
     13  0.186230D-02 -0.853130D-01 -0.300870D-01 -0.884991D-03 -0.210718D-01
     14 -0.184725D-02 -0.174555D-01 -0.286147D+00 -0.110254D-01 -0.376993D-01
     15  0.146952D-03  0.153678D-02 -0.669549D-02 -0.746163D-01 -0.230542D-01
     16  0.473967D-04 -0.123087D+00 -0.311896D-02  0.786424D-01  0.186102D-01
     17 -0.212654D-03 -0.805868D-02 -0.798566D-01  0.217772D-01  0.231330D-02
     18 -0.356259D-03  0.865500D-01  0.144001D-01 -0.226079D+00 -0.163367D-01
     19  0.185990D-01 -0.998262D-02 -0.154678D-01  0.347039D-01  0.278768D-02
     20  0.385935D-01  0.203678D-02  0.327357D-02 -0.136046D-01 -0.121673D-02
     21 -0.148227D-01  0.668245D-02  0.125372D-01 -0.333743D-01  0.322337D-02
     22 -0.482408D-02 -0.162669D-01 -0.959667D-02 -0.209985D-01 -0.583226D-02
     23 -0.200808D-01  0.163179D-01  0.416045D-02  0.140966D-01  0.572650D-02
     24  0.306118D-02  0.180258D-02  0.120191D-02  0.488389D-02  0.310804D-02
               11            12            13            14            15 
     11  0.812084D-01
     12  0.225377D-01  0.225530D+00
     13 -0.504158D-01 -0.216923D-01  0.971099D-01
     14 -0.233799D-01 -0.251023D-01  0.877828D-01  0.388153D+00
     15 -0.350770D-01 -0.169772D-02  0.332384D-02 -0.536339D-03  0.769230D-01
     16  0.358339D-02 -0.317553D-01 -0.517450D-03 -0.245439D-01  0.181248D-01
     17  0.120244D-01  0.633900D-02 -0.321837D-01 -0.331256D-01  0.504354D-01
     18  0.643628D-02 -0.741543D-01  0.169692D-01  0.370318D-01 -0.987667D-02
     19  0.364717D-03 -0.387321D-03  0.129411D-02  0.165137D-02 -0.203410D-02
     20  0.748156D-03 -0.599906D-03  0.220532D-03  0.538401D-02 -0.330706D-03
     21 -0.151288D-02  0.643485D-02 -0.822708D-03 -0.391635D-02  0.329257D-02
     22  0.380832D-02 -0.151615D-03  0.196680D-02  0.743685D-04  0.145881D-02
     23 -0.170513D-02  0.109126D-02 -0.967834D-03  0.788498D-03 -0.504443D-03
     24 -0.123720D-02  0.104144D-02  0.947906D-05  0.142825D-03  0.859386D-04
               16            17            18            19            20 
     16  0.116573D+00
     17  0.291504D-01  0.905460D-01
     18 -0.105236D+00 -0.646521D-01  0.338012D+00
     19 -0.788997D-02  0.474517D-02  0.728148D-02  0.981770D-01
     20  0.521808D-02 -0.136904D-03 -0.425665D-02  0.260969D-01  0.658294D-01
     21  0.652444D-02 -0.355039D-02 -0.198818D-02 -0.116473D+00 -0.672590D-01
     22  0.109746D-02  0.459222D-03  0.179146D-02  0.156466D-01  0.152255D-02
     23 -0.150640D-02 -0.370031D-03 -0.194437D-03  0.576113D-02  0.443442D-02
     24  0.157933D-03  0.252817D-03  0.103253D-02 -0.132613D-01  0.802117D-03
               21            22            23            24 
     21  0.329773D+00
     22  0.181433D-01  0.211641D+00
     23  0.989253D-02  0.319694D-01  0.588928D-01
     24 -0.394081D-01  0.140806D+00  0.286511D-01  0.196500D+00
 FormGI is forming the generalized inverse of G from B-inverse, IUseBI=4.
 Force constants in internal coordinates: 
                1             2             3             4             5 
      1  0.351323D+00
      2  0.257935D-02  0.293230D+00
      3  0.131564D-01  0.179041D-01  0.394059D+00
      4  0.201602D-02  0.257935D-02  0.131564D-01  0.351323D+00
      5  0.600206D-03  0.182928D-01  0.543695D-02  0.173486D-03  0.412549D+00
      6  0.173486D-03  0.182928D-01  0.543695D-02  0.600206D-03  0.550240D-01
      7  0.142058D-02  0.182804D-01  0.484789D-02  0.142058D-02  0.539549D-01
      8  0.696168D-02  0.130932D-01 -0.245609D-01 -0.830829D-02 -0.150032D-02
      9 -0.773918D-03 -0.121521D-01  0.139150D-01  0.119358D-02  0.767190D-03
     10  0.354525D-02 -0.149926D-01  0.220535D-02  0.354525D-02 -0.349969D-02
     11 -0.268220D-02  0.134957D-01  0.192766D-01 -0.268220D-02 -0.734375D-02
     12 -0.830829D-02  0.130932D-01 -0.245609D-01  0.696168D-02  0.120879D-01
     13  0.119358D-02 -0.121521D-01  0.139150D-01 -0.773918D-03 -0.607449D-03
     14 -0.261041D-02  0.166556D-01 -0.422900D-02  0.477705D-02  0.150692D-01
     15  0.477705D-02  0.166556D-01 -0.422900D-02 -0.261041D-02 -0.297674D-01
     16 -0.115626D-02  0.114741D-01  0.173799D-01 -0.115626D-02 -0.274374D-01
     17 -0.517667D-03 -0.176028D-01 -0.109092D-02 -0.517667D-03  0.196511D-01
     18 -0.548848D-04 -0.148042D-01 -0.403271D-02 -0.520653D-03  0.203484D-01
     19 -0.520653D-03 -0.148042D-01 -0.403271D-02 -0.548847D-04  0.388567D-02
     20 -0.170389D-02  0.562325D-03  0.173882D-01 -0.269701D-02 -0.939100D-03
     21 -0.810038D-03  0.177986D-02  0.985740D-02 -0.180316D-02  0.139580D-01
     22  0.732032D-03  0.117109D-02  0.136228D-01 -0.423908D-02 -0.175495D-01
     23 -0.336613D-02 -0.608769D-03  0.376538D-02  0.247227D-02  0.341987D-02
     24 -0.247227D-02  0.608769D-03 -0.376538D-02  0.336613D-02  0.183169D-01
     25 -0.930204D-03  0.000000D+00  0.000000D+00  0.930204D-03 -0.131905D-01
     26  0.180316D-02 -0.177986D-02 -0.985740D-02  0.810038D-03  0.124146D-02
     27  0.269701D-02 -0.562325D-03 -0.173882D-01  0.170389D-02  0.161385D-01
     28  0.423908D-02 -0.117109D-02 -0.136228D-01 -0.732032D-03 -0.153689D-01
                6             7             8             9            10 
      6  0.412549D+00
      7  0.539549D-01  0.396459D+00
      8  0.120879D-01 -0.296772D-02  0.114802D+00
      9 -0.607449D-03 -0.624790D-02 -0.467753D-01  0.733205D-01
     10 -0.349969D-02  0.351576D-03 -0.431055D-01  0.141397D-01  0.532726D-01
     11 -0.734375D-02  0.184122D-01 -0.172884D-01 -0.682112D-01  0.432122D-02
     12 -0.150032D-02 -0.296772D-02 -0.147694D-01  0.725245D-02 -0.431055D-01
     13  0.767189D-03 -0.624790D-02  0.725245D-02  0.187888D-01  0.141397D-01
     14 -0.297674D-01 -0.268269D-01 -0.101047D-01  0.602327D-02 -0.423118D-02
     15  0.150692D-01 -0.268269D-01  0.240969D-01 -0.457510D-02 -0.423118D-02
     16 -0.274374D-01  0.210400D-01 -0.900389D-02 -0.782088D-02  0.411215D-02
     17  0.196511D-01  0.444674D-02 -0.475041D-02  0.342374D-03  0.284964D-02
     18  0.388567D-02  0.155031D-01  0.332948D-02  0.228884D-02  0.904376D-03
     19  0.203484D-01  0.155031D-01 -0.395569D-02  0.403738D-02  0.904376D-03
     20 -0.161385D-01  0.180985D-01 -0.609864D-02  0.889005D-02 -0.503642D-02
     21 -0.124146D-02 -0.149103D-01 -0.215386D-02  0.103815D-01 -0.745253D-02
     22  0.153689D-01  0.159411D-02  0.189498D-02  0.745364D-02 -0.624447D-02
     23 -0.183169D-01  0.165044D-01 -0.817068D-02 -0.114123D-01  0.120806D-02
     24 -0.341987D-02 -0.165044D-01 -0.422589D-02 -0.992078D-02 -0.120806D-02
     25  0.131905D-01  0.000000D+00 -0.177054D-03 -0.128487D-01  0.000000D+00
     26 -0.139580D-01  0.149103D-01  0.224763D-02  0.206314D-02  0.745253D-02
     27  0.939100D-03 -0.180985D-01  0.619242D-02  0.355461D-02  0.503642D-02
     28  0.175495D-01 -0.159411D-02  0.102413D-01  0.626725D-03  0.624447D-02
               11            12            13            14            15 
     11  0.169815D+00
     12 -0.172884D-01  0.114802D+00
     13 -0.682112D-01 -0.467753D-01  0.733205D-01
     14 -0.113691D-01  0.240969D-01 -0.457510D-02  0.180731D+00
     15 -0.113691D-01 -0.101047D-01  0.602327D-02 -0.597752D-02  0.180731D+00
     16  0.300427D-01 -0.900389D-02 -0.782088D-02  0.914817D-03  0.914817D-03
     17  0.604275D-02 -0.475041D-02  0.342374D-03 -0.928884D-01 -0.928884D-01
     18 -0.673830D-02 -0.395569D-02  0.403738D-02 -0.844807D-01 -0.778736D-02
     19 -0.673830D-02  0.332948D-02  0.228884D-02 -0.778736D-02 -0.844807D-01
     20  0.121933D-01 -0.619242D-02 -0.355461D-02 -0.216620D-02 -0.687956D-02
     21  0.360484D-02 -0.224763D-02 -0.206314D-02  0.351696D-02 -0.119639D-02
     22  0.789906D-02 -0.102413D-01 -0.626725D-03 -0.924954D-02  0.588694D-02
     23  0.429422D-02  0.422589D-02  0.992078D-02  0.339450D-02 -0.907767D-02
     24 -0.429422D-02  0.817068D-02  0.114123D-01  0.907767D-02 -0.339450D-02
     25  0.000000D+00  0.177053D-03  0.128487D-01 -0.368884D-02  0.368884D-02
     26 -0.360484D-02  0.215386D-02 -0.103815D-01  0.119639D-02 -0.351696D-02
     27 -0.121933D-01  0.609864D-02 -0.889005D-02  0.687956D-02  0.216620D-02
     28 -0.789906D-02 -0.189498D-02 -0.745364D-02 -0.588695D-02  0.924954D-02
               16            17            18            19            20 
     16  0.181732D+00
     17 -0.925774D-02  0.129341D+00
     18 -0.919423D-01  0.374271D-01  0.119578D+00
     19 -0.919423D-01  0.374271D-01  0.376963D-01  0.119578D+00
     20  0.832805D-02 -0.156896D-01  0.177988D-01 -0.432954D-03  0.272780D-01
     21 -0.237285D-02  0.180014D-01 -0.289388D-03 -0.185212D-01  0.362386D-03
     22  0.297760D-02  0.115587D-02 -0.184757D-01  0.177534D-01  0.103667D-02
     23  0.535045D-02 -0.168455D-01  0.170237D-01  0.106456D-02  0.128504D-01
     24 -0.535045D-02  0.168455D-01 -0.106456D-02 -0.170237D-01 -0.140653D-01
     25  0.000000D+00  0.000000D+00 -0.192509D-01  0.192509D-01 -0.133910D-01
     26  0.237285D-02 -0.180014D-01  0.185212D-01  0.289387D-03  0.136391D-01
     27 -0.832805D-02  0.156896D-01  0.432954D-03 -0.177988D-01 -0.132766D-01
     28 -0.297760D-02 -0.115587D-02 -0.177534D-01  0.184757D-01 -0.126023D-01
               21            22            23            24            25 
     21  0.254191D-01
     22  0.107183D-03  0.277543D-01
     23 -0.131358D-01 -0.139069D-01  0.291251D-01
     24  0.119209D-01 -0.148364D-01  0.313898D-02  0.291251D-01
     25 -0.133910D-01  0.128107D-01  0.236788D-02  0.236788D-02  0.285696D-01
     26 -0.114176D-01 -0.116728D-01  0.119209D-01 -0.131358D-01 -0.133910D-01
     27  0.136391D-01 -0.126023D-01 -0.140653D-01  0.128504D-01 -0.133910D-01
     28 -0.116728D-01  0.150448D-01 -0.148364D-01 -0.139069D-01  0.128107D-01
               26            27            28 
     26  0.254191D-01
     27  0.362386D-03  0.272780D-01
     28  0.107183D-03  0.103667D-02  0.277543D-01
 Leave Link  716 at Thu Apr  2 15:15:13 2026, MaxMem=  1073741824 cpu:               0.1 elap:               0.0
 (Enter /Users/yarger/Applications/g16/l103.exe)

 GradGradGradGradGradGradGradGradGradGradGradGradGradGradGradGradGradGrad
 Berny optimization.
 Red2BG is reusing G-inverse.
 Internal  Forces:  Max     0.000010846 RMS     0.000003383
 Search for a local minimum.
 Step number   1 out of a maximum of    2
 All quantities printed in internal units (Hartrees-Bohrs-Radians)
 Second derivative matrix not updated -- analytic derivatives used.
 ITU=  0
     Eigenvalues ---    0.00294   0.05183   0.07289   0.09409   0.10059
     Eigenvalues ---    0.14621   0.14996   0.20000   0.23312   0.25165
     Eigenvalues ---    0.27474   0.34838   0.35080   0.37326   0.37904
     Eigenvalues ---    0.38086   0.42162   0.53824
 Angle between quadratic step and forces=  46.41 degrees.
 Linear search not attempted -- first point.
 Iteration  1 RMS(Cart)=  0.00001959 RMS(Int)=  0.00000000
 Iteration  2 RMS(Cart)=  0.00000000 RMS(Int)=  0.00000000
 ITry= 1 IFail=0 DXMaxC= 4.18D-05 DCOld= 1.00D+10 DXMaxT= 3.00D-01 DXLimC= 3.00D+00 Rises=F
 ClnCor:  largest displacement from symmetrization is 7.55D-09 for atom     5.
 Variable       Old X    -DE/DX   Delta X   Delta X   Delta X     New X
                                 (Linear)    (Quad)   (Total)
    R1        2.06473   0.00000   0.00000   0.00001   0.00001   2.06474
    R2        2.87378  -0.00000   0.00000  -0.00001  -0.00001   2.87377
    R3        2.59766  -0.00001   0.00000  -0.00004  -0.00004   2.59762
    R4        2.06473   0.00000   0.00000   0.00001   0.00001   2.06474
    R5        2.53128  -0.00001   0.00000  -0.00001  -0.00001   2.53128
    R6        2.53128  -0.00001   0.00000  -0.00001  -0.00001   2.53128
    R7        2.54752   0.00000   0.00000   0.00001   0.00001   2.54753
    A1        1.90261  -0.00000   0.00000  -0.00002  -0.00002   1.90259
    A2        1.90591   0.00000   0.00000   0.00003   0.00003   1.90594
    A3        1.93346  -0.00000   0.00000  -0.00004  -0.00004   1.93342
    A4        1.91327   0.00000   0.00000   0.00003   0.00003   1.91330
    A5        1.90261  -0.00000   0.00000  -0.00002  -0.00002   1.90259
    A6        1.90591   0.00000   0.00000   0.00003   0.00003   1.90594
    A7        1.95582  -0.00000   0.00000  -0.00000  -0.00000   1.95581
    A8        1.95582  -0.00000   0.00000  -0.00000  -0.00000   1.95581
    A9        1.89843  -0.00000   0.00000  -0.00000  -0.00000   1.89843
   A10        1.88291  -0.00000   0.00000  -0.00002  -0.00002   1.88290
   A11        1.88414   0.00000   0.00000   0.00001   0.00001   1.88416
   A12        1.88414   0.00000   0.00000   0.00001   0.00001   1.88416
    D1        1.02550   0.00000   0.00000   0.00005   0.00005   1.02556
    D2       -3.13801  -0.00000   0.00000   0.00003   0.00003  -3.13798
    D3       -1.05625   0.00000   0.00000   0.00004   0.00004  -1.05621
    D4       -1.05984   0.00000   0.00000   0.00001   0.00001  -1.05982
    D5        1.05984  -0.00000   0.00000  -0.00001  -0.00001   1.05982
    D6        3.14159  -0.00000   0.00000   0.00000   0.00000   3.14159
    D7        3.13801   0.00000   0.00000  -0.00003  -0.00003   3.13798
    D8       -1.02550  -0.00000   0.00000  -0.00005  -0.00005  -1.02556
    D9        1.05625  -0.00000   0.00000  -0.00004  -0.00004   1.05621
         Item               Value     Threshold  Converged?
 Maximum Force            0.000011     0.000015     YES
 RMS     Force            0.000003     0.000010     YES
 Maximum Displacement     0.000042     0.000060     YES
 RMS     Displacement     0.000020     0.000040     YES
 Predicted change in Energy=-8.705896D-10
 Optimization completed.
    -- Stationary point found.
                           ----------------------------
                           !   Optimized Parameters   !
                           ! (Angstroms and Degrees)  !
 --------------------------                            --------------------------
 ! Name  Definition              Value          Derivative Info.                !
 --------------------------------------------------------------------------------
 ! R1    R(1,2)                  1.0926         -DE/DX =    0.0                 !
 ! R2    R(1,3)                  1.5207         -DE/DX =    0.0                 !
 ! R3    R(1,7)                  1.3746         -DE/DX =    0.0                 !
 ! R4    R(1,8)                  1.0926         -DE/DX =    0.0                 !
 ! R5    R(3,4)                  1.3395         -DE/DX =    0.0                 !
 ! R6    R(3,5)                  1.3395         -DE/DX =    0.0                 !
 ! R7    R(3,6)                  1.3481         -DE/DX =    0.0                 !
 ! A1    A(2,1,3)              109.0114         -DE/DX =    0.0                 !
 ! A2    A(2,1,7)              109.2006         -DE/DX =    0.0                 !
 ! A3    A(2,1,8)              110.7794         -DE/DX =    0.0                 !
 ! A4    A(3,1,7)              109.6223         -DE/DX =    0.0                 !
 ! A5    A(3,1,8)              109.0114         -DE/DX =    0.0                 !
 ! A6    A(7,1,8)              109.2006         -DE/DX =    0.0                 !
 ! A7    A(1,3,4)              112.0601         -DE/DX =    0.0                 !
 ! A8    A(1,3,5)              112.0601         -DE/DX =    0.0                 !
 ! A9    A(1,3,6)              108.772          -DE/DX =    0.0                 !
 ! A10   A(4,3,5)              107.8829         -DE/DX =    0.0                 !
 ! A11   A(4,3,6)              107.9534         -DE/DX =    0.0                 !
 ! A12   A(5,3,6)              107.9534         -DE/DX =    0.0                 !
 ! D1    D(2,1,3,4)             58.757          -DE/DX =    0.0                 !
 ! D2    D(2,1,3,5)           -179.7947         -DE/DX =    0.0                 !
 ! D3    D(2,1,3,6)            -60.5188         -DE/DX =    0.0                 !
 ! D4    D(7,1,3,4)            -60.7241         -DE/DX =    0.0                 !
 ! D5    D(7,1,3,5)             60.7241         -DE/DX =    0.0                 !
 ! D6    D(7,1,3,6)            180.0            -DE/DX =    0.0                 !
 ! D7    D(8,1,3,4)            179.7947         -DE/DX =    0.0                 !
 ! D8    D(8,1,3,5)            -58.757          -DE/DX =    0.0                 !
 ! D9    D(8,1,3,6)             60.5188         -DE/DX =    0.0                 !
 --------------------------------------------------------------------------------
 GradGradGradGradGradGradGradGradGradGradGradGradGradGradGradGradGradGrad

 Leave Link  103 at Thu Apr  2 15:15:13 2026, MaxMem=  1073741824 cpu:               0.0 elap:               0.0
 (Enter /Users/yarger/Applications/g16/l9999.exe)

 ----------------------------------------------------------------------

 Electric dipole moment (input orientation):
 (Debye = 10**-18 statcoulomb cm , SI units = C m)
                  (au)            (Debye)         (10**-30 SI)
   Tot        0.862788D+00      0.219299D+01      0.731502D+01
   x         -0.371434D+00     -0.944091D+00     -0.314915D+01
   y          0.631326D+00      0.160467D+01      0.535261D+01
   z         -0.455925D+00     -0.115885D+01     -0.386549D+01

 Dipole polarizability, Alpha (input orientation).
 (esu units = cm**3 , SI units = C**2 m**2 J**-1)
 Alpha(0;0):
               (au)            (10**-24 esu)      (10**-40 SI)
   iso        0.276678D+02      0.409995D+01      0.456181D+01
   aniso      0.139601D+01      0.206867D+00      0.230171D+00
   xx         0.274434D+02      0.406670D+01      0.452481D+01
   yx        -0.427442D-02     -0.633403D-03     -0.704756D-03
   yy         0.272620D+02      0.403981D+01      0.449489D+01
   zx        -0.520808D+00     -0.771758D-01     -0.858697D-01
   zy        -0.268719D+00     -0.398200D-01     -0.443058D-01
   zz         0.282981D+02      0.419334D+01      0.466572D+01

 First dipole hyperpolarizability, Beta (input orientation).
 ||, _|_  parallel and perpendicular components, (z) with respect to z axis,
 vector components x,y,z.  Values do not include the 1/n! factor of 1/2.
 (esu units = statvolt**-1 cm**4 , SI units = C**3 m**3 J**-2)
 Beta(0;0,0):
               (au)            (10**-30 esu)      (10**-50 SI)
   || (z)    -0.255470D+02     -0.220706D+00     -0.819130D-01
   _|_(z)    -0.851567D+01     -0.735688D-01     -0.273043D-01
   x         -0.468884D+02     -0.405079D+00     -0.150341D+00
   y          0.123537D+03      0.106726D+01      0.396104D+00
   z         -0.127735D+03     -0.110353D+01     -0.409565D+00
   ||         0.367566D+02      0.317548D+00      0.117855D+00
   xxx       -0.109377D+02     -0.944934D-01     -0.350703D-01
   xxy        0.262947D+01      0.227166D-01      0.843104D-02
   yxy        0.750768D+01      0.648605D-01      0.240723D-01
   yyy        0.379197D+02      0.327597D+00      0.121584D+00
   xxz       -0.165013D+02     -0.142558D+00     -0.529090D-01
   yxz       -0.453334D+00     -0.391646D-02     -0.145355D-02
   yyz       -0.581115D+01     -0.502038D-01     -0.186327D-01
   zxz       -0.121994D+02     -0.105393D+00     -0.391158D-01
   zyz        0.629829D+00      0.544123D-02      0.201946D-02
   zzz       -0.202660D+02     -0.175082D+00     -0.649800D-01

 ----------------------------------------------------------------------

 Dipole orientation:
     6         -3.12576727         -3.15973507          1.72155820
     1         -2.15016706         -4.55804648          2.88604935
     6         -1.27475607         -2.08114544         -0.19390815
     9         -0.29282617         -3.87736795         -1.68280095
     9         -2.35333717         -0.34124186         -1.68280095
     9          0.64234154         -0.96404707          1.05776541
     9         -5.09674970         -4.30823228          0.47896622
     1         -3.86128544         -1.62152715          2.88604935

 Electric dipole moment (dipole orientation):
 (Debye = 10**-18 statcoulomb cm , SI units = C m)
                  (au)            (Debye)         (10**-30 SI)
   Tot        0.862788D+00      0.219299D+01      0.731502D+01
   x          0.000000D+00      0.000000D+00      0.000000D+00
   y          0.000000D+00      0.000000D+00      0.000000D+00
   z          0.862788D+00      0.219299D+01      0.731502D+01

 Dipole polarizability, Alpha (dipole orientation).
 (esu units = cm**3 , SI units = C**2 m**2 J**-1)
 Alpha(0;0):
               (au)            (10**-24 esu)      (10**-40 SI)
   iso        0.276678D+02      0.409995D+01      0.456181D+01
   aniso      0.139601D+01      0.206867D+00      0.230171D+00
   xx         0.280343D+02      0.415426D+01      0.462223D+01
   yx         0.550179D+00      0.815281D-01      0.907122D-01
   yy         0.274107D+02      0.406185D+01      0.451942D+01
   zx         0.423922D+00      0.628187D-01      0.698953D-01
   zy         0.247020D+00      0.366047D-01      0.407282D-01
   zz         0.275585D+02      0.408375D+01      0.454378D+01

 First dipole hyperpolarizability, Beta (dipole orientation).
 ||, _|_  parallel and perpendicular components, (z) with respect to z axis,
 vector components x,y,z.  Values do not include the 1/n! factor of 1/2.
 (esu units = statvolt**-1 cm**4 , SI units = C**3 m**3 J**-2)
 Beta(0;0,0):
               (au)            (10**-30 esu)      (10**-50 SI)
   || (z)     0.356161D+02      0.307695D+00      0.114198D+00
   _|_(z)     0.118720D+02      0.102565D+00      0.380660D-01
   x          0.392488D+02      0.339079D+00      0.125846D+00
   y          0.228704D+02      0.197582D+00      0.733308D-01
   z          0.178080D+03      0.153848D+01      0.570990D+00
   ||         0.367566D+02      0.317548D+00      0.117855D+00
   xxx        0.772244D+01      0.667158D-01      0.247609D-01
   xxy       -0.454390D-01     -0.392558D-03     -0.145694D-03
   yxy        0.254944D+01      0.220252D-01      0.817444D-02
   yyy        0.603089D+01      0.521022D-01      0.193372D-01
   xxz        0.851469D+01      0.735603D-01      0.273012D-01
   yxz       -0.120160D+02     -0.103809D+00     -0.385276D-01
   yyz        0.221341D+02      0.191221D+00      0.709698D-01
   zxz        0.281106D+01      0.242853D-01      0.901326D-02
   zyz        0.163801D+01      0.141511D-01      0.525205D-02
   zzz        0.287114D+02      0.248044D+00      0.920591D-01

 ----------------------------------------------------------------------
 1\1\GINC-MACBOOKPRO\Freq\RwB97XD\6-31+G(d)\C2H2F4\ROOT\02-Apr-2026\0\\
 #P Geom=AllCheck Guess=TCheck SCRF=Check GenChk RwB97XD/6-31+G(d) Freq
 \\r134a - 1,1,1,2-Tetrafluoroethane\\0,1\C,-1.5010942982,1.4120218804,
 1.4541762874\H,-1.1602105722,2.4500725759,1.4477355003\C,-0.321621913,
 0.501385844,1.1504773165\F,0.6700783527,0.6495025953,2.0386483102\F,-0
 .6737453658,-0.7909488485,1.1388231563\F,0.1628657948,0.8110779589,-0.
 0688290368\F,-2.0092834299,1.1107643304,2.6953768435\H,-2.2761674722,1
 .2538727279,0.7004901024\\Version=EM64M-G16RevA.03\State=1-A'\HF=-476.
 6772246\RMSD=2.758e-09\RMSF=6.163e-06\ZeroPoint=0.0459296\Thermal=0.05
 1379\Dipole=-0.3714339,0.6313261,-0.4559251\DipoleDeriv=0.3849053,0.09
 15465,-0.23039,0.098275,0.2955481,-0.0935923,-0.2411611,-0.0835437,0.8
 226597,0.0373874,-0.0410995,0.0368596,-0.0378381,-0.0455827,0.0225327,
 0.0246379,-0.0278047,0.0305911,1.5409981,0.1320322,0.0871888,0.1525919
 ,1.633161,-0.0554057,0.0542765,-0.0247012,1.6993897,-0.7338376,-0.0382
 143,-0.3641514,0.0126953,-0.3348249,-0.0317521,-0.2903009,-0.0606855,-
 0.5868127,-0.3798095,-0.0765646,0.0105003,-0.1656315,-0.9738536,-0.003
 6718,-0.0022675,-0.0317235,-0.3018121,-0.4418749,-0.0516858,0.2815774,
 -0.004939,-0.357865,0.0860276,0.2067446,0.1558406,-0.8669623,-0.392273
 6,-0.0128357,0.2328486,-0.03064,-0.2866913,0.1043076,0.2613499,0.07771
 82,-0.7648361,-0.0154953,-0.0031788,-0.0544333,-0.0245137,0.0701084,-0
 .0284461,-0.0132794,-0.0051001,-0.0322173\Polar=27.4434476,-0.0042744,
 27.2619842,-0.5208081,-0.2687189,28.2980902\PolarDeriv=0.4362091,1.006
 4893,-2.8847282,1.5789988,-0.0846675,2.6404501,1.3515746,-2.1851598,-4
 .2805421,-0.2338802,0.4355949,0.960037,2.0434816,-0.1145259,1.0558698,
 3.5602282,0.4720333,-0.2340975,1.2002552,1.5890113,1.6423921,-0.560360
 1,-0.1508776,0.1550893,0.9403736,1.0141065,8.0172775,0.0117575,-0.1612
 3,0.8591664,-0.2512624,-0.1874084,-0.1121749,0.0813688,1.6265571,-0.04
 38631,-0.2992919,-0.9856199,1.6325731,-0.8484576,0.3175123,-2.2233112,
 -0.739207,1.2264538,2.4430419,-0.1266805,-0.0919107,-0.3073961,-1.5703
 461,0.616663,-0.2960885,-1.7314881,-0.7194355,0.9601928,4.6671732,0.31
 14612,0.5808272,2.0662544,-0.029363,1.4451056,0.139806,1.4524574,0.231
 7947,0.2478687,1.1542815,0.143073,1.8185148,0.1274925,0.5122964,2.3252
 157,0.1115002,3.5390322,-0.8388887,-1.9570241,-0.9726882,-0.0883779,-0
 .0115987,-0.1004399,-0.7453652,-0.8630157,-6.9486808,-0.0098654,-0.150
 3563,-1.0151549,0.0559063,-0.0656677,0.1034354,-0.381609,-1.7249411,-0
 .0514936,2.0159361,0.4743073,0.3595555,-2.111698,-0.1139248,1.3396296,
 0.1290695,0.8189392,0.7697372,-0.2131463,-1.7230042,0.6105402,-1.11401
 44,-0.3722907,-0.6548742,1.7964521,0.7010346,-6.1955574,-2.3324403,-0.
 2986609,0.1745125,2.5179079,-0.0140737,-1.4346999,-0.4238626,-0.676875
 9,-0.4106394,0.3513717,1.6697135,-0.6070037,1.3480479,-0.119975,0.0934
 119,-2.9372526,-0.25165,6.2314499,-4.8489529,-0.1399642,-0.5324441,-2.
 5542675,0.086993,-1.8218235,-0.6523888,-0.7869053,0.1780107,-0.0274254
 ,-1.1330886,-0.6432617,-2.330328,0.1157124,-0.7018758,-2.7129153,-0.21
 50985,-4.2056634\HyperPolar=-10.9377193,2.6294728,7.5076776,37.9196858
 ,-16.5012611,-0.4533343,-5.8111522,-12.19942,0.6298287,-20.2659589\Qua
 drupole=0.0206823,1.5614041,-1.5820864,-0.6730666,1.9959808,-0.4766565
 \PG=CS [SG(C2F2),X(H2F2)]\NImag=0\\0.57141907,0.05195800,0.60779428,0.
 05664697,0.01405050,0.55795360,-0.08276324,-0.07867346,-0.00622877,0.0
 8241007,-0.07574794,-0.30360940,-0.00887096,0.08623721,0.32371650,-0.0
 0647147,-0.01636468,-0.05101733,-0.00370995,0.00283723,0.06090731,-0.1
 6048673,0.06641482,0.01966475,0.01078331,-0.01147647,-0.00592363,0.602
 23645,0.07393150,-0.12776720,-0.02774796,0.02474132,-0.01990561,-0.003
 50238,-0.04600324,0.58500738,0.00763196,-0.01652235,-0.06107740,0.0003
 8392,-0.00100992,0.00189971,-0.00497388,0.01201367,0.53779132,-0.03256
 382,-0.00450778,-0.04015833,0.00050565,0.00031589,0.00042044,-0.217883
 93,0.00560081,-0.09450487,0.25544831,0.01646893,0.00771425,0.01400125,
 -0.00150124,0.00215446,0.00057705,-0.00177558,-0.07876459,-0.00572516,
 0.02946729,0.08120837,-0.00818821,-0.00212577,-0.00790693,0.00021162,0
 .00006702,0.00018113,-0.10533902,-0.00220704,-0.14942815,0.16730221,0.
 02253769,0.22552965,0.00994730,0.02242748,0.00123518,-0.00341587,0.003
 22356,0.00186230,-0.08531296,-0.03008700,-0.00088499,-0.02107179,-0.05
 041582,-0.02169234,0.09710986,-0.01729139,-0.04844600,0.00525295,0.007
 48159,-0.00322702,-0.00184725,-0.01745554,-0.28614741,-0.01102543,-0.0
 3769928,-0.02337987,-0.02510226,0.08778275,0.38815342,-0.00073225,-0.0
 0661010,0.00574220,0.00137628,-0.00068130,0.00014695,0.00153678,-0.006
 69549,-0.07461630,-0.02305419,-0.03507703,-0.00169772,0.00332384,-0.00
 053634,0.07692304,-0.00485989,-0.01004587,0.03349414,0.00007292,0.0012
 6323,0.00004740,-0.12308660,-0.00311896,0.07864241,0.01861016,0.003583
 39,-0.03175532,-0.00051745,-0.02454387,0.01812484,0.11657337,0.0047314
 3,0.00887553,-0.01038926,-0.00115718,0.00204330,-0.00021265,-0.0080586
 8,-0.07985659,0.02177721,0.00231330,0.01202435,0.00633900,-0.03218368,
 -0.03312563,0.05043540,0.02915041,0.09054597,0.00983844,0.01167958,-0.
 02659023,-0.00085809,-0.00044460,-0.00035626,0.08654997,0.01440010,-0.
 22607879,-0.01633667,0.00643628,-0.07415427,0.01696925,0.03703185,-0.0
 0987667,-0.10523583,-0.06465212,0.33801188,-0.09599466,-0.01890447,0.0
 7157106,-0.00403815,-0.00424701,0.01859900,-0.00998262,-0.01546776,0.0
 3470393,0.00278768,0.00036472,-0.00038732,0.00129411,0.00165137,-0.002
 03410,-0.00788997,0.00474517,0.00728148,0.09817695,-0.01973666,-0.0790
 6648,0.04665528,-0.01414141,-0.00046620,0.03859347,0.00203678,0.003273
 57,-0.01360457,-0.00121673,0.00074816,-0.00059991,0.00022053,0.0053840
 1,-0.00033071,0.00521808,-0.00013690,-0.00425665,0.02609686,0.06582943
 ,0.07290325,0.04541245,-0.24990699,0.00981860,0.00839648,-0.01482269,0
 .00668245,0.01253719,-0.03337427,0.00322337,-0.00151288,0.00643485,-0.
 00082271,-0.00391635,0.00329257,0.00652444,-0.00355039,-0.00198818,-0.
 11647273,-0.06725904,0.32977281,-0.20469805,-0.02866873,-0.13622499,-0
 .00355470,0.00043152,-0.00482408,-0.01626693,-0.00959667,-0.02099849,-
 0.00583226,0.00380832,-0.00015161,0.00196680,0.00007437,0.00145881,0.0
 0109746,0.00045922,0.00179146,0.01564664,0.00152255,0.01814333,0.21164
 102,-0.03431388,-0.06549499,-0.03295180,-0.02298683,-0.00070603,-0.020
 08079,0.01631790,0.00416045,0.01409655,0.00572650,-0.00170513,0.001091
 26,-0.00096783,0.00078850,-0.00050444,-0.00150640,-0.00037003,-0.00019
 444,0.00576113,0.00443442,0.00989253,0.03196942,0.05889281,-0.13162869
 ,-0.02951964,-0.16719692,-0.00099361,-0.00029395,0.00306118,0.00180258
 ,0.00120191,0.00488389,0.00310804,-0.00123720,0.00104144,0.00000948,0.
 00014282,0.00008594,0.00015793,0.00025282,0.00103253,-0.01326132,0.000
 80212,-0.03940810,0.14080558,0.02865112,0.19650004\\0.00000225,0.00000
 940,-0.00001840,-0.00000217,-0.00000123,0.00000700,-0.00000148,0.00000
 098,0.00000065,0.00000776,0.00000319,-0.00000265,0.00000052,-0.0000045
 7,-0.00000750,-0.00000273,0.00000115,0.00000225,-0.00000104,-0.0000067
 0,0.00001228,-0.00000310,-0.00000222,0.00000638\\\@


 THERE'S A SUCKER BORN EVERY MINUTE

              -- PHINEAS TAYLOR (P.T.) BARNUM
 Job cpu time:       0 days  0 hours  1 minutes 37.6 seconds.
 Elapsed time:       0 days  0 hours  0 minutes 24.7 seconds.
 File lengths (MBytes):  RWF=     17 Int=      0 D2E=      0 Chk=      2 Scr=      1
 Normal termination of Gaussian 16 at Thu Apr  2 15:15:13 2026.
