 Entering Gaussian System, Link 0=g16
 Input=/Users/yarger/Downloads/1112Tetrafluoroethane_Opt_Freq_DFT_WB97XD_pVTZ_Gaussian16.gjf
 Output=/Users/yarger/Downloads/1112Tetrafluoroethane_Opt_Freq_DFT_WB97XD_pVTZ_Gaussian16.log
 Initial command:
 /Users/yarger/Applications/g16/l1.exe "/Users/yarger/Applications/scratch/Gau-83518.inp" -scrdir="/Users/yarger/Applications/scratch/"
 Entering Link 1 = /Users/yarger/Applications/g16/l1.exe PID=     83519.
  
 Copyright (c) 1988,1990,1992,1993,1995,1998,2003,2009,2016,
            Gaussian, Inc.  All Rights Reserved.
  
 This is part of the Gaussian(R) 16 program.  It is based on
 the Gaussian(R) 09 system (copyright 2009, Gaussian, Inc.),
 the Gaussian(R) 03 system (copyright 2003, Gaussian, Inc.),
 the Gaussian(R) 98 system (copyright 1998, Gaussian, Inc.),
 the Gaussian(R) 94 system (copyright 1995, Gaussian, Inc.),
 the Gaussian 92(TM) system (copyright 1992, Gaussian, Inc.),
 the Gaussian 90(TM) system (copyright 1990, Gaussian, Inc.),
 the Gaussian 88(TM) system (copyright 1988, Gaussian, Inc.),
 the Gaussian 86(TM) system (copyright 1986, Carnegie Mellon
 University), and the Gaussian 82(TM) system (copyright 1983,
 Carnegie Mellon University). Gaussian is a federally registered
 trademark of Gaussian, Inc.
  
 This software contains proprietary and confidential information,
 including trade secrets, belonging to Gaussian, Inc.
  
 This software is provided under written license and may be
 used, copied, transmitted, or stored only in accord with that
 written license.
  
 The following legend is applicable only to US Government
 contracts under FAR:
  
                    RESTRICTED RIGHTS LEGEND
  
 Use, reproduction and disclosure by the US Government is
 subject to restrictions as set forth in subparagraphs (a)
 and (c) of the Commercial Computer Software - Restricted
 Rights clause in FAR 52.227-19.
  
 Gaussian, Inc.
 340 Quinnipiac St., Bldg. 40, Wallingford CT 06492
  
  
 ---------------------------------------------------------------
 Warning -- This program may not be used in any manner that
 competes with the business of Gaussian, Inc. or will provide
 assistance to any competitor of Gaussian, Inc.  The licensee
 of this program is prohibited from giving any competitor of
 Gaussian, Inc. access to this program.  By using this program,
 the user acknowledges that Gaussian, Inc. is engaged in the
 business of creating and licensing software in the field of
 computational chemistry and represents and warrants to the
 licensee that it is not a competitor of Gaussian, Inc. and that
 it will not use this program in any manner prohibited above.
 ---------------------------------------------------------------
  

 Cite this work as:
 Gaussian 16, Revision A.03,
 M. J. Frisch, G. W. Trucks, H. B. Schlegel, G. E. Scuseria, 
 M. A. Robb, J. R. Cheeseman, G. Scalmani, V. Barone, 
 G. A. Petersson, H. Nakatsuji, X. Li, M. Caricato, A. V. Marenich, 
 J. Bloino, B. G. Janesko, R. Gomperts, B. Mennucci, H. P. Hratchian, 
 J. V. Ortiz, A. F. Izmaylov, J. L. Sonnenberg, D. Williams-Young, 
 F. Ding, F. Lipparini, F. Egidi, J. Goings, B. Peng, A. Petrone, 
 T. Henderson, D. Ranasinghe, V. G. Zakrzewski, J. Gao, N. Rega, 
 G. Zheng, W. Liang, M. Hada, M. Ehara, K. Toyota, R. Fukuda, 
 J. Hasegawa, M. Ishida, T. Nakajima, Y. Honda, O. Kitao, H. Nakai, 
 T. Vreven, K. Throssell, J. A. Montgomery, Jr., J. E. Peralta, 
 F. Ogliaro, M. J. Bearpark, J. J. Heyd, E. N. Brothers, K. N. Kudin, 
 V. N. Staroverov, T. A. Keith, R. Kobayashi, J. Normand, 
 K. Raghavachari, A. P. Rendell, J. C. Burant, S. S. Iyengar, 
 J. Tomasi, M. Cossi, J. M. Millam, M. Klene, C. Adamo, R. Cammi, 
 J. W. Ochterski, R. L. Martin, K. Morokuma, O. Farkas, 
 J. B. Foresman, and D. J. Fox, Gaussian, Inc., Wallingford CT, 2016.
 
 ******************************************
 Gaussian 16:  EM64M-G16RevA.03 25-Dec-2016
                 2-Apr-2026 
 ******************************************
 %nprocshared=4
 Will use up to    4 processors via shared memory.
 %mem=8GB
 %chk=1112Tetrafluoroethane_Opt_Freq_DFT_WB97XD_pVTZ_Gaussian16.chk
 ----------------------------------------------------------------------
 #p opt=tight freq=raman wb97xd/aug-cc-pvtz guess=save geom=connectivit
 y polar
 ----------------------------------------------------------------------
 1/7=10,18=20,19=15,26=3,38=1,57=2/1,3;
 2/9=110,12=2,17=6,18=5,40=1/2;
 3/5=16,6=1,7=10,11=2,25=1,30=1,71=1,74=-58/1,2,3;
 4//1;
 5/5=2,38=5,98=1/2;
 6/7=2,8=2,9=2,10=2,28=1/1;
 7//1,2,3,16;
 1/7=10,18=20,19=15,26=3/3(2);
 2/9=110/2;
 99//99;
 2/9=110/2;
 3/5=16,6=1,7=10,11=2,25=1,30=1,71=1,74=-58/1,2,3;
 4/5=5,16=3,69=1/1;
 5/5=2,38=5,98=1/2;
 7//1,2,3,16;
 1/7=10,18=20,19=15,26=3/3(-5);
 2/9=110/2;
 6/7=2,8=2,9=2,10=2,19=2,28=1/1;
 99/9=1/99;
 Leave Link    1 at Thu Apr  2 15:21:05 2026, MaxMem=  1073741824 cpu:               0.1 elap:               0.0
 (Enter /Users/yarger/Applications/g16/l101.exe)
 ---------------------------------
 r134a - 1,1,1,2-Tetrafluoroethane
 ---------------------------------
 Symbolic Z-matrix:
 Charge =  0 Multiplicity = 1
 C                    -1.50144   1.41061   1.45695 
 H                    -1.18245   2.43192   1.44839 
 C                    -0.30505   0.49643   1.13366 
 F                     0.66039   0.67411   2.06041 
 F                    -0.70751  -0.79214   1.14446 
 F                     0.18076   0.80592  -0.08728 
 F                    -1.98724   1.10112   2.6779 
 H                    -2.26664   1.26978   0.72242 
 
 ITRead=  0  0  0  0  0  0  0  0
 MicOpt= -1 -1 -1 -1 -1 -1 -1 -1
 NAtoms=      8 NQM=        8 NQMF=       0 NMMI=      0 NMMIF=      0
                NMic=       0 NMicF=      0.
                    Isotopes and Nuclear Properties:
 (Nuclear quadrupole moments (NQMom) in fm**2, nuclear magnetic moments (NMagM)
  in nuclear magnetons)

  Atom         1           2           3           4           5           6           7           8
 IAtWgt=          12           1          12          19          19          19          19           1
 AtmWgt=  12.0000000   1.0078250  12.0000000  18.9984033  18.9984033  18.9984033  18.9984033   1.0078250
 NucSpn=           0           1           0           1           1           1           1           1
 AtZEff=  -0.0000000  -0.0000000  -0.0000000  -0.0000000  -0.0000000  -0.0000000  -0.0000000  -0.0000000
 NQMom=    0.0000000   0.0000000   0.0000000   0.0000000   0.0000000   0.0000000   0.0000000   0.0000000
 NMagM=    0.0000000   2.7928460   0.0000000   2.6288670   2.6288670   2.6288670   2.6288670   2.7928460
 AtZNuc=   6.0000000   1.0000000   6.0000000   9.0000000   9.0000000   9.0000000   9.0000000   1.0000000
 Leave Link  101 at Thu Apr  2 15:21:06 2026, MaxMem=  1073741824 cpu:               0.7 elap:               0.2
 (Enter /Users/yarger/Applications/g16/l103.exe)

 GradGradGradGradGradGradGradGradGradGradGradGradGradGradGradGradGradGrad
 Berny optimization.
 Initialization pass.
                           ----------------------------
                           !    Initial Parameters    !
                           ! (Angstroms and Degrees)  !
 --------------------------                            --------------------------
 ! Name  Definition              Value          Derivative Info.                !
 --------------------------------------------------------------------------------
 ! R1    R(1,2)                  1.07           estimate D2E/DX2                !
 ! R2    R(1,3)                  1.54           estimate D2E/DX2                !
 ! R3    R(1,7)                  1.35           estimate D2E/DX2                !
 ! R4    R(1,8)                  1.07           estimate D2E/DX2                !
 ! R5    R(3,4)                  1.35           estimate D2E/DX2                !
 ! R6    R(3,5)                  1.35           estimate D2E/DX2                !
 ! R7    R(3,6)                  1.35           estimate D2E/DX2                !
 ! A1    A(2,1,3)              109.4712         estimate D2E/DX2                !
 ! A2    A(2,1,7)              109.4712         estimate D2E/DX2                !
 ! A3    A(2,1,8)              109.4712         estimate D2E/DX2                !
 ! A4    A(3,1,7)              109.4712         estimate D2E/DX2                !
 ! A5    A(3,1,8)              109.4712         estimate D2E/DX2                !
 ! A6    A(7,1,8)              109.4712         estimate D2E/DX2                !
 ! A7    A(1,3,4)              109.4712         estimate D2E/DX2                !
 ! A8    A(1,3,5)              109.4712         estimate D2E/DX2                !
 ! A9    A(1,3,6)              109.4712         estimate D2E/DX2                !
 ! A10   A(4,3,5)              109.4712         estimate D2E/DX2                !
 ! A11   A(4,3,6)              109.4712         estimate D2E/DX2                !
 ! A12   A(5,3,6)              109.4712         estimate D2E/DX2                !
 ! D1    D(2,1,3,4)             60.0            estimate D2E/DX2                !
 ! D2    D(2,1,3,5)            180.0            estimate D2E/DX2                !
 ! D3    D(2,1,3,6)            -60.0            estimate D2E/DX2                !
 ! D4    D(7,1,3,4)            -60.0            estimate D2E/DX2                !
 ! D5    D(7,1,3,5)             60.0            estimate D2E/DX2                !
 ! D6    D(7,1,3,6)            180.0            estimate D2E/DX2                !
 ! D7    D(8,1,3,4)           -180.0            estimate D2E/DX2                !
 ! D8    D(8,1,3,5)            -60.0            estimate D2E/DX2                !
 ! D9    D(8,1,3,6)             60.0            estimate D2E/DX2                !
 --------------------------------------------------------------------------------
 Trust Radius=3.00D-01 FncErr=1.00D-07 GrdErr=1.00D-06 EigMax=2.50D+02 EigMin=1.00D-04
 Number of steps in this run=     38 maximum allowed number of steps=    100.
 GradGradGradGradGradGradGradGradGradGradGradGradGradGradGradGradGradGrad

 Leave Link  103 at Thu Apr  2 15:21:06 2026, MaxMem=  1073741824 cpu:               0.0 elap:               0.0
 (Enter /Users/yarger/Applications/g16/l202.exe)
                          Input orientation:                          
 ---------------------------------------------------------------------
 Center     Atomic      Atomic             Coordinates (Angstroms)
 Number     Number       Type             X           Y           Z
 ---------------------------------------------------------------------
      1          6           0       -1.501439    1.410611    1.456949
      2          1           0       -1.182454    2.431922    1.448389
      3          6           0       -0.305047    0.496427    1.133662
      4          9           0        0.660391    0.674113    2.060407
      5          9           0       -0.707506   -0.792142    1.144463
      6          9           0        0.180758    0.805915   -0.087285
      7          9           0       -1.987244    1.101123    2.677896
      8          1           0       -2.266638    1.269779    0.722418
 ---------------------------------------------------------------------
                    Distance matrix (angstroms):
                    1          2          3          4          5
     1  C    0.000000
     2  H    1.070000   0.000000
     3  C    1.540000   2.148263   0.000000
     4  F    2.362224   2.619262   1.350000   0.000000
     5  F    2.362224   3.273001   1.350000   2.204541   0.000000
     6  F    2.362224   2.619262   1.350000   2.204541   2.204541
     7  F    1.350000   1.982524   2.362224   2.752017   2.752017
     8  H    1.070000   1.747303   2.148263   3.273001   2.619262
                    6          7          8
     6  F    0.000000
     7  F    3.526131   0.000000
     8  H    2.619262   1.982524   0.000000
 Stoichiometry    C2H2F4
 Framework group  CS[SG(C2F2),X(H2F2)]
 Deg. of freedom    11
 Full point group                 CS      NOp   2
 Largest Abelian subgroup         CS      NOp   2
 Largest concise Abelian subgroup CS      NOp   2
                         Standard orientation:                         
 ---------------------------------------------------------------------
 Center     Atomic      Atomic             Coordinates (Angstroms)
 Number     Number       Type             X           Y           Z
 ---------------------------------------------------------------------
      1          6           0        0.803253   -0.868125   -0.000000
      2          1           0        1.420351   -0.896813   -0.873651
      3          6           0       -0.026516    0.429212    0.000000
      4          9           0       -0.805098    0.465407   -1.102270
      5          9           0       -0.805098    0.465407    1.102270
      6          9           0        0.803253    1.494099   -0.000000
      7          9           0       -0.026516   -1.933012   -0.000000
      8          1           0        1.420351   -0.896813    0.873651
 ---------------------------------------------------------------------
 Rotational constants (GHZ):           5.2497613           2.7740143           2.7610135
 Leave Link  202 at Thu Apr  2 15:21:06 2026, MaxMem=  1073741824 cpu:               0.0 elap:               0.0
 (Enter /Users/yarger/Applications/g16/l301.exe)
 Standard basis: Aug-CC-pVTZ (5D, 7F)
 Ernie: Thresh=  0.10000D-02 Tol=  0.10000D-05 Strict=F.
 Ernie:  18 primitive shells out of 202 were deleted.
 There are   228 symmetry adapted cartesian basis functions of A'  symmetry.
 There are   152 symmetry adapted cartesian basis functions of A"  symmetry.
 There are   189 symmetry adapted basis functions of A'  symmetry.
 There are   133 symmetry adapted basis functions of A"  symmetry.
   322 basis functions,   486 primitive gaussians,   380 cartesian basis functions
    25 alpha electrons       25 beta electrons
       nuclear repulsion energy       271.2438406540 Hartrees.
 IExCor= 4639 DFT=T Ex+Corr=wB97XD ExCW=0 ScaHFX=  1.000000
 ScaDFX=  1.000000  1.000000  1.000000  1.000000 ScalE2=  1.000000  1.000000
 IRadAn=      5 IRanWt=     -1 IRanGd=            0 ICorTp=0 IEmpDi=121
 HFx  wShort=  0.000000 wLong=  0.200000 cFull=  0.222036 cShort=  0.000000 cLong=  0.777964
 DFx  wShort=  0.000000 wLong=  0.200000 cFull=  0.000000 cShort=  0.000000 cLong=  1.000000
 NAtoms=    8 NActive=    8 NUniq=    6 SFac= 1.78D+00 NAtFMM=   60 NAOKFM=F Big=F
 Integral buffers will be    131072 words long.
 Raffenetti 2 integral format.
 Two-electron integral symmetry is turned on.
 R6Disp:  Grimme-D2 Dispersion energy=       -0.0021561211 Hartrees.
 Nuclear repulsion after empirical dispersion term =      271.2416845329 Hartrees.
 Leave Link  301 at Thu Apr  2 15:21:06 2026, MaxMem=  1073741824 cpu:               0.1 elap:               0.0
 (Enter /Users/yarger/Applications/g16/l302.exe)
 NPDir=0 NMtPBC=     1 NCelOv=     1 NCel=       1 NClECP=     1 NCelD=      1
         NCelK=      1 NCelE2=     1 NClLst=     1 CellRange=     0.0.
 One-electron integrals computed using PRISM.
 One-electron integral symmetry used in STVInt
 NBasis=   322 RedAO= T EigKep=  2.52D-05  NBF=   189   133
 NBsUse=   322 1.00D-06 EigRej= -1.00D+00 NBFU=   189   133
 Precomputing XC quadrature grid using
 IXCGrd= 4 IRadAn=           5 IRanWt=          -1 IRanGd=           0 AccXCQ= 0.00D+00.
 Generated NRdTot=       0 NPtTot=           0 NUsed=           0 NTot=          32
 NSgBfM=   380   380   380   380   380 MxSgAt=     8 MxSgA2=     8.
 Leave Link  302 at Thu Apr  2 15:21:06 2026, MaxMem=  1073741824 cpu:               0.7 elap:               0.2
 (Enter /Users/yarger/Applications/g16/l303.exe)
 DipDrv:  MaxL=1.
 Leave Link  303 at Thu Apr  2 15:21:06 2026, MaxMem=  1073741824 cpu:               0.1 elap:               0.0
 (Enter /Users/yarger/Applications/g16/l401.exe)
 ExpMin= 2.53D-02 ExpMax= 1.95D+04 ExpMxC= 6.65D+02 IAcc=3 IRadAn=         5 AccDes= 0.00D+00
 Harris functional with IExCor= 4639 and IRadAn=       5 diagonalized for initial guess.
 HarFok:  IExCor= 4639 AccDes= 0.00D+00 IRadAn=         5 IDoV= 1 UseB2=F ITyADJ=14
 ICtDFT=  3500011 ScaDFX=  1.000000  1.000000  1.000000  1.000000
 FoFCou: FMM=F IPFlag=           0 FMFlag=      100000 FMFlg1=           0
         NFxFlg=           0 DoJE=T BraDBF=F KetDBF=T FulRan=T
         wScrn=  0.000000 ICntrl=       500 IOpCl=  0 I1Cent=   200000004 NGrid=           0
         NMat0=    1 NMatS0=      1 NMatT0=    0 NMatD0=    1 NMtDS0=    0 NMtDT0=    0
 Petite list used in FoFCou.
 Harris En= -461.319810993868    
 JPrj=0 DoOrth=F DoCkMO=F.
 Initial guess orbital symmetries:
       Occupied  (A') (A') (A") (A') (A') (A') (A') (A') (A") (A')
                 (A') (A') (A") (A') (A') (A") (A') (A') (A") (A')
                 (A') (A") (A") (A") (A')
       Virtual   (A') (A") (A') (A') (A") (A') (A') (A') (A") (A')
                 (A") (A') (A') (A') (A") (A') (A") (A') (A") (A')
                 (A") (A') (A') (A') (A") (A") (A') (A') (A") (A')
                 (A') (A") (A') (A') (A") (A') (A') (A") (A') (A')
                 (A") (A') (A") (A') (A") (A') (A') (A") (A') (A')
                 (A') (A') (A") (A") (A') (A") (A') (A') (A") (A')
                 (A") (A') (A") (A') (A") (A') (A") (A') (A') (A")
                 (A') (A") (A') (A') (A") (A') (A") (A') (A") (A")
                 (A') (A") (A') (A") (A') (A') (A") (A') (A') (A")
                 (A') (A") (A') (A') (A") (A') (A') (A") (A') (A")
                 (A') (A') (A") (A') (A') (A") (A") (A') (A') (A")
                 (A') (A") (A") (A') (A') (A") (A") (A') (A") (A')
                 (A") (A') (A') (A") (A') (A') (A") (A') (A") (A')
                 (A') (A") (A') (A') (A') (A") (A") (A') (A") (A')
                 (A') (A") (A') (A') (A") (A') (A") (A') (A') (A')
                 (A") (A') (A") (A") (A') (A") (A') (A") (A') (A")
                 (A') (A") (A') (A") (A') (A') (A") (A') (A') (A")
                 (A') (A") (A') (A") (A') (A') (A") (A') (A") (A")
                 (A') (A') (A') (A") (A") (A") (A') (A") (A') (A")
                 (A') (A") (A") (A') (A') (A") (A') (A') (A') (A")
                 (A') (A') (A") (A') (A') (A") (A') (A") (A') (A')
                 (A') (A') (A") (A") (A") (A') (A') (A") (A') (A')
                 (A") (A") (A') (A") (A') (A') (A") (A') (A") (A')
                 (A") (A') (A") (A') (A") (A") (A') (A') (A") (A')
                 (A') (A") (A') (A') (A") (A") (A') (A") (A') (A")
                 (A') (A') (A") (A') (A") (A') (A') (A") (A") (A')
                 (A") (A') (A") (A') (A') (A") (A") (A') (A") (A")
                 (A') (A') (A') (A') (A") (A') (A') (A") (A") (A')
                 (A") (A') (A") (A') (A") (A') (A") (A') (A') (A')
                 (A") (A') (A') (A") (A') (A') (A')
 The electronic state of the initial guess is 1-A'.
 Leave Link  401 at Thu Apr  2 15:21:07 2026, MaxMem=  1073741824 cpu:               2.9 elap:               0.8
 (Enter /Users/yarger/Applications/g16/l502.exe)
 Integral symmetry usage will be decided dynamically.
 Closed shell SCF:
 Using DIIS extrapolation, IDIIS=  1040.
 NGot=  1073741824 LenX=  1073446812 LenY=  1073301971
 Requested convergence on RMS density matrix=1.00D-08 within 128 cycles.
 Requested convergence on MAX density matrix=1.00D-06.
 Requested convergence on             energy=1.00D-06.
 No special actions if energy rises.
 Fock matrices will be formed incrementally for  20 cycles.

 Cycle   1  Pass 1  IDiag  1:
 FoFJK:  IHMeth= 1 ICntrl=       0 DoSepK=T KAlg= 0 I1Cent=           0 FoldK=F
 IRaf=         1 NMat=       1 IRICut=       1 DoRegI=T DoRafI=F ISym2E= 1 IDoP0=0 IntGTp=1.
 FoFCou: FMM=F IPFlag=           0 FMFlag=      100000 FMFlg1=           0
         NFxFlg=           0 DoJE=T BraDBF=F KetDBF=F FulRan=T
         wScrn=  0.000000 ICntrl=       500 IOpCl=  0 I1Cent=           0 NGrid=           0
         NMat0=    1 NMatS0=      1 NMatT0=    0 NMatD0=    1 NMtDS0=    0 NMtDT0=    0
 Petite list used in FoFCou.
 E= -476.474045339380    
 DIIS: error= 3.49D-02 at cycle   1 NSaved=   1.
 NSaved= 1 IEnMin= 1 EnMin= -476.474045339380     IErMin= 1 ErrMin= 3.49D-02
 ErrMax= 3.49D-02  0.00D+00 EMaxC= 1.00D-01 BMatC= 1.14D+00 BMatP= 1.14D+00
 IDIUse=3 WtCom= 6.51D-01 WtEn= 3.49D-01
 Coeff-Com:  0.100D+01
 Coeff-En:   0.100D+01
 Coeff:      0.100D+01
 Gap=     0.647 Goal=   None    Shift=    0.000
 GapD=    0.647 DampG=2.000 DampE=0.500 DampFc=1.0000 IDamp=-1.
 RMSDP=2.52D-03 MaxDP=1.20D-01              OVMax= 1.38D-01

 Cycle   2  Pass 1  IDiag  1:
 RMSU=  2.52D-03    CP:  1.01D+00
 E= -476.589504189752     Delta-E=       -0.115458850372 Rises=F Damp=F
 DIIS: error= 3.09D-02 at cycle   2 NSaved=   2.
 NSaved= 2 IEnMin= 2 EnMin= -476.589504189752     IErMin= 2 ErrMin= 3.09D-02
 ErrMax= 3.09D-02  0.00D+00 EMaxC= 1.00D-01 BMatC= 5.66D-01 BMatP= 1.14D+00
 IDIUse=3 WtCom= 6.91D-01 WtEn= 3.09D-01
 Coeff-Com:  0.401D+00 0.599D+00
 Coeff-En:   0.392D+00 0.608D+00
 Coeff:      0.399D+00 0.601D+00
 Gap=     0.643 Goal=   None    Shift=    0.000
 RMSDP=1.29D-03 MaxDP=5.24D-02 DE=-1.15D-01 OVMax= 9.08D-02

 Cycle   3  Pass 1  IDiag  1:
 RMSU=  1.21D-03    CP:  1.02D+00  8.21D-01
 E= -476.828108149899     Delta-E=       -0.238603960146 Rises=F Damp=F
 DIIS: error= 8.17D-03 at cycle   3 NSaved=   3.
 NSaved= 3 IEnMin= 3 EnMin= -476.828108149899     IErMin= 3 ErrMin= 8.17D-03
 ErrMax= 8.17D-03  0.00D+00 EMaxC= 1.00D-01 BMatC= 3.20D-02 BMatP= 5.66D-01
 IDIUse=3 WtCom= 9.18D-01 WtEn= 8.17D-02
 Coeff-Com:  0.553D-01 0.211D+00 0.734D+00
 Coeff-En:   0.000D+00 0.000D+00 0.100D+01
 Coeff:      0.508D-01 0.194D+00 0.755D+00
 Gap=     0.491 Goal=   None    Shift=    0.000
 RMSDP=3.64D-04 MaxDP=1.63D-02 DE=-2.39D-01 OVMax= 2.97D-02

 Cycle   4  Pass 1  IDiag  1:
 RMSU=  3.26D-04    CP:  1.02D+00  8.50D-01  8.81D-01
 E= -476.843214945339     Delta-E=       -0.015106795441 Rises=F Damp=F
 DIIS: error= 3.72D-03 at cycle   4 NSaved=   4.
 NSaved= 4 IEnMin= 4 EnMin= -476.843214945339     IErMin= 4 ErrMin= 3.72D-03
 ErrMax= 3.72D-03  0.00D+00 EMaxC= 1.00D-01 BMatC= 4.17D-03 BMatP= 3.20D-02
 IDIUse=3 WtCom= 9.63D-01 WtEn= 3.72D-02
 Coeff-Com:  0.429D-03 0.388D-01 0.336D+00 0.624D+00
 Coeff-En:   0.000D+00 0.000D+00 0.648D-01 0.935D+00
 Coeff:      0.413D-03 0.374D-01 0.326D+00 0.636D+00
 Gap=     0.487 Goal=   None    Shift=    0.000
 RMSDP=1.14D-04 MaxDP=5.07D-03 DE=-1.51D-02 OVMax= 8.80D-03

 Cycle   5  Pass 1  IDiag  1:
 RMSU=  9.32D-05    CP:  1.02D+00  8.56D-01  9.15D-01  8.52D-01
 E= -476.845843723227     Delta-E=       -0.002628777888 Rises=F Damp=F
 DIIS: error= 1.47D-04 at cycle   5 NSaved=   5.
 NSaved= 5 IEnMin= 5 EnMin= -476.845843723227     IErMin= 5 ErrMin= 1.47D-04
 ErrMax= 1.47D-04  0.00D+00 EMaxC= 1.00D-01 BMatC= 1.78D-05 BMatP= 4.17D-03
 IDIUse=3 WtCom= 9.99D-01 WtEn= 1.47D-03
 Coeff-Com: -0.105D-02-0.174D-02 0.163D-01 0.740D-01 0.913D+00
 Coeff-En:   0.000D+00 0.000D+00 0.000D+00 0.000D+00 0.100D+01
 Coeff:     -0.104D-02-0.174D-02 0.162D-01 0.739D-01 0.913D+00
 Gap=     0.486 Goal=   None    Shift=    0.000
 RMSDP=2.28D-05 MaxDP=8.26D-04 DE=-2.63D-03 OVMax= 1.20D-03

 Cycle   6  Pass 1  IDiag  1:
 RMSU=  1.24D-05    CP:  1.02D+00  8.57D-01  9.19D-01  8.94D-01  1.14D+00
 E= -476.845856725024     Delta-E=       -0.000013001797 Rises=F Damp=F
 DIIS: error= 8.30D-05 at cycle   6 NSaved=   6.
 NSaved= 6 IEnMin= 6 EnMin= -476.845856725024     IErMin= 6 ErrMin= 8.30D-05
 ErrMax= 8.30D-05  0.00D+00 EMaxC= 1.00D-01 BMatC= 5.72D-06 BMatP= 1.78D-05
 IDIUse=1 WtCom= 1.00D+00 WtEn= 0.00D+00
 Coeff-Com: -0.402D-03-0.409D-02-0.221D-01-0.225D-01 0.398D+00 0.651D+00
 Coeff:     -0.402D-03-0.409D-02-0.221D-01-0.225D-01 0.398D+00 0.651D+00
 Gap=     0.485 Goal=   None    Shift=    0.000
 RMSDP=6.80D-06 MaxDP=2.11D-04 DE=-1.30D-05 OVMax= 4.07D-04

 Cycle   7  Pass 1  IDiag  1:
 RMSU=  4.44D-06    CP:  1.02D+00  8.57D-01  9.19D-01  9.03D-01  1.18D+00
                    CP:  9.23D-01
 E= -476.845860236571     Delta-E=       -0.000003511548 Rises=F Damp=F
 DIIS: error= 2.36D-05 at cycle   7 NSaved=   7.
 NSaved= 7 IEnMin= 7 EnMin= -476.845860236571     IErMin= 7 ErrMin= 2.36D-05
 ErrMax= 2.36D-05  0.00D+00 EMaxC= 1.00D-01 BMatC= 3.74D-07 BMatP= 5.72D-06
 IDIUse=1 WtCom= 1.00D+00 WtEn= 0.00D+00
 Coeff-Com: -0.661D-04-0.144D-02-0.982D-02-0.149D-01 0.653D-01 0.251D+00
 Coeff-Com:  0.710D+00
 Coeff:     -0.661D-04-0.144D-02-0.982D-02-0.149D-01 0.653D-01 0.251D+00
 Coeff:      0.710D+00
 Gap=     0.485 Goal=   None    Shift=    0.000
 RMSDP=1.73D-06 MaxDP=6.88D-05 DE=-3.51D-06 OVMax= 1.32D-04

 Cycle   8  Pass 1  IDiag  1:
 RMSU=  1.27D-06    CP:  1.02D+00  8.57D-01  9.20D-01  9.04D-01  1.18D+00
                    CP:  9.91D-01  1.07D+00
 E= -476.845860472140     Delta-E=       -0.000000235569 Rises=F Damp=F
 DIIS: error= 6.90D-06 at cycle   8 NSaved=   8.
 NSaved= 8 IEnMin= 8 EnMin= -476.845860472140     IErMin= 8 ErrMin= 6.90D-06
 ErrMax= 6.90D-06  0.00D+00 EMaxC= 1.00D-01 BMatC= 2.06D-08 BMatP= 3.74D-07
 IDIUse=1 WtCom= 1.00D+00 WtEn= 0.00D+00
 Coeff-Com:  0.402D-06-0.194D-03-0.155D-02-0.325D-02-0.102D-01 0.355D-01
 Coeff-Com:  0.227D+00 0.752D+00
 Coeff:      0.402D-06-0.194D-03-0.155D-02-0.325D-02-0.102D-01 0.355D-01
 Coeff:      0.227D+00 0.752D+00
 Gap=     0.485 Goal=   None    Shift=    0.000
 RMSDP=6.66D-07 MaxDP=5.74D-05 DE=-2.36D-07 OVMax= 4.18D-05

 Cycle   9  Pass 1  IDiag  1:
 RMSU=  4.55D-07    CP:  1.02D+00  8.57D-01  9.20D-01  9.04D-01  1.18D+00
                    CP:  1.02D+00  1.12D+00  1.06D+00
 E= -476.845860491003     Delta-E=       -0.000000018863 Rises=F Damp=F
 DIIS: error= 1.23D-06 at cycle   9 NSaved=   9.
 NSaved= 9 IEnMin= 9 EnMin= -476.845860491003     IErMin= 9 ErrMin= 1.23D-06
 ErrMax= 1.23D-06  0.00D+00 EMaxC= 1.00D-01 BMatC= 9.46D-10 BMatP= 2.06D-08
 IDIUse=1 WtCom= 1.00D+00 WtEn= 0.00D+00
 Coeff-Com:  0.178D-05 0.547D-04 0.446D-03 0.524D-03-0.521D-02-0.128D-01
 Coeff-Com: -0.260D-01 0.105D+00 0.938D+00
 Coeff:      0.178D-05 0.547D-04 0.446D-03 0.524D-03-0.521D-02-0.128D-01
 Coeff:     -0.260D-01 0.105D+00 0.938D+00
 Gap=     0.485 Goal=   None    Shift=    0.000
 RMSDP=2.39D-07 MaxDP=2.34D-05 DE=-1.89D-08 OVMax= 1.30D-05

 Cycle  10  Pass 1  IDiag  1:
 RMSU=  9.12D-08    CP:  1.02D+00  8.57D-01  9.20D-01  9.04D-01  1.18D+00
                    CP:  1.03D+00  1.14D+00  1.15D+00  1.23D+00
 E= -476.845860492026     Delta-E=       -0.000000001024 Rises=F Damp=F
 DIIS: error= 4.63D-07 at cycle  10 NSaved=  10.
 NSaved=10 IEnMin=10 EnMin= -476.845860492026     IErMin=10 ErrMin= 4.63D-07
 ErrMax= 4.63D-07  0.00D+00 EMaxC= 1.00D-01 BMatC= 1.58D-10 BMatP= 9.46D-10
 IDIUse=1 WtCom= 1.00D+00 WtEn= 0.00D+00
 Coeff-Com:  0.469D-06 0.308D-04 0.256D-03 0.389D-03-0.127D-02-0.700D-02
 Coeff-Com: -0.237D-01-0.681D-02 0.352D+00 0.686D+00
 Coeff:      0.469D-06 0.308D-04 0.256D-03 0.389D-03-0.127D-02-0.700D-02
 Coeff:     -0.237D-01-0.681D-02 0.352D+00 0.686D+00
 Gap=     0.485 Goal=   None    Shift=    0.000
 RMSDP=4.71D-08 MaxDP=4.37D-06 DE=-1.02D-09 OVMax= 2.48D-06

 Cycle  11  Pass 1  IDiag  1:
 RMSU=  2.48D-08    CP:  1.02D+00  8.57D-01  9.20D-01  9.03D-01  1.18D+00
                    CP:  1.03D+00  1.14D+00  1.17D+00  1.29D+00  1.10D+00
 E= -476.845860492144     Delta-E=       -0.000000000117 Rises=F Damp=F
 DIIS: error= 1.40D-07 at cycle  11 NSaved=  11.
 NSaved=11 IEnMin=11 EnMin= -476.845860492144     IErMin=11 ErrMin= 1.40D-07
 ErrMax= 1.40D-07  0.00D+00 EMaxC= 1.00D-01 BMatC= 1.91D-11 BMatP= 1.58D-10
 IDIUse=1 WtCom= 1.00D+00 WtEn= 0.00D+00
 Coeff-Com:  0.114D-06 0.480D-05 0.336D-04 0.694D-04 0.217D-03-0.888D-03
 Coeff-Com: -0.498D-02-0.150D-01 0.923D-02 0.270D+00 0.741D+00
 Coeff:      0.114D-06 0.480D-05 0.336D-04 0.694D-04 0.217D-03-0.888D-03
 Coeff:     -0.498D-02-0.150D-01 0.923D-02 0.270D+00 0.741D+00
 Gap=     0.485 Goal=   None    Shift=    0.000
 RMSDP=1.61D-08 MaxDP=1.37D-06 DE=-1.17D-10 OVMax= 8.59D-07

 Cycle  12  Pass 1  IDiag  1:
 RMSU=  6.91D-09    CP:  1.02D+00  8.57D-01  9.20D-01  9.03D-01  1.18D+00
                    CP:  1.03D+00  1.14D+00  1.17D+00  1.31D+00  1.20D+00
                    CP:  1.02D+00
 E= -476.845860492153     Delta-E=       -0.000000000009 Rises=F Damp=F
 DIIS: error= 2.21D-08 at cycle  12 NSaved=  12.
 NSaved=12 IEnMin=12 EnMin= -476.845860492153     IErMin=12 ErrMin= 2.21D-08
 ErrMax= 2.21D-08  0.00D+00 EMaxC= 1.00D-01 BMatC= 3.45D-13 BMatP= 1.91D-11
 IDIUse=1 WtCom= 1.00D+00 WtEn= 0.00D+00
 Coeff-Com:  0.791D-07-0.471D-06-0.941D-05-0.125D-04 0.780D-04 0.278D-03
 Coeff-Com:  0.778D-03-0.163D-02-0.174D-01-0.116D-01 0.565D-01 0.973D+00
 Coeff:      0.791D-07-0.471D-06-0.941D-05-0.125D-04 0.780D-04 0.278D-03
 Coeff:      0.778D-03-0.163D-02-0.174D-01-0.116D-01 0.565D-01 0.973D+00
 Gap=     0.485 Goal=   None    Shift=    0.000
 RMSDP=4.54D-09 MaxDP=3.01D-07 DE=-9.32D-12 OVMax= 2.47D-07

 SCF Done:  E(RwB97XD) =  -476.845860492     A.U. after   12 cycles
            NFock= 12  Conv=0.45D-08     -V/T= 2.0050
 KE= 4.744705178404D+02 PE=-1.674765013946D+03 EE= 4.522069510808D+02
 Leave Link  502 at Thu Apr  2 15:22:46 2026, MaxMem=  1073741824 cpu:             396.5 elap:              99.3
 (Enter /Users/yarger/Applications/g16/l601.exe)
 Copying SCF densities to generalized density rwf, IOpCl= 0 IROHF=0.

 **********************************************************************

            Population analysis using the SCF density.

 **********************************************************************

 Orbital symmetries:
       Occupied  (A') (A") (A') (A') (A') (A') (A') (A') (A") (A')
                 (A') (A') (A') (A") (A') (A') (A") (A') (A") (A')
                 (A') (A") (A") (A") (A')
       Virtual   (A') (A") (A') (A') (A') (A") (A') (A') (A") (A')
                 (A") (A') (A') (A") (A') (A') (A") (A') (A") (A')
                 (A') (A') (A") (A') (A") (A') (A") (A') (A') (A')
                 (A") (A") (A') (A') (A") (A') (A') (A') (A") (A')
                 (A') (A") (A") (A") (A') (A') (A') (A") (A') (A')
                 (A') (A') (A") (A") (A') (A") (A') (A') (A") (A')
                 (A") (A') (A") (A') (A") (A') (A") (A') (A') (A")
                 (A") (A') (A') (A") (A') (A') (A") (A') (A") (A")
                 (A') (A") (A') (A") (A') (A') (A") (A') (A') (A")
                 (A') (A") (A') (A') (A") (A') (A') (A') (A") (A")
                 (A') (A') (A") (A') (A') (A") (A") (A') (A') (A")
                 (A') (A") (A') (A") (A') (A") (A") (A') (A") (A')
                 (A') (A") (A') (A") (A') (A') (A") (A') (A") (A')
                 (A') (A") (A') (A') (A") (A') (A") (A') (A") (A')
                 (A') (A") (A') (A") (A') (A") (A') (A') (A') (A')
                 (A") (A') (A") (A") (A') (A") (A') (A") (A') (A")
                 (A') (A") (A') (A') (A") (A') (A') (A") (A') (A")
                 (A') (A") (A') (A") (A') (A') (A") (A') (A") (A")
                 (A') (A') (A') (A") (A") (A") (A') (A") (A') (A")
                 (A') (A") (A') (A") (A') (A") (A') (A') (A') (A")
                 (A') (A') (A") (A') (A') (A") (A') (A") (A') (A')
                 (A') (A") (A') (A") (A") (A') (A') (A") (A') (A')
                 (A") (A") (A') (A") (A') (A") (A') (A') (A") (A')
                 (A") (A') (A") (A') (A") (A") (A') (A') (A") (A')
                 (A') (A") (A') (A') (A") (A") (A') (A") (A') (A")
                 (A') (A') (A") (A') (A") (A') (A") (A') (A") (A')
                 (A") (A') (A") (A') (A') (A") (A") (A') (A") (A')
                 (A") (A') (A') (A') (A") (A') (A') (A") (A") (A')
                 (A") (A') (A") (A') (A') (A") (A") (A') (A') (A')
                 (A") (A') (A') (A") (A') (A') (A')
 The electronic state is 1-A'.
 Alpha  occ. eigenvalues --  -24.86541 -24.85931 -24.85931 -24.83125 -10.55709
 Alpha  occ. eigenvalues --  -10.39682  -1.43113  -1.35123  -1.34547  -1.34182
 Alpha  occ. eigenvalues --   -0.89306  -0.78670  -0.70542  -0.70450  -0.68185
 Alpha  occ. eigenvalues --   -0.62174  -0.62067  -0.57415  -0.57355  -0.55016
 Alpha  occ. eigenvalues --   -0.53749  -0.53712  -0.52024  -0.46759  -0.45430
 Alpha virt. eigenvalues --    0.03087   0.04541   0.06510   0.07300   0.10114
 Alpha virt. eigenvalues --    0.10134   0.10654   0.12427   0.13100   0.14808
 Alpha virt. eigenvalues --    0.16400   0.16806   0.18175   0.21465   0.21987
 Alpha virt. eigenvalues --    0.22376   0.22983   0.24183   0.25000   0.25666
 Alpha virt. eigenvalues --    0.26425   0.27079   0.27978   0.28775   0.30242
 Alpha virt. eigenvalues --    0.30699   0.31702   0.32373   0.33095   0.34669
 Alpha virt. eigenvalues --    0.34890   0.35808   0.36840   0.36960   0.38874
 Alpha virt. eigenvalues --    0.40247   0.42283   0.43918   0.43943   0.44542
 Alpha virt. eigenvalues --    0.46836   0.47240   0.48595   0.49692   0.49942
 Alpha virt. eigenvalues --    0.51435   0.53861   0.55921   0.56494   0.62658
 Alpha virt. eigenvalues --    0.64640   0.67682   0.69721   0.73961   0.74094
 Alpha virt. eigenvalues --    0.74826   0.78507   0.80159   0.81883   0.82799
 Alpha virt. eigenvalues --    0.83424   0.84565   0.87401   0.87991   0.90597
 Alpha virt. eigenvalues --    0.90681   0.94884   0.95228   0.97468   0.98984
 Alpha virt. eigenvalues --    0.99710   1.00149   1.01709   1.02915   1.02990
 Alpha virt. eigenvalues --    1.05469   1.06052   1.07756   1.08463   1.11094
 Alpha virt. eigenvalues --    1.12277   1.13491   1.13605   1.14781   1.16149
 Alpha virt. eigenvalues --    1.17121   1.17565   1.18010   1.24158   1.24658
 Alpha virt. eigenvalues --    1.26940   1.28633   1.31049   1.31832   1.35225
 Alpha virt. eigenvalues --    1.36640   1.38439   1.45329   1.45655   1.47554
 Alpha virt. eigenvalues --    1.48742   1.49730   1.51158   1.52050   1.53723
 Alpha virt. eigenvalues --    1.56067   1.56565   1.57630   1.61710   1.63569
 Alpha virt. eigenvalues --    1.64531   1.66647   1.70373   1.70917   1.71556
 Alpha virt. eigenvalues --    1.76057   1.76813   1.79234   1.82708   1.83001
 Alpha virt. eigenvalues --    1.87123   1.88709   1.88738   1.97142   1.97887
 Alpha virt. eigenvalues --    2.03142   2.06334   2.06905   2.14845   2.30712
 Alpha virt. eigenvalues --    2.38620   2.47578   2.48861   2.57500   2.58725
 Alpha virt. eigenvalues --    2.58945   2.63427   2.64309   2.65386   2.66493
 Alpha virt. eigenvalues --    2.69555   2.70862   2.71740   2.75349   2.76058
 Alpha virt. eigenvalues --    2.79167   2.79364   2.81231   2.84728   2.85250
 Alpha virt. eigenvalues --    2.86285   2.89797   2.90340   2.91512   2.92794
 Alpha virt. eigenvalues --    2.93036   2.95713   2.99025   3.02288   3.04586
 Alpha virt. eigenvalues --    3.04617   3.10060   3.11202   3.15873   3.16376
 Alpha virt. eigenvalues --    3.19297   3.20441   3.21023   3.21528   3.23886
 Alpha virt. eigenvalues --    3.25607   3.28062   3.32034   3.38062   3.39229
 Alpha virt. eigenvalues --    3.42060   3.44719   3.47301   3.48053   3.48241
 Alpha virt. eigenvalues --    3.50271   3.52798   3.56616   3.58475   3.59414
 Alpha virt. eigenvalues --    3.61231   3.63470   3.65625   3.68779   3.77116
 Alpha virt. eigenvalues --    3.78906   3.85716   3.87340   3.87394   3.90392
 Alpha virt. eigenvalues --    3.92282   3.94477   4.00466   4.07351   4.08315
 Alpha virt. eigenvalues --    4.10901   4.14917   4.17266   4.20020   4.22997
 Alpha virt. eigenvalues --    4.25690   4.28487   4.30005   4.39589   4.44609
 Alpha virt. eigenvalues --    4.53575   4.55516   4.55519   4.57825   4.62096
 Alpha virt. eigenvalues --    4.65161   4.72449   4.74312   4.78016   4.86729
 Alpha virt. eigenvalues --    4.89480   4.96513   5.04755   5.14588   5.14652
 Alpha virt. eigenvalues --    5.23983   5.25045   5.28987   5.33683   5.38670
 Alpha virt. eigenvalues --    5.46117   5.47316   5.51145   5.55749   5.57756
 Alpha virt. eigenvalues --    5.79367   5.81619   5.85739   6.37898   6.45543
 Alpha virt. eigenvalues --    6.77437   6.84300   6.88951   8.43283   8.45467
 Alpha virt. eigenvalues --    8.46363   8.47988   8.49021   8.50270   8.53280
 Alpha virt. eigenvalues --    8.57857   8.63378   8.67094   8.76508   8.79284
 Alpha virt. eigenvalues --    8.80389   8.80436   8.82405   8.83880   8.85161
 Alpha virt. eigenvalues --    8.86533   8.87395   8.87468   8.88198   8.90201
 Alpha virt. eigenvalues --    8.90862   8.93860   8.94792   8.95781   8.97804
 Alpha virt. eigenvalues --    8.98661   9.01869   9.03331   9.04052   9.05854
 Alpha virt. eigenvalues --    9.06889   9.08581   9.11602   9.14758   9.16647
 Alpha virt. eigenvalues --    9.19363   9.21097   9.23128   9.31475   9.37220
 Alpha virt. eigenvalues --    9.37415   9.38025   9.38618   9.41333   9.61335
 Alpha virt. eigenvalues --    9.61708  14.70454  14.82842  14.87779  14.88804
 Alpha virt. eigenvalues --   17.04043  17.68209
          Condensed to atoms (all electrons):
               1          2          3          4          5          6
     1  C    5.284540   0.369077   0.142842   0.027377   0.027377   0.015430
     2  H    0.369077   0.457686  -0.050970  -0.000294   0.011287   0.007005
     3  C    0.142842  -0.050970   4.456158   0.113980   0.113980   0.099248
     4  F    0.027377  -0.000294   0.113980   9.269430  -0.031916  -0.028594
     5  F    0.027377   0.011287   0.113980  -0.031916   9.269430  -0.028594
     6  F    0.015430   0.007005   0.099248  -0.028594  -0.028594   9.284082
     7  F   -0.069717   0.021864   0.010493  -0.004714  -0.004714   0.006530
     8  H    0.369077  -0.065471  -0.050970   0.011287  -0.000294   0.007005
               7          8
     1  C   -0.069717   0.369077
     2  H    0.021864  -0.065471
     3  C    0.010493  -0.050970
     4  F   -0.004714   0.011287
     5  F   -0.004714  -0.000294
     6  F    0.006530   0.007005
     7  F    9.442037   0.021864
     8  H    0.021864   0.457686
 Mulliken charges:
               1
     1  C   -0.166002
     2  H    0.249816
     3  C    1.165237
     4  F   -0.356557
     5  F   -0.356557
     6  F   -0.362111
     7  F   -0.423642
     8  H    0.249816
 Sum of Mulliken charges =  -0.00000
 Mulliken charges with hydrogens summed into heavy atoms:
               1
     1  C    0.333630
     3  C    1.165237
     4  F   -0.356557
     5  F   -0.356557
     6  F   -0.362111
     7  F   -0.423642
 Electronic spatial extent (au):  <R**2>=            478.1080
 Charge=              0.0000 electrons
 Dipole moment (field-independent basis, Debye):
    X=              1.9666    Y=             -0.2990    Z=             -0.0000  Tot=              1.9892
 Quadrupole moment (field-independent basis, Debye-Ang):
   XX=            -30.4119   YY=            -34.9958   ZZ=            -31.8193
   XY=             -2.1071   XZ=             -0.0000   YZ=             -0.0000
 Traceless Quadrupole moment (field-independent basis, Debye-Ang):
   XX=              1.9971   YY=             -2.5868   ZZ=              0.5897
   XY=             -2.1071   XZ=             -0.0000   YZ=             -0.0000
 Octapole moment (field-independent basis, Debye-Ang**2):
  XXX=             -2.8951  YYY=              7.7914  ZZZ=              0.0000  XYY=             -1.4458
  XXY=             -1.9504  XXZ=              0.0000  XZZ=              0.9720  YZZ=             -0.6654
  YYZ=              0.0000  XYZ=             -0.0000
 Hexadecapole moment (field-independent basis, Debye-Ang**3):
 XXXX=           -114.2729 YYYY=           -262.5468 ZZZZ=           -100.4492 XXXY=              6.3219
 XXXZ=              0.0000 YYYX=              6.1938 YYYZ=             -0.0000 ZZZX=              0.0000
 ZZZY=             -0.0000 XXYY=            -59.1308 XXZZ=            -34.2363 YYZZ=            -57.6726
 XXYZ=             -0.0000 YYXZ=              0.0000 ZZXY=              1.8917
 N-N= 2.712416845329D+02 E-N=-1.674765015618D+03  KE= 4.744705178404D+02
 Symmetry A'   KE= 3.579679529892D+02
 Symmetry A"   KE= 1.165025648513D+02
 No NMR shielding tensors so no spin-rotation constants.
 Leave Link  601 at Thu Apr  2 15:22:46 2026, MaxMem=  1073741824 cpu:               0.6 elap:               0.2
 (Enter /Users/yarger/Applications/g16/l701.exe)
 ... and contract with generalized density number  0.
 Compute integral first derivatives.
 R6Disp: Adding Grimme-D2 dispersion energy 1st derivatives to the gradient.
 Leave Link  701 at Thu Apr  2 15:22:47 2026, MaxMem=  1073741824 cpu:               0.5 elap:               0.1
 (Enter /Users/yarger/Applications/g16/l702.exe)
 L702 exits ... SP integral derivatives will be done elsewhere.
 Leave Link  702 at Thu Apr  2 15:22:47 2026, MaxMem=  1073741824 cpu:               0.1 elap:               0.0
 (Enter /Users/yarger/Applications/g16/l703.exe)
 Integral derivatives from FoFJK, PRISM(SPDF).
 Compute integral first derivatives, UseDBF=F ICtDFT=           0.
 Calling FoFJK, ICntrl=      2127 FMM=F ISym2X=1 I1Cent= 0 IOpClX= 0 NMat=1 NMatS=1 NMatT=0.
 FoFJK:  IHMeth= 1 ICntrl=    2127 DoSepK=T KAlg= 0 I1Cent=           0 FoldK=F
 IRaf=         1 NMat=       1 IRICut=       1 DoRegI=T DoRafI=F ISym2E= 1 IDoP0=0 IntGTp=1.
 FoFCou: FMM=F IPFlag=           0 FMFlag=      100000 FMFlg1=         800
         NFxFlg=           0 DoJE=F BraDBF=F KetDBF=F FulRan=T
         wScrn=  0.000000 ICntrl=      2527 IOpCl=  0 I1Cent=           0 NGrid=           0
         NMat0=    1 NMatS0=      1 NMatT0=    0 NMatD0=    1 NMtDS0=    0 NMtDT0=    0
 Petite list used in FoFCou.
 Leave Link  703 at Thu Apr  2 15:23:20 2026, MaxMem=  1073741824 cpu:             131.7 elap:              33.2
 (Enter /Users/yarger/Applications/g16/l716.exe)
 Dipole        = 7.73719811D-01-1.17651645D-01 1.99840144D-15
 ***** Axes restored to original set *****
 -------------------------------------------------------------------
 Center     Atomic                   Forces (Hartrees/Bohr)
 Number     Number              X              Y              Z
 -------------------------------------------------------------------
      1        6           0.014018466   -0.009955077   -0.004999352
      2        1           0.006639513    0.012949267   -0.000277831
      3        6          -0.012922912    0.007486908    0.007314297
      4        9          -0.006306083   -0.008554936   -0.015371529
      5        9           0.013536443    0.012714368   -0.002084961
      6        9          -0.001598083   -0.007324218    0.014111321
      7        9          -0.004349440   -0.003482313    0.012070103
      8        1          -0.009017905   -0.003833999   -0.010762048
 -------------------------------------------------------------------
 Cartesian Forces:  Max     0.015371529 RMS     0.009467907
 Leave Link  716 at Thu Apr  2 15:23:20 2026, MaxMem=  1073741824 cpu:               0.1 elap:               0.0
 (Enter /Users/yarger/Applications/g16/l103.exe)

 GradGradGradGradGradGradGradGradGradGradGradGradGradGradGradGradGradGrad
 Berny optimization.
 FormGI is forming the generalized inverse of G from B-inverse, IUseBI=4.
 Internal  Forces:  Max     0.016188656 RMS     0.008732402
 Search for a local minimum.
 Step number   1 out of a maximum of   38
 All quantities printed in internal units (Hartrees-Bohrs-Radians)
 RMS Force = .87324D-02 SwitMx=.10000D-02 MixMth= 1
 Mixed Optimization -- RFO/linear search
 Second derivative matrix not updated -- first step.
 ITU=  0
     Eigenvalues ---    0.00237   0.05720   0.05976   0.08850   0.08850
     Eigenvalues ---    0.16000   0.16000   0.22461   0.25000   0.25000
     Eigenvalues ---    0.25000   0.28519   0.37230   0.37230   0.55021
     Eigenvalues ---    0.55021   0.55021   0.55021
 RFO step:  Lambda=-5.91522356D-03 EMin= 2.36824250D-03
 Linear search not attempted -- first point.
 Iteration  1 RMS(Cart)=  0.03152761 RMS(Int)=  0.00117538
 Iteration  2 RMS(Cart)=  0.00124154 RMS(Int)=  0.00047646
 Iteration  3 RMS(Cart)=  0.00000131 RMS(Int)=  0.00047646
 Iteration  4 RMS(Cart)=  0.00000000 RMS(Int)=  0.00047646
 ITry= 1 IFail=0 DXMaxC= 8.11D-02 DCOld= 1.00D+10 DXMaxT= 3.00D-01 DXLimC= 3.00D+00 Rises=F
 ClnCor:  largest displacement from symmetrization is 3.92D-09 for atom     5.
 Variable       Old X    -DE/DX   Delta X   Delta X   Delta X     New X
                                 (Linear)    (Quad)   (Total)
    R1        2.02201   0.01434   0.00000   0.03792   0.03792   2.05992
    R2        2.91018  -0.00906   0.00000  -0.03113  -0.03113   2.87904
    R3        2.55113   0.01328   0.00000   0.02388   0.02388   2.57501
    R4        2.02201   0.01434   0.00000   0.03792   0.03792   2.05992
    R5        2.55113  -0.01619   0.00000  -0.02911  -0.02911   2.52202
    R6        2.55113  -0.01619   0.00000  -0.02911  -0.02911   2.52202
    R7        2.55113  -0.01502   0.00000  -0.02700  -0.02700   2.52413
    A1        1.91063  -0.00284   0.00000  -0.01733  -0.01742   1.89321
    A2        1.91063   0.00151   0.00000   0.00958   0.00957   1.92020
    A3        1.91063   0.00272   0.00000   0.01545   0.01526   1.92589
    A4        1.91063  -0.00007   0.00000   0.00004   0.00002   1.91066
    A5        1.91063  -0.00284   0.00000  -0.01733  -0.01742   1.89321
    A6        1.91063   0.00151   0.00000   0.00958   0.00957   1.92020
    A7        1.91063   0.01310   0.00000   0.05257   0.05146   1.96210
    A8        1.91063   0.01310   0.00000   0.05257   0.05146   1.96210
    A9        1.91063   0.00458   0.00000   0.01516   0.01482   1.92545
   A10        1.91063  -0.01209   0.00000  -0.04178  -0.04346   1.86717
   A11        1.91063  -0.00935   0.00000  -0.03925  -0.03957   1.87106
   A12        1.91063  -0.00935   0.00000  -0.03925  -0.03957   1.87106
    D1        1.04720  -0.00055   0.00000  -0.00545  -0.00584   1.04135
    D2        3.14159   0.00070   0.00000   0.00775   0.00805  -3.13354
    D3       -1.04720   0.00007   0.00000   0.00115   0.00110  -1.04609
    D4       -1.04720  -0.00062   0.00000  -0.00660  -0.00695  -1.05414
    D5        1.04720   0.00062   0.00000   0.00660   0.00695   1.05414
    D6        3.14159   0.00000   0.00000  -0.00000   0.00000   3.14159
    D7       -3.14159  -0.00070   0.00000  -0.00775  -0.00805   3.13354
    D8       -1.04720   0.00055   0.00000   0.00545   0.00584  -1.04135
    D9        1.04720  -0.00007   0.00000  -0.00115  -0.00110   1.04609
         Item               Value     Threshold  Converged?
 Maximum Force            0.016189     0.000015     NO 
 RMS     Force            0.008732     0.000010     NO 
 Maximum Displacement     0.081056     0.000060     NO 
 RMS     Displacement     0.031396     0.000040     NO 
 Predicted change in Energy=-3.015739D-03
 Lowest energy point so far.  Saving SCF results.
 GradGradGradGradGradGradGradGradGradGradGradGradGradGradGradGradGradGrad

 Leave Link  103 at Thu Apr  2 15:23:20 2026, MaxMem=  1073741824 cpu:               0.0 elap:               0.0
 (Enter /Users/yarger/Applications/g16/l202.exe)
                          Input orientation:                          
 ---------------------------------------------------------------------
 Center     Atomic      Atomic             Coordinates (Angstroms)
 Number     Number       Type             X           Y           Z
 ---------------------------------------------------------------------
      1          6           0       -1.509804    1.415604    1.461449
      2          1           0       -1.165570    2.449766    1.445536
      3          6           0       -0.326932    0.508206    1.147490
      4          9           0        0.666578    0.643990    2.028199
      5          9           0       -0.664613   -0.782920    1.136833
      6          9           0        0.171481    0.796168   -0.057827
      7          9           0       -2.004306    1.107458    2.693235
      8          1           0       -2.276013    1.259477    0.701983
 ---------------------------------------------------------------------
                    Distance matrix (angstroms):
                    1          2          3          4          5
     1  C    0.000000
     2  H    1.090065   0.000000
     3  C    1.523525   2.135838   0.000000
     4  F    2.377652   2.637629   1.334596   0.000000
     5  F    2.377652   3.285805   1.334596   2.145384   0.000000
     6  F    2.349174   2.604264   1.335713   2.149368   2.149368
     7  F    1.362638   2.015445   2.358392   2.791181   2.791181
     8  H    1.090065   1.789621   2.135838   3.285805   2.637629
                    6          7          8
     6  F    0.000000
     7  F    3.521263   0.000000
     8  H    2.604264   2.015445   0.000000
 Stoichiometry    C2H2F4
 Framework group  CS[SG(C2F2),X(H2F2)]
 Deg. of freedom    11
 Full point group                 CS      NOp   2
 RotChk:  IX=2 Diff= 1.38D+00
 Largest Abelian subgroup         CS      NOp   2
 Largest concise Abelian subgroup CS      NOp   2
                         Standard orientation:                         
 ---------------------------------------------------------------------
 Center     Atomic      Atomic             Coordinates (Angstroms)
 Number     Number       Type             X           Y           Z
 ---------------------------------------------------------------------
      1          6           0        1.171377    0.232921   -0.000000
      2          1           0        1.504113    0.759079   -0.894811
      3          6           0       -0.351700    0.195985   -0.000000
      4          9           0       -0.845778   -0.425598   -1.072692
      5          9           0       -0.845778   -0.425598    1.072692
      6          9           0       -0.845778    1.436959   -0.000000
      7          9           0        1.656634   -1.040385    0.000000
      8          1           0        1.504113    0.759079    0.894811
 ---------------------------------------------------------------------
 Rotational constants (GHZ):           5.4134478           2.7844526           2.7438615
 Leave Link  202 at Thu Apr  2 15:23:20 2026, MaxMem=  1073741824 cpu:               0.0 elap:               0.0
 (Enter /Users/yarger/Applications/g16/l301.exe)
 Standard basis: Aug-CC-pVTZ (5D, 7F)
 Ernie: Thresh=  0.10000D-02 Tol=  0.10000D-05 Strict=F.
 Ernie:  18 primitive shells out of 202 were deleted.
 There are   228 symmetry adapted cartesian basis functions of A'  symmetry.
 There are   152 symmetry adapted cartesian basis functions of A"  symmetry.
 There are   189 symmetry adapted basis functions of A'  symmetry.
 There are   133 symmetry adapted basis functions of A"  symmetry.
   322 basis functions,   486 primitive gaussians,   380 cartesian basis functions
    25 alpha electrons       25 beta electrons
       nuclear repulsion energy       272.7468258942 Hartrees.
 IExCor= 4639 DFT=T Ex+Corr=wB97XD ExCW=0 ScaHFX=  1.000000
 ScaDFX=  1.000000  1.000000  1.000000  1.000000 ScalE2=  1.000000  1.000000
 IRadAn=      5 IRanWt=     -1 IRanGd=            0 ICorTp=0 IEmpDi=121
 HFx  wShort=  0.000000 wLong=  0.200000 cFull=  0.222036 cShort=  0.000000 cLong=  0.777964
 DFx  wShort=  0.000000 wLong=  0.200000 cFull=  0.000000 cShort=  0.000000 cLong=  1.000000
 NAtoms=    8 NActive=    8 NUniq=    6 SFac= 1.78D+00 NAtFMM=   60 NAOKFM=F Big=F
 Integral buffers will be    131072 words long.
 Raffenetti 2 integral format.
 Two-electron integral symmetry is turned on.
 R6Disp:  Grimme-D2 Dispersion energy=       -0.0021577138 Hartrees.
 Nuclear repulsion after empirical dispersion term =      272.7446681804 Hartrees.
 Leave Link  301 at Thu Apr  2 15:23:20 2026, MaxMem=  1073741824 cpu:               0.1 elap:               0.0
 (Enter /Users/yarger/Applications/g16/l302.exe)
 NPDir=0 NMtPBC=     1 NCelOv=     1 NCel=       1 NClECP=     1 NCelD=      1
         NCelK=      1 NCelE2=     1 NClLst=     1 CellRange=     0.0.
 One-electron integrals computed using PRISM.
 One-electron integral symmetry used in STVInt
 NBasis=   322 RedAO= T EigKep=  2.37D-05  NBF=   189   133
 NBsUse=   322 1.00D-06 EigRej= -1.00D+00 NBFU=   189   133
 Precomputing XC quadrature grid using
 IXCGrd= 4 IRadAn=           5 IRanWt=          -1 IRanGd=           0 AccXCQ= 0.00D+00.
 Generated NRdTot=       0 NPtTot=           0 NUsed=           0 NTot=          32
 NSgBfM=   380   380   380   380   380 MxSgAt=     8 MxSgA2=     8.
 Leave Link  302 at Thu Apr  2 15:23:20 2026, MaxMem=  1073741824 cpu:               0.6 elap:               0.2
 (Enter /Users/yarger/Applications/g16/l303.exe)
 DipDrv:  MaxL=1.
 Leave Link  303 at Thu Apr  2 15:23:20 2026, MaxMem=  1073741824 cpu:               0.1 elap:               0.0
 (Enter /Users/yarger/Applications/g16/l401.exe)
 Initial guess from the checkpoint file:  "1112Tetrafluoroethane_Opt_Freq_DFT_WB97XD_pVTZ_Gaussian16.chk"
 B after Tr=     0.000000    0.000000   -0.000000
         Rot=    0.873187    0.000000   -0.000000   -0.487385 Ang= -58.34 deg.
 Guess basis will be translated and rotated to current coordinates.
 JPrj=2 DoOrth=T DoCkMO=T.
 Initial guess orbital symmetries:
       Occupied  (A') (A") (A') (A') (A') (A') (A') (A') (A") (A')
                 (A') (A') (A') (A") (A') (A') (A") (A') (A") (A')
                 (A') (A") (A") (A") (A')
       Virtual   (A') (A") (A') (A') (A') (A") (A') (A') (A") (A')
                 (A") (A') (A') (A") (A') (A') (A") (A') (A") (A')
                 (A') (A') (A") (A') (A") (A') (A") (A') (A') (A')
                 (A") (A") (A') (A') (A") (A') (A') (A') (A") (A')
                 (A') (A") (A") (A") (A') (A') (A') (A") (A') (A')
                 (A') (A') (A") (A") (A') (A") (A') (A') (A") (A')
                 (A") (A') (A") (A') (A") (A') (A") (A') (A') (A")
                 (A") (A') (A') (A") (A') (A') (A") (A') (A") (A")
                 (A') (A") (A') (A") (A') (A') (A") (A') (A') (A")
                 (A') (A") (A') (A') (A") (A') (A') (A') (A") (A")
                 (A') (A') (A") (A') (A') (A") (A") (A') (A') (A")
                 (A') (A") (A') (A") (A') (A") (A") (A') (A") (A')
                 (A') (A") (A') (A") (A') (A') (A") (A') (A") (A')
                 (A') (A") (A') (A') (A") (A') (A") (A') (A") (A')
                 (A') (A") (A') (A") (A') (A") (A') (A') (A') (A')
                 (A") (A') (A") (A") (A') (A") (A') (A") (A') (A")
                 (A') (A") (A') (A') (A") (A') (A') (A") (A') (A")
                 (A') (A") (A') (A") (A') (A') (A") (A') (A") (A")
                 (A') (A') (A') (A") (A") (A") (A') (A") (A') (A")
                 (A') (A") (A') (A") (A') (A") (A') (A') (A') (A")
                 (A') (A') (A") (A') (A') (A") (A') (A") (A') (A')
                 (A') (A") (A') (A") (A") (A') (A') (A") (A') (A')
                 (A") (A") (A') (A") (A') (A") (A') (A') (A") (A')
                 (A") (A') (A") (A') (A") (A") (A') (A') (A") (A')
                 (A') (A") (A') (A') (A") (A") (A') (A") (A') (A")
                 (A') (A') (A") (A') (A") (A') (A") (A') (A") (A')
                 (A") (A') (A") (A') (A') (A") (A") (A') (A") (A')
                 (A") (A') (A') (A') (A") (A') (A') (A") (A") (A')
                 (A") (A') (A") (A') (A') (A") (A") (A') (A') (A')
                 (A") (A') (A') (A") (A') (A') (A')
 The electronic state of the initial guess is 1-A'.
 Generating alternative initial guess.
 ExpMin= 2.53D-02 ExpMax= 1.95D+04 ExpMxC= 6.65D+02 IAcc=3 IRadAn=         5 AccDes= 0.00D+00
 Harris functional with IExCor= 4639 and IRadAn=       5 diagonalized for initial guess.
 HarFok:  IExCor= 4639 AccDes= 0.00D+00 IRadAn=         5 IDoV= 1 UseB2=F ITyADJ=14
 ICtDFT=  3500011 ScaDFX=  1.000000  1.000000  1.000000  1.000000
 FoFCou: FMM=F IPFlag=           0 FMFlag=      100000 FMFlg1=           0
         NFxFlg=           0 DoJE=T BraDBF=F KetDBF=T FulRan=T
         wScrn=  0.000000 ICntrl=       500 IOpCl=  0 I1Cent=   200000004 NGrid=           0
         NMat0=    1 NMatS0=      1 NMatT0=    0 NMatD0=    1 NMtDS0=    0 NMtDT0=    0
 Petite list used in FoFCou.
 Harris En= -461.311219441169    
 Leave Link  401 at Thu Apr  2 15:23:21 2026, MaxMem=  1073741824 cpu:               3.5 elap:               0.9
 (Enter /Users/yarger/Applications/g16/l502.exe)
 Integral symmetry usage will be decided dynamically.
 Closed shell SCF:
 Using DIIS extrapolation, IDIIS=  1040.
 NGot=  1073741824 LenX=  1073446812 LenY=  1073301971
 Requested convergence on RMS density matrix=1.00D-08 within 128 cycles.
 Requested convergence on MAX density matrix=1.00D-06.
 Requested convergence on             energy=1.00D-06.
 No special actions if energy rises.
 Fock matrices will be formed incrementally for  20 cycles.

 Cycle   1  Pass 1  IDiag  1:
 FoFJK:  IHMeth= 1 ICntrl=       0 DoSepK=T KAlg= 0 I1Cent=           0 FoldK=F
 IRaf=         1 NMat=       1 IRICut=       1 DoRegI=T DoRafI=F ISym2E= 1 IDoP0=0 IntGTp=1.
 FoFCou: FMM=F IPFlag=           0 FMFlag=      100000 FMFlg1=           0
         NFxFlg=           0 DoJE=T BraDBF=F KetDBF=F FulRan=T
         wScrn=  0.000000 ICntrl=       500 IOpCl=  0 I1Cent=           0 NGrid=           0
         NMat0=    1 NMatS0=      1 NMatT0=    0 NMatD0=    1 NMtDS0=    0 NMtDT0=    0
 Petite list used in FoFCou.
 E= -476.845439387175    
 DIIS: error= 2.14D-03 at cycle   1 NSaved=   1.
 NSaved= 1 IEnMin= 1 EnMin= -476.845439387175     IErMin= 1 ErrMin= 2.14D-03
 ErrMax= 2.14D-03  0.00D+00 EMaxC= 1.00D-01 BMatC= 2.86D-03 BMatP= 2.86D-03
 IDIUse=3 WtCom= 9.79D-01 WtEn= 2.14D-02
 Coeff-Com:  0.100D+01
 Coeff-En:   0.100D+01
 Coeff:      0.100D+01
 Gap=     0.505 Goal=   None    Shift=    0.000
 GapD=    0.505 DampG=2.000 DampE=1.000 DampFc=2.0000 IDamp=-1.
 RMSDP=3.27D-04 MaxDP=1.27D-02              OVMax= 1.25D-02

 Cycle   2  Pass 1  IDiag  1:
 RMSU=  3.26D-04    CP:  1.00D+00
 E= -476.847969486933     Delta-E=       -0.002530099758 Rises=F Damp=F
 DIIS: error= 7.58D-04 at cycle   2 NSaved=   2.
 NSaved= 2 IEnMin= 2 EnMin= -476.847969486933     IErMin= 2 ErrMin= 7.58D-04
 ErrMax= 7.58D-04  0.00D+00 EMaxC= 1.00D-01 BMatC= 1.49D-04 BMatP= 2.86D-03
 IDIUse=3 WtCom= 9.92D-01 WtEn= 7.58D-03
 Coeff-Com: -0.782D-02 0.101D+01
 Coeff-En:   0.000D+00 0.100D+01
 Coeff:     -0.776D-02 0.101D+01
 Gap=     0.490 Goal=   None    Shift=    0.000
 RMSDP=6.32D-05 MaxDP=3.32D-03 DE=-2.53D-03 OVMax= 3.83D-03

 Cycle   3  Pass 1  IDiag  1:
 RMSU=  5.99D-05    CP:  1.00D+00  1.06D+00
 E= -476.848094347882     Delta-E=       -0.000124860949 Rises=F Damp=F
 DIIS: error= 5.41D-04 at cycle   3 NSaved=   3.
 NSaved= 3 IEnMin= 3 EnMin= -476.848094347882     IErMin= 3 ErrMin= 5.41D-04
 ErrMax= 5.41D-04  0.00D+00 EMaxC= 1.00D-01 BMatC= 9.72D-05 BMatP= 1.49D-04
 IDIUse=3 WtCom= 9.95D-01 WtEn= 5.41D-03
 Coeff-Com: -0.570D-01 0.460D+00 0.597D+00
 Coeff-En:   0.000D+00 0.000D+00 0.100D+01
 Coeff:     -0.567D-01 0.458D+00 0.599D+00
 Gap=     0.490 Goal=   None    Shift=    0.000
 RMSDP=1.70D-05 MaxDP=8.34D-04 DE=-1.25D-04 OVMax= 1.65D-03

 Cycle   4  Pass 1  IDiag  1:
 RMSU=  1.62D-05    CP:  1.00D+00  1.07D+00  1.01D+00
 E= -476.848156625210     Delta-E=       -0.000062277328 Rises=F Damp=F
 DIIS: error= 8.25D-05 at cycle   4 NSaved=   4.
 NSaved= 4 IEnMin= 4 EnMin= -476.848156625210     IErMin= 4 ErrMin= 8.25D-05
 ErrMax= 8.25D-05  0.00D+00 EMaxC= 1.00D-01 BMatC= 3.92D-06 BMatP= 9.72D-05
 IDIUse=1 WtCom= 1.00D+00 WtEn= 0.00D+00
 Coeff-Com: -0.119D-01 0.892D-02 0.144D+00 0.859D+00
 Coeff:     -0.119D-01 0.892D-02 0.144D+00 0.859D+00
 Gap=     0.490 Goal=   None    Shift=    0.000
 RMSDP=7.85D-06 MaxDP=4.84D-04 DE=-6.23D-05 OVMax= 5.03D-04

 Cycle   5  Pass 1  IDiag  1:
 RMSU=  4.15D-06    CP:  1.00D+00  1.07D+00  1.11D+00  1.13D+00
 E= -476.848159591735     Delta-E=       -0.000002966525 Rises=F Damp=F
 DIIS: error= 3.61D-05 at cycle   5 NSaved=   5.
 NSaved= 5 IEnMin= 5 EnMin= -476.848159591735     IErMin= 5 ErrMin= 3.61D-05
 ErrMax= 3.61D-05  0.00D+00 EMaxC= 1.00D-01 BMatC= 6.69D-07 BMatP= 3.92D-06
 IDIUse=1 WtCom= 1.00D+00 WtEn= 0.00D+00
 Coeff-Com:  0.243D-02-0.552D-01-0.151D-01 0.341D+00 0.727D+00
 Coeff:      0.243D-02-0.552D-01-0.151D-01 0.341D+00 0.727D+00
 Gap=     0.490 Goal=   None    Shift=    0.000
 RMSDP=2.75D-06 MaxDP=1.42D-04 DE=-2.97D-06 OVMax= 1.79D-04

 Cycle   6  Pass 1  IDiag  1:
 RMSU=  1.49D-06    CP:  1.00D+00  1.07D+00  1.14D+00  1.19D+00  8.08D-01
 E= -476.848160107676     Delta-E=       -0.000000515941 Rises=F Damp=F
 DIIS: error= 5.40D-06 at cycle   6 NSaved=   6.
 NSaved= 6 IEnMin= 6 EnMin= -476.848160107676     IErMin= 6 ErrMin= 5.40D-06
 ErrMax= 5.40D-06  0.00D+00 EMaxC= 1.00D-01 BMatC= 1.20D-08 BMatP= 6.69D-07
 IDIUse=1 WtCom= 1.00D+00 WtEn= 0.00D+00
 Coeff-Com:  0.885D-03-0.126D-01-0.781D-02 0.509D-01 0.154D+00 0.815D+00
 Coeff:      0.885D-03-0.126D-01-0.781D-02 0.509D-01 0.154D+00 0.815D+00
 Gap=     0.490 Goal=   None    Shift=    0.000
 RMSDP=4.25D-07 MaxDP=1.38D-05 DE=-5.16D-07 OVMax= 3.15D-05

 Cycle   7  Pass 1  IDiag  1:
 RMSU=  3.13D-07    CP:  1.00D+00  1.07D+00  1.14D+00  1.19D+00  8.22D-01
                    CP:  1.14D+00
 E= -476.848160116017     Delta-E=       -0.000000008341 Rises=F Damp=F
 DIIS: error= 2.78D-06 at cycle   7 NSaved=   7.
 NSaved= 7 IEnMin= 7 EnMin= -476.848160116017     IErMin= 7 ErrMin= 2.78D-06
 ErrMax= 2.78D-06  0.00D+00 EMaxC= 1.00D-01 BMatC= 4.57D-09 BMatP= 1.20D-08
 IDIUse=1 WtCom= 1.00D+00 WtEn= 0.00D+00
 Coeff-Com:  0.140D-03 0.465D-03-0.203D-02-0.163D-01-0.146D-01 0.386D+00
 Coeff-Com:  0.646D+00
 Coeff:      0.140D-03 0.465D-03-0.203D-02-0.163D-01-0.146D-01 0.386D+00
 Coeff:      0.646D+00
 Gap=     0.490 Goal=   None    Shift=    0.000
 RMSDP=1.53D-07 MaxDP=5.88D-06 DE=-8.34D-09 OVMax= 1.18D-05

 Cycle   8  Pass 1  IDiag  1:
 RMSU=  9.55D-08    CP:  1.00D+00  1.07D+00  1.14D+00  1.20D+00  8.23D-01
                    CP:  1.20D+00  9.29D-01
 E= -476.848160118712     Delta-E=       -0.000000002695 Rises=F Damp=F
 DIIS: error= 4.69D-07 at cycle   8 NSaved=   8.
 NSaved= 8 IEnMin= 8 EnMin= -476.848160118712     IErMin= 8 ErrMin= 4.69D-07
 ErrMax= 4.69D-07  0.00D+00 EMaxC= 1.00D-01 BMatC= 1.25D-10 BMatP= 4.57D-09
 IDIUse=1 WtCom= 1.00D+00 WtEn= 0.00D+00
 Coeff-Com: -0.435D-04 0.112D-02 0.252D-03-0.843D-02-0.168D-01 0.236D-01
 Coeff-Com:  0.159D+00 0.841D+00
 Coeff:     -0.435D-04 0.112D-02 0.252D-03-0.843D-02-0.168D-01 0.236D-01
 Coeff:      0.159D+00 0.841D+00
 Gap=     0.490 Goal=   None    Shift=    0.000
 RMSDP=5.30D-08 MaxDP=1.73D-06 DE=-2.70D-09 OVMax= 4.85D-06

 Cycle   9  Pass 1  IDiag  1:
 RMSU=  2.78D-08    CP:  1.00D+00  1.07D+00  1.14D+00  1.20D+00  8.21D-01
                    CP:  1.22D+00  1.01D+00  1.12D+00
 E= -476.848160118815     Delta-E=       -0.000000000103 Rises=F Damp=F
 DIIS: error= 1.26D-07 at cycle   9 NSaved=   9.
 NSaved= 9 IEnMin= 9 EnMin= -476.848160118815     IErMin= 9 ErrMin= 1.26D-07
 ErrMax= 1.26D-07  0.00D+00 EMaxC= 1.00D-01 BMatC= 7.19D-12 BMatP= 1.25D-10
 IDIUse=1 WtCom= 1.00D+00 WtEn= 0.00D+00
 Coeff-Com: -0.176D-04 0.257D-03 0.227D-03-0.122D-02-0.315D-02-0.163D-01
 Coeff-Com:  0.225D-02 0.200D+00 0.818D+00
 Coeff:     -0.176D-04 0.257D-03 0.227D-03-0.122D-02-0.315D-02-0.163D-01
 Coeff:      0.225D-02 0.200D+00 0.818D+00
 Gap=     0.490 Goal=   None    Shift=    0.000
 RMSDP=1.30D-08 MaxDP=8.31D-07 DE=-1.03D-10 OVMax= 1.14D-06

 Cycle  10  Pass 1  IDiag  1:
 RMSU=  7.45D-09    CP:  1.00D+00  1.07D+00  1.14D+00  1.19D+00  8.21D-01
                    CP:  1.22D+00  1.02D+00  1.18D+00  1.07D+00
 E= -476.848160118823     Delta-E=       -0.000000000008 Rises=F Damp=F
 DIIS: error= 3.94D-08 at cycle  10 NSaved=  10.
 NSaved=10 IEnMin=10 EnMin= -476.848160118823     IErMin=10 ErrMin= 3.94D-08
 ErrMax= 3.94D-08  0.00D+00 EMaxC= 1.00D-01 BMatC= 6.95D-13 BMatP= 7.19D-12
 IDIUse=1 WtCom= 1.00D+00 WtEn= 0.00D+00
 Coeff-Com: -0.151D-05-0.209D-04 0.431D-04 0.397D-03 0.452D-03-0.629D-02
 Coeff-Com: -0.128D-01-0.132D-01 0.197D+00 0.834D+00
 Coeff:     -0.151D-05-0.209D-04 0.431D-04 0.397D-03 0.452D-03-0.629D-02
 Coeff:     -0.128D-01-0.132D-01 0.197D+00 0.834D+00
 Gap=     0.490 Goal=   None    Shift=    0.000
 RMSDP=4.56D-09 MaxDP=3.09D-07 DE=-7.73D-12 OVMax= 5.09D-07

 SCF Done:  E(RwB97XD) =  -476.848160119     A.U. after   10 cycles
            NFock= 10  Conv=0.46D-08     -V/T= 2.0049
 KE= 4.745384488229D+02 PE=-1.677835076902D+03 EE= 4.537037997802D+02
 Leave Link  502 at Thu Apr  2 15:24:44 2026, MaxMem=  1073741824 cpu:             331.0 elap:              83.0
 (Enter /Users/yarger/Applications/g16/l701.exe)
 ... and contract with generalized density number  0.
 Compute integral first derivatives.
 R6Disp: Adding Grimme-D2 dispersion energy 1st derivatives to the gradient.
 Leave Link  701 at Thu Apr  2 15:24:44 2026, MaxMem=  1073741824 cpu:               0.5 elap:               0.1
 (Enter /Users/yarger/Applications/g16/l702.exe)
 L702 exits ... SP integral derivatives will be done elsewhere.
 Leave Link  702 at Thu Apr  2 15:24:44 2026, MaxMem=  1073741824 cpu:               0.0 elap:               0.0
 (Enter /Users/yarger/Applications/g16/l703.exe)
 Integral derivatives from FoFJK, PRISM(SPDF).
 Compute integral first derivatives, UseDBF=F ICtDFT=           0.
 Calling FoFJK, ICntrl=      2127 FMM=F ISym2X=1 I1Cent= 0 IOpClX= 0 NMat=1 NMatS=1 NMatT=0.
 FoFJK:  IHMeth= 1 ICntrl=    2127 DoSepK=T KAlg= 0 I1Cent=           0 FoldK=F
 IRaf=         1 NMat=       1 IRICut=       1 DoRegI=T DoRafI=F ISym2E= 1 IDoP0=0 IntGTp=1.
 FoFCou: FMM=F IPFlag=           0 FMFlag=      100000 FMFlg1=         800
         NFxFlg=           0 DoJE=F BraDBF=F KetDBF=F FulRan=T
         wScrn=  0.000000 ICntrl=      2527 IOpCl=  0 I1Cent=           0 NGrid=           0
         NMat0=    1 NMatS0=      1 NMatT0=    0 NMatD0=    1 NMtDS0=    0 NMtDT0=    0
 Petite list used in FoFCou.
 Leave Link  703 at Thu Apr  2 15:25:17 2026, MaxMem=  1073741824 cpu:             131.9 elap:              33.0
 (Enter /Users/yarger/Applications/g16/l716.exe)
 Dipole        = 5.66718133D-01 6.05257013D-01-4.44089210D-16
 ***** Axes restored to original set *****
 -------------------------------------------------------------------
 Center     Atomic                   Forces (Hartrees/Bohr)
 Number     Number              X              Y              Z
 -------------------------------------------------------------------
      1        6           0.004357857   -0.001806176   -0.003616795
      2        1          -0.000282020    0.000157122    0.000554583
      3        6           0.005662742   -0.005978162    0.001113022
      4        9          -0.001384544    0.002995568    0.002986327
      5        9          -0.004330681   -0.000162410    0.001013593
      6        9          -0.002276177    0.004605766   -0.003973664
      7        9          -0.001266687    0.000243913    0.001501247
      8        1          -0.000480491   -0.000055621    0.000421687
 -------------------------------------------------------------------
 Cartesian Forces:  Max     0.005978162 RMS     0.002820466
 Leave Link  716 at Thu Apr  2 15:25:17 2026, MaxMem=  1073741824 cpu:               0.1 elap:               0.0
 (Enter /Users/yarger/Applications/g16/l103.exe)

 GradGradGradGradGradGradGradGradGradGradGradGradGradGradGradGradGradGrad
 Berny optimization.
 Using GEDIIS/GDIIS optimizer.
 FormGI is forming the generalized inverse of G from B-inverse, IUseBI=4.
 Internal  Forces:  Max     0.006905405 RMS     0.002835375
 Search for a local minimum.
 Step number   2 out of a maximum of   38
 All quantities printed in internal units (Hartrees-Bohrs-Radians)
 RMS Force = .28354D-02 SwitMx=.10000D-02 MixMth= 1
 Mixed Optimization -- RFO/linear search
 Update second derivatives using D2CorX and points    1    2
 DE= -2.30D-03 DEPred=-3.02D-03 R= 7.63D-01
 TightC=F SS=  1.41D+00  RLast= 1.37D-01 DXNew= 5.0454D-01 4.1020D-01
 Trust test= 7.63D-01 RLast= 1.37D-01 DXMaxT set to 4.10D-01
 ITU=  1  0
 Use linear search instead of GDIIS.
     Eigenvalues ---    0.00237   0.05795   0.06137   0.07992   0.08377
     Eigenvalues ---    0.16000   0.16003   0.22496   0.24244   0.25000
     Eigenvalues ---    0.27542   0.32570   0.37230   0.37859   0.53447
     Eigenvalues ---    0.55021   0.55021   0.57579
 RFO step:  Lambda=-3.60239281D-04 EMin= 2.36824250D-03
 Quartic linear search produced a step of -0.18380.
 Iteration  1 RMS(Cart)=  0.01202021 RMS(Int)=  0.00014883
 Iteration  2 RMS(Cart)=  0.00013259 RMS(Int)=  0.00007855
 Iteration  3 RMS(Cart)=  0.00000002 RMS(Int)=  0.00007855
 ITry= 1 IFail=0 DXMaxC= 2.94D-02 DCOld= 1.00D+10 DXMaxT= 4.10D-01 DXLimC= 3.00D+00 Rises=F
 ClnCor:  largest displacement from symmetrization is 3.21D-09 for atom     5.
 Variable       Old X    -DE/DX   Delta X   Delta X   Delta X     New X
                                 (Linear)    (Quad)   (Total)
    R1        2.05992   0.00005  -0.00697   0.00960   0.00263   2.06255
    R2        2.87904  -0.00291   0.00572  -0.01616  -0.01044   2.86860
    R3        2.57501   0.00176  -0.00439   0.00854   0.00415   2.57917
    R4        2.05992   0.00005  -0.00697   0.00960   0.00263   2.06255
    R5        2.52202   0.00124   0.00535  -0.00538  -0.00003   2.52199
    R6        2.52202   0.00124   0.00535  -0.00538  -0.00003   2.52199
    R7        2.52413   0.00373   0.00496  -0.00118   0.00379   2.52792
    A1        1.89321   0.00035   0.00320  -0.00206   0.00116   1.89437
    A2        1.92020  -0.00094  -0.00176  -0.00245  -0.00421   1.91599
    A3        1.92589  -0.00017  -0.00280   0.00457   0.00180   1.92769
    A4        1.91066   0.00141  -0.00000   0.00451   0.00451   1.91516
    A5        1.89321   0.00035   0.00320  -0.00206   0.00116   1.89437
    A6        1.92020  -0.00094  -0.00176  -0.00245  -0.00421   1.91599
    A7        1.96210  -0.00463  -0.00946  -0.00184  -0.01119   1.95090
    A8        1.96210  -0.00463  -0.00946  -0.00184  -0.01119   1.95090
    A9        1.92545  -0.00691  -0.00272  -0.01985  -0.02268   1.90277
   A10        1.86717   0.00538   0.00799   0.00784   0.01610   1.88327
   A11        1.87106   0.00603   0.00727   0.00870   0.01589   1.88695
   A12        1.87106   0.00603   0.00727   0.00870   0.01589   1.88695
    D1        1.04135  -0.00024   0.00107  -0.00533  -0.00416   1.03720
    D2       -3.13354   0.00005  -0.00148   0.00222   0.00065  -3.13289
    D3       -1.04609  -0.00010  -0.00020  -0.00156  -0.00175  -1.04785
    D4       -1.05414  -0.00014   0.00128  -0.00378  -0.00241  -1.05655
    D5        1.05414   0.00014  -0.00128   0.00378   0.00241   1.05655
    D6        3.14159   0.00000   0.00000   0.00000   0.00000  -3.14159
    D7        3.13354  -0.00005   0.00148  -0.00222  -0.00065   3.13289
    D8       -1.04135   0.00024  -0.00107   0.00533   0.00416  -1.03720
    D9        1.04609   0.00010   0.00020   0.00156   0.00175   1.04785
         Item               Value     Threshold  Converged?
 Maximum Force            0.006905     0.000015     NO 
 RMS     Force            0.002835     0.000010     NO 
 Maximum Displacement     0.029357     0.000060     NO 
 RMS     Displacement     0.012094     0.000040     NO 
 Predicted change in Energy=-3.055733D-04
 Lowest energy point so far.  Saving SCF results.
 GradGradGradGradGradGradGradGradGradGradGradGradGradGradGradGradGradGrad

 Leave Link  103 at Thu Apr  2 15:25:18 2026, MaxMem=  1073741824 cpu:               0.0 elap:               0.0
 (Enter /Users/yarger/Applications/g16/l202.exe)
                          Input orientation:                          
 ---------------------------------------------------------------------
 Center     Atomic      Atomic             Coordinates (Angstroms)
 Number     Number       Type             X           Y           Z
 ---------------------------------------------------------------------
      1          6           0       -1.501216    1.409283    1.458742
      2          1           0       -1.156384    2.444729    1.443975
      3          6           0       -0.322994    0.503722    1.148787
      4          9           0        0.662555    0.652194    2.036339
      5          9           0       -0.676506   -0.783152    1.139703
      6          9           0        0.157106    0.811703   -0.061228
      7          9           0       -2.002802    1.107094    2.691573
      8          1           0       -2.268938    1.252176    0.699009
 ---------------------------------------------------------------------
                    Distance matrix (angstroms):
                    1          2          3          4          5
     1  C    0.000000
     2  H    1.091455   0.000000
     3  C    1.517999   2.132881   0.000000
     4  F    2.364044   2.621567   1.334578   0.000000
     5  F    2.364044   3.277511   1.334578   2.158068   0.000000
     6  F    2.327540   2.580245   1.337716   2.163494   2.163494
     7  F    1.364836   2.015487   2.359237   2.782156   2.782156
     8  H    1.091455   1.793023   2.132881   3.277511   2.621567
                    6          7          8
     6  F    0.000000
     7  F    3.511463   0.000000
     8  H    2.580245   2.015487   0.000000
 Stoichiometry    C2H2F4
 Framework group  CS[SG(C2F2),X(H2F2)]
 Deg. of freedom    11
 Full point group                 CS      NOp   2
 RotChk:  IX=2 Diff= 7.33D-03
 Largest Abelian subgroup         CS      NOp   2
 Largest concise Abelian subgroup CS      NOp   2
                         Standard orientation:                         
 ---------------------------------------------------------------------
 Center     Atomic      Atomic             Coordinates (Angstroms)
 Number     Number       Type             X           Y           Z
 ---------------------------------------------------------------------
      1          6           0        1.154826    0.238946    0.000000
      2          1           0        1.485377    0.766467   -0.896512
      3          6           0       -0.362417    0.191045   -0.000000
      4          9           0       -0.838088   -0.433871   -1.079034
      5          9           0       -0.838088   -0.433871    1.079034
      6          9           0       -0.838088    1.441334   -0.000000
      7          9           0        1.655908   -1.030579    0.000000
      8          1           0        1.485377    0.766467    0.896512
 ---------------------------------------------------------------------
 Rotational constants (GHZ):           5.3629039           2.7988853           2.7604287
 Leave Link  202 at Thu Apr  2 15:25:18 2026, MaxMem=  1073741824 cpu:               0.0 elap:               0.0
 (Enter /Users/yarger/Applications/g16/l301.exe)
 Standard basis: Aug-CC-pVTZ (5D, 7F)
 Ernie: Thresh=  0.10000D-02 Tol=  0.10000D-05 Strict=F.
 Ernie:  18 primitive shells out of 202 were deleted.
 There are   228 symmetry adapted cartesian basis functions of A'  symmetry.
 There are   152 symmetry adapted cartesian basis functions of A"  symmetry.
 There are   189 symmetry adapted basis functions of A'  symmetry.
 There are   133 symmetry adapted basis functions of A"  symmetry.
   322 basis functions,   486 primitive gaussians,   380 cartesian basis functions
    25 alpha electrons       25 beta electrons
       nuclear repulsion energy       272.7894983327 Hartrees.
 IExCor= 4639 DFT=T Ex+Corr=wB97XD ExCW=0 ScaHFX=  1.000000
 ScaDFX=  1.000000  1.000000  1.000000  1.000000 ScalE2=  1.000000  1.000000
 IRadAn=      5 IRanWt=     -1 IRanGd=            0 ICorTp=0 IEmpDi=121
 HFx  wShort=  0.000000 wLong=  0.200000 cFull=  0.222036 cShort=  0.000000 cLong=  0.777964
 DFx  wShort=  0.000000 wLong=  0.200000 cFull=  0.000000 cShort=  0.000000 cLong=  1.000000
 NAtoms=    8 NActive=    8 NUniq=    6 SFac= 1.78D+00 NAtFMM=   60 NAOKFM=F Big=F
 Integral buffers will be    131072 words long.
 Raffenetti 2 integral format.
 Two-electron integral symmetry is turned on.
 R6Disp:  Grimme-D2 Dispersion energy=       -0.0021532583 Hartrees.
 Nuclear repulsion after empirical dispersion term =      272.7873450744 Hartrees.
 Leave Link  301 at Thu Apr  2 15:25:18 2026, MaxMem=  1073741824 cpu:               0.1 elap:               0.0
 (Enter /Users/yarger/Applications/g16/l302.exe)
 NPDir=0 NMtPBC=     1 NCelOv=     1 NCel=       1 NClECP=     1 NCelD=      1
         NCelK=      1 NCelE2=     1 NClLst=     1 CellRange=     0.0.
 One-electron integrals computed using PRISM.
 One-electron integral symmetry used in STVInt
 NBasis=   322 RedAO= T EigKep=  2.36D-05  NBF=   189   133
 NBsUse=   322 1.00D-06 EigRej= -1.00D+00 NBFU=   189   133
 Precomputing XC quadrature grid using
 IXCGrd= 4 IRadAn=           5 IRanWt=          -1 IRanGd=           0 AccXCQ= 0.00D+00.
 Generated NRdTot=       0 NPtTot=           0 NUsed=           0 NTot=          32
 NSgBfM=   380   380   380   380   380 MxSgAt=     8 MxSgA2=     8.
 Leave Link  302 at Thu Apr  2 15:25:18 2026, MaxMem=  1073741824 cpu:               0.7 elap:               0.2
 (Enter /Users/yarger/Applications/g16/l303.exe)
 DipDrv:  MaxL=1.
 Leave Link  303 at Thu Apr  2 15:25:18 2026, MaxMem=  1073741824 cpu:               0.1 elap:               0.0
 (Enter /Users/yarger/Applications/g16/l401.exe)
 Initial guess from the checkpoint file:  "1112Tetrafluoroethane_Opt_Freq_DFT_WB97XD_pVTZ_Gaussian16.chk"
 B after Tr=     0.000000    0.000000    0.000000
         Rot=    0.999998    0.000000   -0.000000   -0.001827 Ang=  -0.21 deg.
 Guess basis will be translated and rotated to current coordinates.
 JPrj=2 DoOrth=T DoCkMO=T.
 Initial guess orbital symmetries:
       Occupied  (A') (A") (A') (A') (A') (A') (A') (A') (A") (A')
                 (A') (A') (A') (A") (A') (A') (A") (A') (A") (A')
                 (A') (A") (A") (A") (A')
       Virtual   (A') (A") (A') (A') (A') (A") (A') (A') (A") (A')
                 (A") (A') (A') (A") (A') (A') (A") (A') (A") (A')
                 (A') (A") (A') (A') (A") (A') (A") (A') (A') (A")
                 (A') (A") (A') (A') (A") (A') (A') (A') (A") (A')
                 (A') (A") (A") (A') (A") (A') (A') (A") (A') (A')
                 (A') (A') (A") (A") (A') (A") (A') (A') (A") (A')
                 (A") (A') (A") (A') (A') (A") (A") (A') (A') (A")
                 (A") (A') (A') (A') (A") (A') (A") (A') (A") (A")
                 (A') (A") (A') (A") (A') (A') (A") (A') (A') (A")
                 (A') (A") (A') (A') (A") (A') (A') (A') (A") (A")
                 (A') (A') (A") (A') (A") (A') (A") (A') (A') (A")
                 (A') (A") (A') (A') (A") (A") (A") (A') (A') (A")
                 (A') (A") (A') (A") (A') (A') (A') (A") (A") (A')
                 (A') (A") (A') (A') (A') (A") (A") (A') (A") (A')
                 (A') (A") (A') (A') (A") (A') (A") (A') (A') (A')
                 (A") (A") (A') (A") (A") (A') (A') (A") (A') (A')
                 (A") (A") (A') (A') (A") (A") (A') (A') (A') (A")
                 (A') (A") (A') (A') (A") (A') (A") (A') (A") (A")
                 (A') (A') (A') (A") (A") (A") (A') (A") (A') (A")
                 (A') (A") (A') (A") (A') (A") (A') (A') (A') (A")
                 (A') (A') (A") (A') (A') (A") (A') (A") (A') (A')
                 (A') (A") (A') (A") (A") (A') (A') (A") (A') (A')
                 (A") (A") (A') (A") (A') (A') (A") (A") (A') (A')
                 (A") (A') (A") (A') (A") (A") (A') (A') (A") (A')
                 (A') (A") (A') (A') (A") (A") (A') (A") (A') (A")
                 (A') (A') (A") (A') (A") (A') (A') (A") (A") (A')
                 (A") (A') (A') (A") (A') (A") (A") (A') (A") (A')
                 (A") (A') (A') (A") (A') (A') (A') (A") (A") (A')
                 (A') (A") (A") (A') (A") (A') (A") (A') (A') (A')
                 (A") (A') (A') (A') (A") (A') (A')
 The electronic state of the initial guess is 1-A'.
 Generating alternative initial guess.
 ExpMin= 2.53D-02 ExpMax= 1.95D+04 ExpMxC= 6.65D+02 IAcc=3 IRadAn=         5 AccDes= 0.00D+00
 Harris functional with IExCor= 4639 and IRadAn=       5 diagonalized for initial guess.
 HarFok:  IExCor= 4639 AccDes= 0.00D+00 IRadAn=         5 IDoV= 1 UseB2=F ITyADJ=14
 ICtDFT=  3500011 ScaDFX=  1.000000  1.000000  1.000000  1.000000
 FoFCou: FMM=F IPFlag=           0 FMFlag=      100000 FMFlg1=           0
         NFxFlg=           0 DoJE=T BraDBF=F KetDBF=T FulRan=T
         wScrn=  0.000000 ICntrl=       500 IOpCl=  0 I1Cent=   200000004 NGrid=           0
         NMat0=    1 NMatS0=      1 NMatT0=    0 NMatD0=    1 NMtDS0=    0 NMtDT0=    0
 Petite list used in FoFCou.
 Harris En= -461.312717564636    
 Leave Link  401 at Thu Apr  2 15:25:19 2026, MaxMem=  1073741824 cpu:               3.4 elap:               0.9
 (Enter /Users/yarger/Applications/g16/l502.exe)
 Integral symmetry usage will be decided dynamically.
 Closed shell SCF:
 Using DIIS extrapolation, IDIIS=  1040.
 NGot=  1073741824 LenX=  1073446812 LenY=  1073301971
 Requested convergence on RMS density matrix=1.00D-08 within 128 cycles.
 Requested convergence on MAX density matrix=1.00D-06.
 Requested convergence on             energy=1.00D-06.
 No special actions if energy rises.
 Fock matrices will be formed incrementally for  20 cycles.

 Cycle   1  Pass 1  IDiag  1:
 FoFJK:  IHMeth= 1 ICntrl=       0 DoSepK=T KAlg= 0 I1Cent=           0 FoldK=F
 IRaf=         1 NMat=       1 IRICut=       1 DoRegI=T DoRafI=F ISym2E= 1 IDoP0=0 IntGTp=1.
 FoFCou: FMM=F IPFlag=           0 FMFlag=      100000 FMFlg1=           0
         NFxFlg=           0 DoJE=T BraDBF=F KetDBF=F FulRan=T
         wScrn=  0.000000 ICntrl=       500 IOpCl=  0 I1Cent=           0 NGrid=           0
         NMat0=    1 NMatS0=      1 NMatT0=    0 NMatD0=    1 NMtDS0=    0 NMtDT0=    0
 Petite list used in FoFCou.
 E= -476.848102118983    
 DIIS: error= 1.11D-03 at cycle   1 NSaved=   1.
 NSaved= 1 IEnMin= 1 EnMin= -476.848102118983     IErMin= 1 ErrMin= 1.11D-03
 ErrMax= 1.11D-03  0.00D+00 EMaxC= 1.00D-01 BMatC= 3.37D-04 BMatP= 3.37D-04
 IDIUse=3 WtCom= 9.89D-01 WtEn= 1.11D-02
 Coeff-Com:  0.100D+01
 Coeff-En:   0.100D+01
 Coeff:      0.100D+01
 Gap=     0.492 Goal=   None    Shift=    0.000
 GapD=    0.492 DampG=2.000 DampE=1.000 DampFc=2.0000 IDamp=-1.
 RMSDP=1.30D-04 MaxDP=6.75D-03              OVMax= 4.44D-03

 Cycle   2  Pass 1  IDiag  1:
 RMSU=  1.30D-04    CP:  9.99D-01
 E= -476.848428089756     Delta-E=       -0.000325970773 Rises=F Damp=F
 DIIS: error= 1.50D-04 at cycle   2 NSaved=   2.
 NSaved= 2 IEnMin= 2 EnMin= -476.848428089756     IErMin= 2 ErrMin= 1.50D-04
 ErrMax= 1.50D-04  0.00D+00 EMaxC= 1.00D-01 BMatC= 1.02D-05 BMatP= 3.37D-04
 IDIUse=3 WtCom= 9.99D-01 WtEn= 1.50D-03
 Coeff-Com: -0.946D-01 0.109D+01
 Coeff-En:   0.000D+00 0.100D+01
 Coeff:     -0.945D-01 0.109D+01
 Gap=     0.489 Goal=   None    Shift=    0.000
 RMSDP=2.18D-05 MaxDP=9.95D-04 DE=-3.26D-04 OVMax= 1.33D-03

 Cycle   3  Pass 1  IDiag  1:
 RMSU=  2.00D-05    CP:  9.99D-01  1.07D+00
 E= -476.848445008949     Delta-E=       -0.000016919194 Rises=F Damp=F
 DIIS: error= 7.14D-05 at cycle   3 NSaved=   3.
 NSaved= 3 IEnMin= 3 EnMin= -476.848445008949     IErMin= 3 ErrMin= 7.14D-05
 ErrMax= 7.14D-05  0.00D+00 EMaxC= 1.00D-01 BMatC= 2.97D-06 BMatP= 1.02D-05
 IDIUse=1 WtCom= 1.00D+00 WtEn= 0.00D+00
 Coeff-Com: -0.524D-01 0.369D+00 0.683D+00
 Coeff:     -0.524D-01 0.369D+00 0.683D+00
 Gap=     0.489 Goal=   None    Shift=    0.000
 RMSDP=4.11D-06 MaxDP=1.58D-04 DE=-1.69D-05 OVMax= 3.34D-04

 Cycle   4  Pass 1  IDiag  1:
 RMSU=  3.60D-06    CP:  9.99D-01  1.06D+00  1.09D+00
 E= -476.848446755256     Delta-E=       -0.000001746306 Rises=F Damp=F
 DIIS: error= 2.82D-05 at cycle   4 NSaved=   4.
 NSaved= 4 IEnMin= 4 EnMin= -476.848446755256     IErMin= 4 ErrMin= 2.82D-05
 ErrMax= 2.82D-05  0.00D+00 EMaxC= 1.00D-01 BMatC= 4.79D-07 BMatP= 2.97D-06
 IDIUse=1 WtCom= 1.00D+00 WtEn= 0.00D+00
 Coeff-Com:  0.153D-02-0.975D-01 0.243D+00 0.853D+00
 Coeff:      0.153D-02-0.975D-01 0.243D+00 0.853D+00
 Gap=     0.489 Goal=   None    Shift=    0.000
 RMSDP=2.96D-06 MaxDP=1.78D-04 DE=-1.75D-06 OVMax= 1.41D-04

 Cycle   5  Pass 1  IDiag  1:
 RMSU=  1.17D-06    CP:  9.99D-01  1.05D+00  1.22D+00  1.02D+00
 E= -476.848447103791     Delta-E=       -0.000000348535 Rises=F Damp=F
 DIIS: error= 6.30D-06 at cycle   5 NSaved=   5.
 NSaved= 5 IEnMin= 5 EnMin= -476.848447103791     IErMin= 5 ErrMin= 6.30D-06
 ErrMax= 6.30D-06  0.00D+00 EMaxC= 1.00D-01 BMatC= 1.40D-08 BMatP= 4.79D-07
 IDIUse=1 WtCom= 1.00D+00 WtEn= 0.00D+00
 Coeff-Com:  0.233D-02-0.429D-01 0.432D-01 0.258D+00 0.739D+00
 Coeff:      0.233D-02-0.429D-01 0.432D-01 0.258D+00 0.739D+00
 Gap=     0.489 Goal=   None    Shift=    0.000
 RMSDP=4.21D-07 MaxDP=2.05D-05 DE=-3.49D-07 OVMax= 3.03D-05

 Cycle   6  Pass 1  IDiag  1:
 RMSU=  2.25D-07    CP:  9.99D-01  1.05D+00  1.24D+00  1.05D+00  9.55D-01
 E= -476.848447115200     Delta-E=       -0.000000011409 Rises=F Damp=F
 DIIS: error= 1.75D-06 at cycle   6 NSaved=   6.
 NSaved= 6 IEnMin= 6 EnMin= -476.848447115200     IErMin= 6 ErrMin= 1.75D-06
 ErrMax= 1.75D-06  0.00D+00 EMaxC= 1.00D-01 BMatC= 1.08D-09 BMatP= 1.40D-08
 IDIUse=1 WtCom= 1.00D+00 WtEn= 0.00D+00
 Coeff-Com:  0.482D-03-0.416D-02-0.695D-02 0.517D-02 0.217D+00 0.789D+00
 Coeff:      0.482D-03-0.416D-02-0.695D-02 0.517D-02 0.217D+00 0.789D+00
 Gap=     0.489 Goal=   None    Shift=    0.000
 RMSDP=1.37D-07 MaxDP=6.68D-06 DE=-1.14D-08 OVMax= 7.48D-06

 Cycle   7  Pass 1  IDiag  1:
 RMSU=  7.42D-08    CP:  9.99D-01  1.05D+00  1.24D+00  1.06D+00  9.98D-01
                    CP:  9.79D-01
 E= -476.848447116038     Delta-E=       -0.000000000839 Rises=F Damp=F
 DIIS: error= 4.19D-07 at cycle   7 NSaved=   7.
 NSaved= 7 IEnMin= 7 EnMin= -476.848447116038     IErMin= 7 ErrMin= 4.19D-07
 ErrMax= 4.19D-07  0.00D+00 EMaxC= 1.00D-01 BMatC= 1.03D-10 BMatP= 1.08D-09
 IDIUse=1 WtCom= 1.00D+00 WtEn= 0.00D+00
 Coeff-Com:  0.250D-04 0.128D-02-0.508D-02-0.150D-01 0.296D-01 0.270D+00
 Coeff-Com:  0.719D+00
 Coeff:      0.250D-04 0.128D-02-0.508D-02-0.150D-01 0.296D-01 0.270D+00
 Coeff:      0.719D+00
 Gap=     0.489 Goal=   None    Shift=    0.000
 RMSDP=2.74D-08 MaxDP=1.17D-06 DE=-8.39D-10 OVMax= 2.16D-06

 Cycle   8  Pass 1  IDiag  1:
 RMSU=  2.01D-08    CP:  9.99D-01  1.05D+00  1.24D+00  1.06D+00  1.00D+00
                    CP:  1.01D+00  1.05D+00
 E= -476.848447116110     Delta-E=       -0.000000000071 Rises=F Damp=F
 DIIS: error= 1.98D-07 at cycle   8 NSaved=   8.
 NSaved= 8 IEnMin= 8 EnMin= -476.848447116110     IErMin= 8 ErrMin= 1.98D-07
 ErrMax= 1.98D-07  0.00D+00 EMaxC= 1.00D-01 BMatC= 1.77D-11 BMatP= 1.03D-10
 IDIUse=1 WtCom= 1.00D+00 WtEn= 0.00D+00
 Coeff-Com: -0.508D-04 0.115D-02-0.161D-02-0.796D-02-0.117D-01 0.281D-01
 Coeff-Com:  0.321D+00 0.671D+00
 Coeff:     -0.508D-04 0.115D-02-0.161D-02-0.796D-02-0.117D-01 0.281D-01
 Coeff:      0.321D+00 0.671D+00
 Gap=     0.489 Goal=   None    Shift=    0.000
 RMSDP=9.34D-09 MaxDP=3.99D-07 DE=-7.14D-11 OVMax= 7.00D-07

 SCF Done:  E(RwB97XD) =  -476.848447116     A.U. after    8 cycles
            NFock=  8  Conv=0.93D-08     -V/T= 2.0049
 KE= 4.745301435412D+02 PE=-1.677899601372D+03 EE= 4.537336656405D+02
 Leave Link  502 at Thu Apr  2 15:26:25 2026, MaxMem=  1073741824 cpu:             264.8 elap:              66.4
 (Enter /Users/yarger/Applications/g16/l701.exe)
 ... and contract with generalized density number  0.
 Compute integral first derivatives.
 R6Disp: Adding Grimme-D2 dispersion energy 1st derivatives to the gradient.
 Leave Link  701 at Thu Apr  2 15:26:25 2026, MaxMem=  1073741824 cpu:               0.5 elap:               0.1
 (Enter /Users/yarger/Applications/g16/l702.exe)
 L702 exits ... SP integral derivatives will be done elsewhere.
 Leave Link  702 at Thu Apr  2 15:26:25 2026, MaxMem=  1073741824 cpu:               0.0 elap:               0.0
 (Enter /Users/yarger/Applications/g16/l703.exe)
 Integral derivatives from FoFJK, PRISM(SPDF).
 Compute integral first derivatives, UseDBF=F ICtDFT=           0.
 Calling FoFJK, ICntrl=      2127 FMM=F ISym2X=1 I1Cent= 0 IOpClX= 0 NMat=1 NMatS=1 NMatT=0.
 FoFJK:  IHMeth= 1 ICntrl=    2127 DoSepK=T KAlg= 0 I1Cent=           0 FoldK=F
 IRaf=         1 NMat=       1 IRICut=       1 DoRegI=T DoRafI=F ISym2E= 1 IDoP0=0 IntGTp=1.
 FoFCou: FMM=F IPFlag=           0 FMFlag=      100000 FMFlg1=         800
         NFxFlg=           0 DoJE=F BraDBF=F KetDBF=F FulRan=T
         wScrn=  0.000000 ICntrl=      2527 IOpCl=  0 I1Cent=           0 NGrid=           0
         NMat0=    1 NMatS0=      1 NMatT0=    0 NMatD0=    1 NMtDS0=    0 NMtDT0=    0
 Petite list used in FoFCou.
 Leave Link  703 at Thu Apr  2 15:26:59 2026, MaxMem=  1073741824 cpu:             132.2 elap:              33.2
 (Enter /Users/yarger/Applications/g16/l716.exe)
 Dipole        = 5.18180201D-01 6.03578254D-01-4.21884749D-15
 ***** Axes restored to original set *****
 -------------------------------------------------------------------
 Center     Atomic                   Forces (Hartrees/Bohr)
 Number     Number              X              Y              Z
 -------------------------------------------------------------------
      1        6           0.000231316    0.000889055   -0.001768664
      2        1          -0.000652858   -0.000715870    0.000257283
      3        6          -0.000286894   -0.000832372    0.001760927
      4        9          -0.000187159   -0.000467517   -0.000547250
      5        9           0.000625002    0.000403043   -0.000003427
      6        9           0.000685461    0.000214526   -0.001367103
      7        9          -0.000722934    0.000194984    0.000767517
      8        1           0.000308066    0.000314150    0.000900718
 -------------------------------------------------------------------
 Cartesian Forces:  Max     0.001768664 RMS     0.000777245
 Leave Link  716 at Thu Apr  2 15:26:59 2026, MaxMem=  1073741824 cpu:               0.1 elap:               0.0
 (Enter /Users/yarger/Applications/g16/l103.exe)

 GradGradGradGradGradGradGradGradGradGradGradGradGradGradGradGradGradGrad
 Berny optimization.
 Using GEDIIS/GDIIS optimizer.
 FormGI is forming the generalized inverse of G from B-inverse, IUseBI=4.
 Internal  Forces:  Max     0.001532648 RMS     0.000602148
 Search for a local minimum.
 Step number   3 out of a maximum of   38
 All quantities printed in internal units (Hartrees-Bohrs-Radians)
 RMS Force = .60215D-03 SwitMx=.10000D-02 MixMth= 2
 Mixed Optimization -- En-DIIS/RFO-DIIS
 Update second derivatives using D2CorX and points    1    2    3
 DE= -2.87D-04 DEPred=-3.06D-04 R= 9.39D-01
 TightC=F SS=  1.41D+00  RLast= 4.24D-02 DXNew= 6.8988D-01 1.2721D-01
 Trust test= 9.39D-01 RLast= 4.24D-02 DXMaxT set to 4.10D-01
 ITU=  1  1  0
 Use linear search instead of GDIIS.
     Eigenvalues ---    0.00237   0.05768   0.06088   0.08142   0.08681
     Eigenvalues ---    0.16000   0.16035   0.21448   0.24096   0.25000
     Eigenvalues ---    0.28352   0.37083   0.37230   0.37707   0.53191
     Eigenvalues ---    0.55021   0.55226   0.57062
 RFO step:  Lambda=-2.62337594D-05 EMin= 2.36824250D-03
 Quartic linear search produced a step of -0.05634.
 Iteration  1 RMS(Cart)=  0.00314672 RMS(Int)=  0.00000624
 Iteration  2 RMS(Cart)=  0.00000439 RMS(Int)=  0.00000413
 Iteration  3 RMS(Cart)=  0.00000000 RMS(Int)=  0.00000413
 ITry= 1 IFail=0 DXMaxC= 7.46D-03 DCOld= 1.00D+10 DXMaxT= 4.10D-01 DXLimC= 3.00D+00 Rises=F
 ClnCor:  largest displacement from symmetrization is 1.01D-11 for atom     5.
 Variable       Old X    -DE/DX   Delta X   Delta X   Delta X     New X
                                 (Linear)    (Quad)   (Total)
    R1        2.06255  -0.00089  -0.00015  -0.00195  -0.00209   2.06046
    R2        2.86860   0.00109   0.00059   0.00240   0.00299   2.87159
    R3        2.57917   0.00092  -0.00023   0.00200   0.00177   2.58094
    R4        2.06255  -0.00089  -0.00015  -0.00195  -0.00209   2.06046
    R5        2.52199  -0.00055   0.00000  -0.00093  -0.00093   2.52106
    R6        2.52199  -0.00055   0.00000  -0.00093  -0.00093   2.52106
    R7        2.52792   0.00153  -0.00021   0.00302   0.00281   2.53073
    A1        1.89437   0.00042  -0.00007   0.00294   0.00287   1.89723
    A2        1.91599  -0.00063   0.00024  -0.00402  -0.00379   1.91220
    A3        1.92769  -0.00036  -0.00010  -0.00124  -0.00135   1.92634
    A4        1.91516   0.00082  -0.00025   0.00363   0.00337   1.91854
    A5        1.89437   0.00042  -0.00007   0.00294   0.00287   1.89723
    A6        1.91599  -0.00063   0.00024  -0.00402  -0.00379   1.91220
    A7        1.95090   0.00065   0.00063   0.00113   0.00176   1.95267
    A8        1.95090   0.00065   0.00063   0.00113   0.00176   1.95267
    A9        1.90277   0.00009   0.00128  -0.00223  -0.00094   1.90183
   A10        1.88327  -0.00071  -0.00091  -0.00080  -0.00170   1.88156
   A11        1.88695  -0.00038  -0.00089   0.00038  -0.00051   1.88644
   A12        1.88695  -0.00038  -0.00089   0.00038  -0.00051   1.88644
    D1        1.03720  -0.00003   0.00023  -0.00124  -0.00101   1.03618
    D2       -3.13289  -0.00002  -0.00004  -0.00067  -0.00071  -3.13360
    D3       -1.04785  -0.00003   0.00010  -0.00096  -0.00086  -1.04871
    D4       -1.05655  -0.00000   0.00014  -0.00028  -0.00015  -1.05670
    D5        1.05655   0.00000  -0.00014   0.00028   0.00015   1.05670
    D6        3.14159   0.00000   0.00000   0.00000  -0.00000   3.14159
    D7        3.13289   0.00002   0.00004   0.00067   0.00071   3.13360
    D8       -1.03720   0.00003  -0.00023   0.00124   0.00101  -1.03618
    D9        1.04785   0.00003  -0.00010   0.00096   0.00086   1.04871
         Item               Value     Threshold  Converged?
 Maximum Force            0.001533     0.000015     NO 
 RMS     Force            0.000602     0.000010     NO 
 Maximum Displacement     0.007458     0.000060     NO 
 RMS     Displacement     0.003147     0.000040     NO 
 Predicted change in Energy=-1.414839D-05
 Lowest energy point so far.  Saving SCF results.
 GradGradGradGradGradGradGradGradGradGradGradGradGradGradGradGradGradGrad

 Leave Link  103 at Thu Apr  2 15:26:59 2026, MaxMem=  1073741824 cpu:               0.0 elap:               0.0
 (Enter /Users/yarger/Applications/g16/l202.exe)
                          Input orientation:                          
 ---------------------------------------------------------------------
 Center     Atomic      Atomic             Coordinates (Angstroms)
 Number     Number       Type             X           Y           Z
 ---------------------------------------------------------------------
      1          6           0       -1.501143    1.409410    1.458430
      2          1           0       -1.159136    2.444643    1.445019
      3          6           0       -0.321783    0.502554    1.148849
      4          9           0        0.664477    0.649562    2.035115
      5          9           0       -0.673261   -0.784366    1.139365
      6          9           0        0.158455    0.811280   -0.062566
      7          9           0       -2.006749    1.110804    2.691528
      8          1           0       -2.270039    1.253862    0.701158
 ---------------------------------------------------------------------
                    Distance matrix (angstroms):
                    1          2          3          4          5
     1  C    0.000000
     2  H    1.090347   0.000000
     3  C    1.519579   2.135554   0.000000
     4  F    2.366399   2.626042   1.334087   0.000000
     5  F    2.366399   3.279634   1.334087   2.155935   0.000000
     6  F    2.329261   2.583938   1.339204   2.163903   2.163903
     7  F    1.365773   2.012799   2.364093   2.789098   2.789098
     8  H    1.090347   1.790362   2.135554   3.279634   2.626042
                    6          7          8
     6  F    0.000000
     7  F    3.516086   0.000000
     8  H    2.583938   2.012799   0.000000
 Stoichiometry    C2H2F4
 Framework group  CS[SG(C2F2),X(H2F2)]
 Deg. of freedom    11
 Full point group                 CS      NOp   2
 RotChk:  IX=2 Diff= 1.29D-03
 Largest Abelian subgroup         CS      NOp   2
 Largest concise Abelian subgroup CS      NOp   2
                         Standard orientation:                         
 ---------------------------------------------------------------------
 Center     Atomic      Atomic             Coordinates (Angstroms)
 Number     Number       Type             X           Y           Z
 ---------------------------------------------------------------------
      1          6           0        1.155202    0.239944    0.000000
      2          1           0        1.487666    0.766228   -0.895181
      3          6           0       -0.363551    0.189827   -0.000000
      4          9           0       -0.840359   -0.435015   -1.077968
      5          9           0       -0.840359   -0.435015    1.077968
      6          9           0       -0.840359    1.441275    0.000000
      7          9           0        1.662716   -1.028032    0.000000
      8          1           0        1.487666    0.766228    0.895181
 ---------------------------------------------------------------------
 Rotational constants (GHZ):           5.3627347           2.7922802           2.7511941
 Leave Link  202 at Thu Apr  2 15:26:59 2026, MaxMem=  1073741824 cpu:               0.0 elap:               0.0
 (Enter /Users/yarger/Applications/g16/l301.exe)
 Standard basis: Aug-CC-pVTZ (5D, 7F)
 Ernie: Thresh=  0.10000D-02 Tol=  0.10000D-05 Strict=F.
 Ernie:  18 primitive shells out of 202 were deleted.
 There are   228 symmetry adapted cartesian basis functions of A'  symmetry.
 There are   152 symmetry adapted cartesian basis functions of A"  symmetry.
 There are   189 symmetry adapted basis functions of A'  symmetry.
 There are   133 symmetry adapted basis functions of A"  symmetry.
   322 basis functions,   486 primitive gaussians,   380 cartesian basis functions
    25 alpha electrons       25 beta electrons
       nuclear repulsion energy       272.6111148010 Hartrees.
 IExCor= 4639 DFT=T Ex+Corr=wB97XD ExCW=0 ScaHFX=  1.000000
 ScaDFX=  1.000000  1.000000  1.000000  1.000000 ScalE2=  1.000000  1.000000
 IRadAn=      5 IRanWt=     -1 IRanGd=            0 ICorTp=0 IEmpDi=121
 HFx  wShort=  0.000000 wLong=  0.200000 cFull=  0.222036 cShort=  0.000000 cLong=  0.777964
 DFx  wShort=  0.000000 wLong=  0.200000 cFull=  0.000000 cShort=  0.000000 cLong=  1.000000
 NAtoms=    8 NActive=    8 NUniq=    6 SFac= 1.78D+00 NAtFMM=   60 NAOKFM=F Big=F
 Integral buffers will be    131072 words long.
 Raffenetti 2 integral format.
 Two-electron integral symmetry is turned on.
 R6Disp:  Grimme-D2 Dispersion energy=       -0.0021558513 Hartrees.
 Nuclear repulsion after empirical dispersion term =      272.6089589497 Hartrees.
 Leave Link  301 at Thu Apr  2 15:26:59 2026, MaxMem=  1073741824 cpu:               0.1 elap:               0.0
 (Enter /Users/yarger/Applications/g16/l302.exe)
 NPDir=0 NMtPBC=     1 NCelOv=     1 NCel=       1 NClECP=     1 NCelD=      1
         NCelK=      1 NCelE2=     1 NClLst=     1 CellRange=     0.0.
 One-electron integrals computed using PRISM.
 One-electron integral symmetry used in STVInt
 NBasis=   322 RedAO= T EigKep=  2.37D-05  NBF=   189   133
 NBsUse=   322 1.00D-06 EigRej= -1.00D+00 NBFU=   189   133
 Precomputing XC quadrature grid using
 IXCGrd= 4 IRadAn=           5 IRanWt=          -1 IRanGd=           0 AccXCQ= 0.00D+00.
 Generated NRdTot=       0 NPtTot=           0 NUsed=           0 NTot=          32
 NSgBfM=   380   380   380   380   380 MxSgAt=     8 MxSgA2=     8.
 Leave Link  302 at Thu Apr  2 15:26:59 2026, MaxMem=  1073741824 cpu:               0.6 elap:               0.2
 (Enter /Users/yarger/Applications/g16/l303.exe)
 DipDrv:  MaxL=1.
 Leave Link  303 at Thu Apr  2 15:26:59 2026, MaxMem=  1073741824 cpu:               0.1 elap:               0.0
 (Enter /Users/yarger/Applications/g16/l401.exe)
 Initial guess from the checkpoint file:  "1112Tetrafluoroethane_Opt_Freq_DFT_WB97XD_pVTZ_Gaussian16.chk"
 B after Tr=    -0.000000   -0.000000    0.000000
         Rot=    1.000000    0.000000   -0.000000   -0.000756 Ang=  -0.09 deg.
 Guess basis will be translated and rotated to current coordinates.
 JPrj=2 DoOrth=T DoCkMO=T.
 Initial guess orbital symmetries:
       Occupied  (A') (A") (A') (A') (A') (A') (A') (A') (A") (A')
                 (A') (A') (A') (A") (A') (A') (A") (A') (A") (A')
                 (A') (A") (A") (A") (A')
       Virtual   (A') (A") (A') (A') (A') (A") (A') (A') (A") (A')
                 (A") (A') (A') (A") (A') (A') (A") (A') (A") (A')
                 (A') (A") (A') (A') (A") (A') (A") (A') (A') (A")
                 (A') (A") (A') (A') (A") (A') (A') (A') (A") (A')
                 (A') (A") (A") (A') (A") (A') (A') (A") (A') (A')
                 (A') (A') (A") (A") (A') (A") (A') (A') (A") (A')
                 (A") (A') (A") (A') (A') (A") (A") (A') (A') (A")
                 (A") (A') (A') (A') (A") (A') (A") (A') (A") (A")
                 (A') (A") (A') (A") (A') (A') (A") (A') (A') (A")
                 (A') (A") (A') (A') (A") (A') (A') (A') (A") (A")
                 (A') (A') (A") (A') (A') (A") (A") (A') (A') (A")
                 (A') (A") (A') (A') (A") (A") (A") (A') (A') (A")
                 (A') (A") (A') (A") (A') (A') (A') (A") (A") (A')
                 (A') (A") (A') (A') (A') (A") (A") (A') (A") (A')
                 (A') (A") (A') (A') (A") (A') (A") (A') (A') (A')
                 (A") (A") (A') (A") (A") (A') (A') (A") (A') (A")
                 (A') (A") (A') (A') (A") (A') (A") (A') (A') (A")
                 (A') (A") (A') (A") (A') (A') (A") (A') (A") (A")
                 (A') (A') (A') (A") (A") (A") (A') (A") (A') (A")
                 (A') (A") (A') (A") (A') (A") (A') (A') (A') (A")
                 (A') (A') (A") (A') (A') (A") (A') (A") (A') (A')
                 (A') (A") (A') (A") (A") (A') (A') (A") (A') (A')
                 (A") (A") (A') (A") (A') (A') (A") (A") (A') (A')
                 (A") (A') (A") (A') (A") (A") (A') (A') (A") (A')
                 (A') (A") (A') (A') (A") (A") (A') (A") (A') (A")
                 (A') (A') (A") (A') (A") (A') (A') (A") (A") (A')
                 (A") (A') (A') (A") (A') (A") (A") (A') (A") (A')
                 (A") (A') (A') (A") (A') (A') (A') (A") (A") (A')
                 (A') (A") (A") (A') (A") (A') (A") (A') (A') (A')
                 (A") (A') (A') (A') (A") (A') (A')
 The electronic state of the initial guess is 1-A'.
 Leave Link  401 at Thu Apr  2 15:26:59 2026, MaxMem=  1073741824 cpu:               0.7 elap:               0.2
 (Enter /Users/yarger/Applications/g16/l502.exe)
 Integral symmetry usage will be decided dynamically.
 Closed shell SCF:
 Using DIIS extrapolation, IDIIS=  1040.
 NGot=  1073741824 LenX=  1073446812 LenY=  1073301971
 Requested convergence on RMS density matrix=1.00D-08 within 128 cycles.
 Requested convergence on MAX density matrix=1.00D-06.
 Requested convergence on             energy=1.00D-06.
 No special actions if energy rises.
 Fock matrices will be formed incrementally for  20 cycles.

 Cycle   1  Pass 1  IDiag  1:
 FoFJK:  IHMeth= 1 ICntrl=       0 DoSepK=T KAlg= 0 I1Cent=           0 FoldK=F
 IRaf=         1 NMat=       1 IRICut=       1 DoRegI=T DoRafI=F ISym2E= 1 IDoP0=0 IntGTp=1.
 FoFCou: FMM=F IPFlag=           0 FMFlag=      100000 FMFlg1=           0
         NFxFlg=           0 DoJE=T BraDBF=F KetDBF=F FulRan=T
         wScrn=  0.000000 ICntrl=       500 IOpCl=  0 I1Cent=           0 NGrid=           0
         NMat0=    1 NMatS0=      1 NMatT0=    0 NMatD0=    1 NMtDS0=    0 NMtDT0=    0
 Petite list used in FoFCou.
 E= -476.848450506801    
 DIIS: error= 1.23D-04 at cycle   1 NSaved=   1.
 NSaved= 1 IEnMin= 1 EnMin= -476.848450506801     IErMin= 1 ErrMin= 1.23D-04
 ErrMax= 1.23D-04  0.00D+00 EMaxC= 1.00D-01 BMatC= 1.11D-05 BMatP= 1.11D-05
 IDIUse=3 WtCom= 9.99D-01 WtEn= 1.23D-03
 Coeff-Com:  0.100D+01
 Coeff-En:   0.100D+01
 Coeff:      0.100D+01
 Gap=     0.490 Goal=   None    Shift=    0.000
 RMSDP=2.51D-05 MaxDP=1.34D-03              OVMax= 9.10D-04

 Cycle   2  Pass 1  IDiag  1:
 RMSU=  2.51D-05    CP:  1.00D+00
 E= -476.848461659321     Delta-E=       -0.000011152519 Rises=F Damp=F
 DIIS: error= 3.03D-05 at cycle   2 NSaved=   2.
 NSaved= 2 IEnMin= 2 EnMin= -476.848461659321     IErMin= 2 ErrMin= 3.03D-05
 ErrMax= 3.03D-05  0.00D+00 EMaxC= 1.00D-01 BMatC= 4.01D-07 BMatP= 1.11D-05
 IDIUse=1 WtCom= 1.00D+00 WtEn= 0.00D+00
 Coeff-Com: -0.607D-01 0.106D+01
 Coeff:     -0.607D-01 0.106D+01
 Gap=     0.489 Goal=   None    Shift=    0.000
 RMSDP=3.65D-06 MaxDP=2.98D-04 DE=-1.12D-05 OVMax= 2.40D-04

 Cycle   3  Pass 1  IDiag  1:
 RMSU=  3.17D-06    CP:  1.00D+00  1.07D+00
 E= -476.848462184786     Delta-E=       -0.000000525465 Rises=F Damp=F
 DIIS: error= 1.52D-05 at cycle   3 NSaved=   3.
 NSaved= 3 IEnMin= 3 EnMin= -476.848462184786     IErMin= 3 ErrMin= 1.52D-05
 ErrMax= 1.52D-05  0.00D+00 EMaxC= 1.00D-01 BMatC= 1.54D-07 BMatP= 4.01D-07
 IDIUse=1 WtCom= 1.00D+00 WtEn= 0.00D+00
 Coeff-Com: -0.481D-01 0.391D+00 0.657D+00
 Coeff:     -0.481D-01 0.391D+00 0.657D+00
 Gap=     0.489 Goal=   None    Shift=    0.000
 RMSDP=8.88D-07 MaxDP=3.94D-05 DE=-5.25D-07 OVMax= 8.42D-05

 Cycle   4  Pass 1  IDiag  1:
 RMSU=  8.44D-07    CP:  1.00D+00  1.08D+00  1.05D+00
 E= -476.848462280599     Delta-E=       -0.000000095813 Rises=F Damp=F
 DIIS: error= 4.97D-06 at cycle   4 NSaved=   4.
 NSaved= 4 IEnMin= 4 EnMin= -476.848462280599     IErMin= 4 ErrMin= 4.97D-06
 ErrMax= 4.97D-06  0.00D+00 EMaxC= 1.00D-01 BMatC= 2.07D-08 BMatP= 1.54D-07
 IDIUse=1 WtCom= 1.00D+00 WtEn= 0.00D+00
 Coeff-Com: -0.100D-01-0.259D-02 0.252D+00 0.761D+00
 Coeff:     -0.100D-01-0.259D-02 0.252D+00 0.761D+00
 Gap=     0.489 Goal=   None    Shift=    0.000
 RMSDP=3.86D-07 MaxDP=1.78D-05 DE=-9.58D-08 OVMax= 2.76D-05

 Cycle   5  Pass 1  IDiag  1:
 RMSU=  2.50D-07    CP:  1.00D+00  1.08D+00  1.15D+00  9.78D-01
 E= -476.848462294347     Delta-E=       -0.000000013748 Rises=F Damp=F
 DIIS: error= 1.55D-06 at cycle   5 NSaved=   5.
 NSaved= 5 IEnMin= 5 EnMin= -476.848462294347     IErMin= 5 ErrMin= 1.55D-06
 ErrMax= 1.55D-06  0.00D+00 EMaxC= 1.00D-01 BMatC= 1.67D-09 BMatP= 2.07D-08
 IDIUse=1 WtCom= 1.00D+00 WtEn= 0.00D+00
 Coeff-Com:  0.881D-03-0.393D-01 0.267D-01 0.265D+00 0.747D+00
 Coeff:      0.881D-03-0.393D-01 0.267D-01 0.265D+00 0.747D+00
 Gap=     0.489 Goal=   None    Shift=    0.000
 RMSDP=1.40D-07 MaxDP=7.54D-06 DE=-1.37D-08 OVMax= 1.17D-05

 Cycle   6  Pass 1  IDiag  1:
 RMSU=  9.24D-08    CP:  1.00D+00  1.08D+00  1.18D+00  1.02D+00  1.00D+00
 E= -476.848462295678     Delta-E=       -0.000000001331 Rises=F Damp=F
 DIIS: error= 3.71D-07 at cycle   6 NSaved=   6.
 NSaved= 6 IEnMin= 6 EnMin= -476.848462295678     IErMin= 6 ErrMin= 3.71D-07
 ErrMax= 3.71D-07  0.00D+00 EMaxC= 1.00D-01 BMatC= 8.04D-11 BMatP= 1.67D-09
 IDIUse=1 WtCom= 1.00D+00 WtEn= 0.00D+00
 Coeff-Com:  0.109D-02-0.113D-01-0.115D-01 0.130D-01 0.196D+00 0.812D+00
 Coeff:      0.109D-02-0.113D-01-0.115D-01 0.130D-01 0.196D+00 0.812D+00
 Gap=     0.489 Goal=   None    Shift=    0.000
 RMSDP=3.59D-08 MaxDP=1.77D-06 DE=-1.33D-09 OVMax= 3.25D-06

 Cycle   7  Pass 1  IDiag  1:
 RMSU=  2.11D-08    CP:  1.00D+00  1.08D+00  1.18D+00  1.03D+00  1.07D+00
                    CP:  1.00D+00
 E= -476.848462295760     Delta-E=       -0.000000000083 Rises=F Damp=F
 DIIS: error= 7.54D-08 at cycle   7 NSaved=   7.
 NSaved= 7 IEnMin= 7 EnMin= -476.848462295760     IErMin= 7 ErrMin= 7.54D-08
 ErrMax= 7.54D-08  0.00D+00 EMaxC= 1.00D-01 BMatC= 2.70D-12 BMatP= 8.04D-11
 IDIUse=1 WtCom= 1.00D+00 WtEn= 0.00D+00
 Coeff-Com: -0.167D-04 0.168D-02-0.173D-02-0.130D-01-0.357D-01 0.472D-01
 Coeff-Com:  0.100D+01
 Coeff:     -0.167D-04 0.168D-02-0.173D-02-0.130D-01-0.357D-01 0.472D-01
 Coeff:      0.100D+01
 Gap=     0.489 Goal=   None    Shift=    0.000
 RMSDP=1.07D-08 MaxDP=5.42D-07 DE=-8.25D-11 OVMax= 1.11D-06

 Cycle   8  Pass 1  IDiag  1:
 RMSU=  5.68D-09    CP:  1.00D+00  1.08D+00  1.19D+00  1.03D+00  1.08D+00
                    CP:  1.07D+00  1.17D+00
 E= -476.848462295752     Delta-E=        0.000000000008 Rises=F Damp=F
 DIIS: error= 3.74D-08 at cycle   8 NSaved=   8.
 NSaved= 8 IEnMin= 7 EnMin= -476.848462295760     IErMin= 8 ErrMin= 3.74D-08
 ErrMax= 3.74D-08  0.00D+00 EMaxC= 1.00D-01 BMatC= 6.70D-13 BMatP= 2.70D-12
 IDIUse=1 WtCom= 1.00D+00 WtEn= 0.00D+00
 Coeff-Com: -0.553D-04 0.125D-02-0.220D-03-0.615D-02-0.247D-01-0.264D-01
 Coeff-Com:  0.405D+00 0.651D+00
 Coeff:     -0.553D-04 0.125D-02-0.220D-03-0.615D-02-0.247D-01-0.264D-01
 Coeff:      0.405D+00 0.651D+00
 Gap=     0.489 Goal=   None    Shift=    0.000
 RMSDP=2.02D-09 MaxDP=6.45D-08 DE= 8.41D-12 OVMax= 2.49D-07

 SCF Done:  E(RwB97XD) =  -476.848462296     A.U. after    8 cycles
            NFock=  8  Conv=0.20D-08     -V/T= 2.0049
 KE= 4.745270834486D+02 PE=-1.677540621024D+03 EE= 4.535561163297D+02
 Leave Link  502 at Thu Apr  2 15:28:05 2026, MaxMem=  1073741824 cpu:             264.1 elap:              66.1
 (Enter /Users/yarger/Applications/g16/l701.exe)
 ... and contract with generalized density number  0.
 Compute integral first derivatives.
 R6Disp: Adding Grimme-D2 dispersion energy 1st derivatives to the gradient.
 Leave Link  701 at Thu Apr  2 15:28:06 2026, MaxMem=  1073741824 cpu:               0.5 elap:               0.1
 (Enter /Users/yarger/Applications/g16/l702.exe)
 L702 exits ... SP integral derivatives will be done elsewhere.
 Leave Link  702 at Thu Apr  2 15:28:06 2026, MaxMem=  1073741824 cpu:               0.1 elap:               0.0
 (Enter /Users/yarger/Applications/g16/l703.exe)
 Integral derivatives from FoFJK, PRISM(SPDF).
 Compute integral first derivatives, UseDBF=F ICtDFT=           0.
 Calling FoFJK, ICntrl=      2127 FMM=F ISym2X=1 I1Cent= 0 IOpClX= 0 NMat=1 NMatS=1 NMatT=0.
 FoFJK:  IHMeth= 1 ICntrl=    2127 DoSepK=T KAlg= 0 I1Cent=           0 FoldK=F
 IRaf=         1 NMat=       1 IRICut=       1 DoRegI=T DoRafI=F ISym2E= 1 IDoP0=0 IntGTp=1.
 FoFCou: FMM=F IPFlag=           0 FMFlag=      100000 FMFlg1=         800
         NFxFlg=           0 DoJE=F BraDBF=F KetDBF=F FulRan=T
         wScrn=  0.000000 ICntrl=      2527 IOpCl=  0 I1Cent=           0 NGrid=           0
         NMat0=    1 NMatS0=      1 NMatT0=    0 NMatD0=    1 NMtDS0=    0 NMtDT0=    0
 Petite list used in FoFCou.
 Leave Link  703 at Thu Apr  2 15:28:40 2026, MaxMem=  1073741824 cpu:             136.4 elap:              34.3
 (Enter /Users/yarger/Applications/g16/l716.exe)
 Dipole        = 5.17312578D-01 6.01530386D-01-2.44249065D-15
 ***** Axes restored to original set *****
 -------------------------------------------------------------------
 Center     Atomic                   Forces (Hartrees/Bohr)
 Number     Number              X              Y              Z
 -------------------------------------------------------------------
      1        6           0.000025261    0.000454554   -0.000765381
      2        1           0.000009854   -0.000214184   -0.000011870
      3        6          -0.000275296   -0.000429694    0.001098995
      4        9          -0.000159475   -0.000012877   -0.000306806
      5        9           0.000132142    0.000299709   -0.000111539
      6        9           0.000173545    0.000131259   -0.000469299
      7        9          -0.000091202   -0.000202506    0.000460377
      8        1           0.000185171   -0.000026261    0.000105523
 -------------------------------------------------------------------
 Cartesian Forces:  Max     0.001098995 RMS     0.000360661
 Leave Link  716 at Thu Apr  2 15:28:40 2026, MaxMem=  1073741824 cpu:               0.1 elap:               0.0
 (Enter /Users/yarger/Applications/g16/l103.exe)

 GradGradGradGradGradGradGradGradGradGradGradGradGradGradGradGradGradGrad
 Berny optimization.
 Using GEDIIS/GDIIS optimizer.
 FormGI is forming the generalized inverse of G from B-inverse, IUseBI=4.
 Internal  Forces:  Max     0.000517600 RMS     0.000189279
 Search for a local minimum.
 Step number   4 out of a maximum of   38
 All quantities printed in internal units (Hartrees-Bohrs-Radians)
 RMS Force = .18928D-03 SwitMx=.10000D-02 MixMth= 2
 Mixed Optimization -- En-DIIS/RFO-DIIS
 Swapping is turned off.
 Update second derivatives using D2CorX and points    1    2    3    4
 DE= -1.52D-05 DEPred=-1.41D-05 R= 1.07D+00
 TightC=F SS=  1.41D+00  RLast= 1.02D-02 DXNew= 6.8988D-01 3.0586D-02
 Trust test= 1.07D+00 RLast= 1.02D-02 DXMaxT set to 4.10D-01
 ITU=  1  1  1  0
     Eigenvalues ---    0.00237   0.05737   0.05975   0.07887   0.08678
     Eigenvalues ---    0.16000   0.17055   0.21279   0.24574   0.25000
     Eigenvalues ---    0.30334   0.34594   0.37230   0.38952   0.44831
     Eigenvalues ---    0.54787   0.55021   0.57110
 En-DIIS/RFO-DIIS/Sim-DIIS IScMMF=       -3 using points:     4    3
 RFO step:  Lambda=-3.38809116D-06.
 NNeg= 0 NGDIIS= 2 SimSw=  2.50D-01 Rises=F DC= -1.52D-05 SmlDif=  1.00D-05
 NRisDI= 0 DoIntr=F SqrtH=F CThrHd= 10.0 CDAdj=  3.0
 RMS Error=  0.8128717222D-03 NUsed= 2 OKEnD=T EnDIS=F
 InvSVX:  RCond= 2.60D-05 Info=           0 Equed=N FErr=  1.47D-15 BErr=  2.04D-17
 DidBck=F Rises=F RFO-DIIS coefs:    1.12137   -0.12137
 Iteration  1 RMS(Cart)=  0.00061523 RMS(Int)=  0.00000075
 Iteration  2 RMS(Cart)=  0.00000055 RMS(Int)=  0.00000057
 ITry= 1 IFail=0 DXMaxC= 1.58D-03 DCOld= 1.00D+10 DXMaxT= 4.10D-01 DXLimC= 3.00D+00 Rises=F
 ClnCor:  largest displacement from symmetrization is 1.54D-09 for atom     7.
 Variable       Old X    -DE/DX   Delta X   Delta X   Delta X     New X
                                 (Linear)    (Quad)   (Total)
    R1        2.06046  -0.00020  -0.00025  -0.00049  -0.00074   2.05971
    R2        2.87159  -0.00014   0.00036  -0.00075  -0.00038   2.87120
    R3        2.58094   0.00049   0.00021   0.00112   0.00134   2.58227
    R4        2.06046  -0.00020  -0.00025  -0.00049  -0.00074   2.05971
    R5        2.52106  -0.00032  -0.00011  -0.00071  -0.00082   2.52024
    R6        2.52106  -0.00032  -0.00011  -0.00071  -0.00082   2.52024
    R7        2.53073   0.00052   0.00034   0.00107   0.00141   2.53214
    A1        1.89723  -0.00006   0.00035  -0.00042  -0.00007   1.89716
    A2        1.91220   0.00013  -0.00046   0.00054   0.00008   1.91228
    A3        1.92634   0.00008  -0.00016   0.00073   0.00056   1.92690
    A4        1.91854  -0.00022   0.00041  -0.00100  -0.00059   1.91795
    A5        1.89723  -0.00006   0.00035  -0.00042  -0.00007   1.89716
    A6        1.91220   0.00013  -0.00046   0.00054   0.00008   1.91228
    A7        1.95267   0.00013   0.00021   0.00069   0.00090   1.95357
    A8        1.95267   0.00013   0.00021   0.00069   0.00090   1.95357
    A9        1.90183  -0.00011  -0.00011  -0.00132  -0.00143   1.90040
   A10        1.88156  -0.00004  -0.00021   0.00080   0.00059   1.88215
   A11        1.88644  -0.00006  -0.00006  -0.00046  -0.00052   1.88592
   A12        1.88644  -0.00006  -0.00006  -0.00046  -0.00052   1.88592
    D1        1.03618  -0.00009  -0.00012  -0.00120  -0.00132   1.03486
    D2       -3.13360   0.00006  -0.00009   0.00081   0.00073  -3.13287
    D3       -1.04871  -0.00001  -0.00010  -0.00019  -0.00030  -1.04901
    D4       -1.05670  -0.00007  -0.00002  -0.00101  -0.00103  -1.05773
    D5        1.05670   0.00007   0.00002   0.00101   0.00103   1.05773
    D6       -3.14159   0.00000   0.00000   0.00000  -0.00000  -3.14159
    D7        3.13360  -0.00006   0.00009  -0.00081  -0.00073   3.13287
    D8       -1.03618   0.00009   0.00012   0.00120   0.00132  -1.03486
    D9        1.04871   0.00001   0.00010   0.00019   0.00030   1.04901
         Item               Value     Threshold  Converged?
 Maximum Force            0.000518     0.000015     NO 
 RMS     Force            0.000189     0.000010     NO 
 Maximum Displacement     0.001577     0.000060     NO 
 RMS     Displacement     0.000615     0.000040     NO 
 Predicted change in Energy=-1.694634D-06
 Lowest energy point so far.  Saving SCF results.
 GradGradGradGradGradGradGradGradGradGradGradGradGradGradGradGradGradGrad

 Leave Link  103 at Thu Apr  2 15:28:40 2026, MaxMem=  1073741824 cpu:               0.1 elap:               0.0
 (Enter /Users/yarger/Applications/g16/l202.exe)
                          Input orientation:                          
 ---------------------------------------------------------------------
 Center     Atomic      Atomic             Coordinates (Angstroms)
 Number     Number       Type             X           Y           Z
 ---------------------------------------------------------------------
      1          6           0       -1.501137    1.409565    1.458173
      2          1           0       -1.158773    2.444266    1.444728
      3          6           0       -0.322068    0.502298    1.149683
      4          9           0        0.664621    0.649449    2.034794
      5          9           0       -0.672969   -0.784321    1.139143
      6          9           0        0.157826    0.811821   -0.062493
      7          9           0       -2.007186    1.110991    2.691881
      8          1           0       -2.269493    1.253679    0.700989
 ---------------------------------------------------------------------
                    Distance matrix (angstroms):
                    1          2          3          4          5
     1  C    0.000000
     2  H    1.089954   0.000000
     3  C    1.519375   2.135033   0.000000
     4  F    2.366596   2.625702   1.333653   0.000000
     5  F    2.366596   3.279201   1.333653   2.155699   0.000000
     6  F    2.328493   2.582639   1.339953   2.163751   2.163751
     7  F    1.366479   2.013160   2.364001   2.789863   2.789863
     8  H    1.089954   1.790068   2.135033   3.279201   2.625702
                    6          7          8
     6  F    0.000000
     7  F    3.516156   0.000000
     8  H    2.582639   2.013160   0.000000
 Stoichiometry    C2H2F4
 Framework group  CS[SG(C2F2),X(H2F2)]
 Deg. of freedom    11
 Full point group                 CS      NOp   2
 RotChk:  IX=2 Diff= 8.10D-04
 Largest Abelian subgroup         CS      NOp   2
 Largest concise Abelian subgroup CS      NOp   2
                         Standard orientation:                         
 ---------------------------------------------------------------------
 Center     Atomic      Atomic             Coordinates (Angstroms)
 Number     Number       Type             X           Y           Z
 ---------------------------------------------------------------------
      1          6           0        1.154924    0.240905   -0.000000
      2          1           0        1.486491    0.767191   -0.895034
      3          6           0       -0.363556    0.188741    0.000000
      4          9           0       -0.840527   -0.435254   -1.077849
      5          9           0       -0.840527   -0.435254    1.077849
      6          9           0       -0.840527    1.440928    0.000000
      7          9           0        1.663672   -1.027338   -0.000000
      8          1           0        1.486491    0.767191    0.895034
 ---------------------------------------------------------------------
 Rotational constants (GHZ):           5.3623981           2.7922642           2.7507837
 Leave Link  202 at Thu Apr  2 15:28:40 2026, MaxMem=  1073741824 cpu:               0.0 elap:               0.0
 (Enter /Users/yarger/Applications/g16/l301.exe)
 Standard basis: Aug-CC-pVTZ (5D, 7F)
 Ernie: Thresh=  0.10000D-02 Tol=  0.10000D-05 Strict=F.
 Ernie:  18 primitive shells out of 202 were deleted.
 There are   228 symmetry adapted cartesian basis functions of A'  symmetry.
 There are   152 symmetry adapted cartesian basis functions of A"  symmetry.
 There are   189 symmetry adapted basis functions of A'  symmetry.
 There are   133 symmetry adapted basis functions of A"  symmetry.
   322 basis functions,   486 primitive gaussians,   380 cartesian basis functions
    25 alpha electrons       25 beta electrons
       nuclear repulsion energy       272.6075207749 Hartrees.
 IExCor= 4639 DFT=T Ex+Corr=wB97XD ExCW=0 ScaHFX=  1.000000
 ScaDFX=  1.000000  1.000000  1.000000  1.000000 ScalE2=  1.000000  1.000000
 IRadAn=      5 IRanWt=     -1 IRanGd=            0 ICorTp=0 IEmpDi=121
 HFx  wShort=  0.000000 wLong=  0.200000 cFull=  0.222036 cShort=  0.000000 cLong=  0.777964
 DFx  wShort=  0.000000 wLong=  0.200000 cFull=  0.000000 cShort=  0.000000 cLong=  1.000000
 NAtoms=    8 NActive=    8 NUniq=    6 SFac= 1.78D+00 NAtFMM=   60 NAOKFM=F Big=F
 Integral buffers will be    131072 words long.
 Raffenetti 2 integral format.
 Two-electron integral symmetry is turned on.
 R6Disp:  Grimme-D2 Dispersion energy=       -0.0021557578 Hartrees.
 Nuclear repulsion after empirical dispersion term =      272.6053650171 Hartrees.
 Leave Link  301 at Thu Apr  2 15:28:40 2026, MaxMem=  1073741824 cpu:               0.1 elap:               0.0
 (Enter /Users/yarger/Applications/g16/l302.exe)
 NPDir=0 NMtPBC=     1 NCelOv=     1 NCel=       1 NClECP=     1 NCelD=      1
         NCelK=      1 NCelE2=     1 NClLst=     1 CellRange=     0.0.
 One-electron integrals computed using PRISM.
 One-electron integral symmetry used in STVInt
 NBasis=   322 RedAO= T EigKep=  2.37D-05  NBF=   189   133
 NBsUse=   322 1.00D-06 EigRej= -1.00D+00 NBFU=   189   133
 Precomputing XC quadrature grid using
 IXCGrd= 4 IRadAn=           5 IRanWt=          -1 IRanGd=           0 AccXCQ= 0.00D+00.
 Generated NRdTot=       0 NPtTot=           0 NUsed=           0 NTot=          32
 NSgBfM=   380   380   380   380   380 MxSgAt=     8 MxSgA2=     8.
 Leave Link  302 at Thu Apr  2 15:28:40 2026, MaxMem=  1073741824 cpu:               0.7 elap:               0.2
 (Enter /Users/yarger/Applications/g16/l303.exe)
 DipDrv:  MaxL=1.
 Leave Link  303 at Thu Apr  2 15:28:40 2026, MaxMem=  1073741824 cpu:               0.1 elap:               0.0
 (Enter /Users/yarger/Applications/g16/l401.exe)
 Initial guess from the checkpoint file:  "1112Tetrafluoroethane_Opt_Freq_DFT_WB97XD_pVTZ_Gaussian16.chk"
 B after Tr=    -0.000000   -0.000000   -0.000000
         Rot=    1.000000    0.000000   -0.000000   -0.000223 Ang=  -0.03 deg.
 Guess basis will be translated and rotated to current coordinates.
 JPrj=2 DoOrth=T DoCkMO=T.
 Initial guess orbital symmetries:
       Occupied  (A') (A") (A') (A') (A') (A') (A') (A') (A") (A')
                 (A') (A') (A") (A') (A') (A') (A") (A') (A") (A')
                 (A') (A") (A") (A") (A')
       Virtual   (A') (A") (A') (A') (A') (A") (A') (A') (A") (A')
                 (A") (A') (A') (A") (A') (A') (A") (A') (A") (A')
                 (A') (A") (A') (A') (A") (A') (A") (A') (A') (A")
                 (A') (A") (A') (A') (A") (A') (A') (A') (A") (A')
                 (A') (A") (A") (A') (A") (A') (A') (A") (A') (A')
                 (A') (A') (A") (A") (A') (A") (A') (A') (A") (A')
                 (A") (A') (A") (A') (A') (A") (A") (A') (A') (A")
                 (A") (A') (A') (A') (A") (A') (A") (A') (A") (A")
                 (A') (A") (A') (A") (A') (A') (A") (A') (A') (A")
                 (A') (A") (A') (A') (A") (A') (A') (A') (A") (A")
                 (A') (A') (A") (A') (A') (A") (A") (A') (A') (A")
                 (A') (A") (A') (A') (A") (A") (A") (A') (A') (A")
                 (A') (A") (A') (A") (A') (A') (A') (A") (A") (A')
                 (A') (A") (A') (A') (A') (A") (A") (A') (A") (A')
                 (A') (A") (A') (A') (A") (A') (A") (A') (A') (A')
                 (A") (A") (A') (A") (A") (A') (A') (A") (A') (A')
                 (A") (A") (A') (A') (A") (A') (A") (A') (A') (A")
                 (A') (A") (A') (A") (A') (A') (A") (A') (A") (A")
                 (A') (A') (A') (A") (A") (A") (A') (A") (A') (A")
                 (A') (A") (A') (A") (A') (A") (A') (A') (A') (A")
                 (A') (A') (A") (A') (A') (A") (A') (A") (A') (A')
                 (A') (A") (A') (A") (A") (A') (A') (A") (A') (A')
                 (A") (A") (A') (A") (A') (A') (A") (A') (A") (A')
                 (A") (A') (A") (A') (A") (A") (A') (A') (A") (A')
                 (A') (A") (A') (A') (A") (A") (A') (A") (A') (A")
                 (A') (A') (A") (A') (A") (A') (A') (A") (A") (A')
                 (A") (A') (A') (A") (A') (A") (A") (A") (A') (A')
                 (A") (A') (A') (A") (A') (A') (A') (A") (A") (A')
                 (A') (A") (A") (A') (A") (A') (A") (A') (A') (A')
                 (A") (A') (A') (A') (A") (A') (A')
 The electronic state of the initial guess is 1-A'.
 Leave Link  401 at Thu Apr  2 15:28:41 2026, MaxMem=  1073741824 cpu:               0.7 elap:               0.2
 (Enter /Users/yarger/Applications/g16/l502.exe)
 Integral symmetry usage will be decided dynamically.
 Closed shell SCF:
 Using DIIS extrapolation, IDIIS=  1040.
 NGot=  1073741824 LenX=  1073446812 LenY=  1073301971
 Requested convergence on RMS density matrix=1.00D-08 within 128 cycles.
 Requested convergence on MAX density matrix=1.00D-06.
 Requested convergence on             energy=1.00D-06.
 No special actions if energy rises.
 Fock matrices will be formed incrementally for  20 cycles.

 Cycle   1  Pass 1  IDiag  1:
 FoFJK:  IHMeth= 1 ICntrl=       0 DoSepK=T KAlg= 0 I1Cent=           0 FoldK=F
 IRaf=         1 NMat=       1 IRICut=       1 DoRegI=T DoRafI=F ISym2E= 1 IDoP0=0 IntGTp=1.
 FoFCou: FMM=F IPFlag=           0 FMFlag=      100000 FMFlg1=           0
         NFxFlg=           0 DoJE=T BraDBF=F KetDBF=F FulRan=T
         wScrn=  0.000000 ICntrl=       500 IOpCl=  0 I1Cent=           0 NGrid=           0
         NMat0=    1 NMatS0=      1 NMatT0=    0 NMatD0=    1 NMtDS0=    0 NMtDT0=    0
 Petite list used in FoFCou.
 E= -476.848462422834    
 DIIS: error= 1.04D-04 at cycle   1 NSaved=   1.
 NSaved= 1 IEnMin= 1 EnMin= -476.848462422834     IErMin= 1 ErrMin= 1.04D-04
 ErrMax= 1.04D-04  0.00D+00 EMaxC= 1.00D-01 BMatC= 2.14D-06 BMatP= 2.14D-06
 IDIUse=3 WtCom= 9.99D-01 WtEn= 1.04D-03
 Coeff-Com:  0.100D+01
 Coeff-En:   0.100D+01
 Coeff:      0.100D+01
 Gap=     0.490 Goal=   None    Shift=    0.000
 RMSDP=6.30D-06 MaxDP=3.01D-04              OVMax= 2.71D-04

 Cycle   2  Pass 1  IDiag  1:
 RMSU=  6.30D-06    CP:  1.00D+00
 E= -476.848464248946     Delta-E=       -0.000001826113 Rises=F Damp=F
 DIIS: error= 1.19D-05 at cycle   2 NSaved=   2.
 NSaved= 2 IEnMin= 2 EnMin= -476.848464248946     IErMin= 2 ErrMin= 1.19D-05
 ErrMax= 1.19D-05  0.00D+00 EMaxC= 1.00D-01 BMatC= 6.47D-08 BMatP= 2.14D-06
 IDIUse=1 WtCom= 1.00D+00 WtEn= 0.00D+00
 Coeff-Com: -0.437D-01 0.104D+01
 Coeff:     -0.437D-01 0.104D+01
 Gap=     0.489 Goal=   None    Shift=    0.000
 RMSDP=1.23D-06 MaxDP=8.95D-05 DE=-1.83D-06 OVMax= 6.66D-05

 Cycle   3  Pass 1  IDiag  1:
 RMSU=  1.12D-06    CP:  1.00D+00  1.08D+00
 E= -476.848464324755     Delta-E=       -0.000000075809 Rises=F Damp=F
 DIIS: error= 6.04D-06 at cycle   3 NSaved=   3.
 NSaved= 3 IEnMin= 3 EnMin= -476.848464324755     IErMin= 3 ErrMin= 6.04D-06
 ErrMax= 6.04D-06  0.00D+00 EMaxC= 1.00D-01 BMatC= 2.15D-08 BMatP= 6.47D-08
 IDIUse=1 WtCom= 1.00D+00 WtEn= 0.00D+00
 Coeff-Com: -0.366D-01 0.351D+00 0.685D+00
 Coeff:     -0.366D-01 0.351D+00 0.685D+00
 Gap=     0.489 Goal=   None    Shift=    0.000
 RMSDP=3.17D-07 MaxDP=1.14D-05 DE=-7.58D-08 OVMax= 3.12D-05

 Cycle   4  Pass 1  IDiag  1:
 RMSU=  2.97D-07    CP:  1.00D+00  1.10D+00  9.66D-01
 E= -476.848464338370     Delta-E=       -0.000000013614 Rises=F Damp=F
 DIIS: error= 2.82D-06 at cycle   4 NSaved=   4.
 NSaved= 4 IEnMin= 4 EnMin= -476.848464338370     IErMin= 4 ErrMin= 2.82D-06
 ErrMax= 2.82D-06  0.00D+00 EMaxC= 1.00D-01 BMatC= 4.60D-09 BMatP= 2.15D-08
 IDIUse=1 WtCom= 1.00D+00 WtEn= 0.00D+00
 Coeff-Com: -0.862D-02-0.185D-02 0.309D+00 0.701D+00
 Coeff:     -0.862D-02-0.185D-02 0.309D+00 0.701D+00
 Gap=     0.489 Goal=   None    Shift=    0.000
 RMSDP=1.74D-07 MaxDP=1.50D-05 DE=-1.36D-08 OVMax= 9.88D-06

 Cycle   5  Pass 1  IDiag  1:
 RMSU=  1.08D-07    CP:  1.00D+00  1.10D+00  1.09D+00  9.98D-01
 E= -476.848464341215     Delta-E=       -0.000000002846 Rises=F Damp=F
 DIIS: error= 5.56D-07 at cycle   5 NSaved=   5.
 NSaved= 5 IEnMin= 5 EnMin= -476.848464341215     IErMin= 5 ErrMin= 5.56D-07
 ErrMax= 5.56D-07  0.00D+00 EMaxC= 1.00D-01 BMatC= 1.23D-10 BMatP= 4.60D-09
 IDIUse=1 WtCom= 1.00D+00 WtEn= 0.00D+00
 Coeff-Com:  0.795D-03-0.330D-01 0.250D-01 0.151D+00 0.856D+00
 Coeff:      0.795D-03-0.330D-01 0.250D-01 0.151D+00 0.856D+00
 Gap=     0.489 Goal=   None    Shift=    0.000
 RMSDP=6.18D-08 MaxDP=6.82D-06 DE=-2.85D-09 OVMax= 3.96D-06

 Cycle   6  Pass 1  IDiag  1:
 RMSU=  2.77D-08    CP:  1.00D+00  1.10D+00  1.13D+00  1.05D+00  1.03D+00
 E= -476.848464341353     Delta-E=       -0.000000000138 Rises=F Damp=F
 DIIS: error= 1.39D-07 at cycle   6 NSaved=   6.
 NSaved= 6 IEnMin= 6 EnMin= -476.848464341353     IErMin= 6 ErrMin= 1.39D-07
 ErrMax= 1.39D-07  0.00D+00 EMaxC= 1.00D-01 BMatC= 1.10D-11 BMatP= 1.23D-10
 IDIUse=1 WtCom= 1.00D+00 WtEn= 0.00D+00
 Coeff-Com:  0.798D-03-0.107D-01-0.956D-02 0.867D-02 0.259D+00 0.752D+00
 Coeff:      0.798D-03-0.107D-01-0.956D-02 0.867D-02 0.259D+00 0.752D+00
 Gap=     0.489 Goal=   None    Shift=    0.000
 RMSDP=1.28D-08 MaxDP=1.11D-06 DE=-1.38D-10 OVMax= 1.24D-06

 Cycle   7  Pass 1  IDiag  1:
 RMSU=  6.72D-09    CP:  1.00D+00  1.10D+00  1.14D+00  1.07D+00  1.10D+00
                    CP:  1.09D+00
 E= -476.848464341372     Delta-E=       -0.000000000019 Rises=F Damp=F
 DIIS: error= 3.18D-08 at cycle   7 NSaved=   7.
 NSaved= 7 IEnMin= 7 EnMin= -476.848464341372     IErMin= 7 ErrMin= 3.18D-08
 ErrMax= 3.18D-08  0.00D+00 EMaxC= 1.00D-01 BMatC= 7.38D-13 BMatP= 1.10D-11
 IDIUse=1 WtCom= 1.00D+00 WtEn= 0.00D+00
 Coeff-Com:  0.112D-03-0.136D-03-0.325D-02-0.774D-02-0.380D-02 0.161D+00
 Coeff-Com:  0.854D+00
 Coeff:      0.112D-03-0.136D-03-0.325D-02-0.774D-02-0.380D-02 0.161D+00
 Coeff:      0.854D+00
 Gap=     0.489 Goal=   None    Shift=    0.000
 RMSDP=4.57D-09 MaxDP=4.84D-07 DE=-1.90D-11 OVMax= 4.46D-07

 SCF Done:  E(RwB97XD) =  -476.848464341     A.U. after    7 cycles
            NFock=  7  Conv=0.46D-08     -V/T= 2.0049
 KE= 4.745277182376D+02 PE=-1.677534386689D+03 EE= 4.535528390934D+02
 Leave Link  502 at Thu Apr  2 15:29:40 2026, MaxMem=  1073741824 cpu:             237.8 elap:              59.8
 (Enter /Users/yarger/Applications/g16/l701.exe)
 ... and contract with generalized density number  0.
 Compute integral first derivatives.
 R6Disp: Adding Grimme-D2 dispersion energy 1st derivatives to the gradient.
 Leave Link  701 at Thu Apr  2 15:29:41 2026, MaxMem=  1073741824 cpu:               0.6 elap:               0.2
 (Enter /Users/yarger/Applications/g16/l702.exe)
 L702 exits ... SP integral derivatives will be done elsewhere.
 Leave Link  702 at Thu Apr  2 15:29:41 2026, MaxMem=  1073741824 cpu:               0.1 elap:               0.0
 (Enter /Users/yarger/Applications/g16/l703.exe)
 Integral derivatives from FoFJK, PRISM(SPDF).
 Compute integral first derivatives, UseDBF=F ICtDFT=           0.
 Calling FoFJK, ICntrl=      2127 FMM=F ISym2X=1 I1Cent= 0 IOpClX= 0 NMat=1 NMatS=1 NMatT=0.
 FoFJK:  IHMeth= 1 ICntrl=    2127 DoSepK=T KAlg= 0 I1Cent=           0 FoldK=F
 IRaf=         1 NMat=       1 IRICut=       1 DoRegI=T DoRafI=F ISym2E= 1 IDoP0=0 IntGTp=1.
 FoFCou: FMM=F IPFlag=           0 FMFlag=      100000 FMFlg1=         800
         NFxFlg=           0 DoJE=F BraDBF=F KetDBF=F FulRan=T
         wScrn=  0.000000 ICntrl=      2527 IOpCl=  0 I1Cent=           0 NGrid=           0
         NMat0=    1 NMatS0=      1 NMatT0=    0 NMatD0=    1 NMtDS0=    0 NMtDT0=    0
 Petite list used in FoFCou.
 Leave Link  703 at Thu Apr  2 15:30:15 2026, MaxMem=  1073741824 cpu:             136.3 elap:              34.3
 (Enter /Users/yarger/Applications/g16/l716.exe)
 Dipole        = 5.16559029D-01 6.00102483D-01-2.22044605D-16
 ***** Axes restored to original set *****
 -------------------------------------------------------------------
 Center     Atomic                   Forces (Hartrees/Bohr)
 Number     Number              X              Y              Z
 -------------------------------------------------------------------
      1        6          -0.000010312    0.000063938   -0.000086954
      2        1           0.000042956    0.000010948    0.000008841
      3        6          -0.000084745   -0.000123439    0.000324163
      4        9          -0.000073993   -0.000010327   -0.000061847
      5        9           0.000023395    0.000094064    0.000003365
      6        9           0.000099180    0.000054804   -0.000235849
      7        9           0.000007235   -0.000050909    0.000070691
      8        1          -0.000003716   -0.000039079   -0.000022411
 -------------------------------------------------------------------
 Cartesian Forces:  Max     0.000324163 RMS     0.000099637
 Leave Link  716 at Thu Apr  2 15:30:15 2026, MaxMem=  1073741824 cpu:               0.1 elap:               0.0
 (Enter /Users/yarger/Applications/g16/l103.exe)

 GradGradGradGradGradGradGradGradGradGradGradGradGradGradGradGradGradGrad
 Berny optimization.
 Using GEDIIS/GDIIS optimizer.
 FormGI is forming the generalized inverse of G from B-inverse, IUseBI=4.
 Internal  Forces:  Max     0.000262107 RMS     0.000063185
 Search for a local minimum.
 Step number   5 out of a maximum of   38
 All quantities printed in internal units (Hartrees-Bohrs-Radians)
 RMS Force = .63185D-04 SwitMx=.10000D-02 MixMth= 2
 Mixed Optimization -- En-DIIS/RFO-DIIS
 Swapping is turned off.
 Update second derivatives using D2CorX and points    1    2    3    4    5
 DE= -2.05D-06 DEPred=-1.69D-06 R= 1.21D+00
 TightC=F SS=  1.41D+00  RLast= 4.30D-03 DXNew= 6.8988D-01 1.2903D-02
 Trust test= 1.21D+00 RLast= 4.30D-03 DXMaxT set to 4.10D-01
 ITU=  1  1  1  1  0
     Eigenvalues ---    0.00237   0.05742   0.05783   0.08350   0.08690
     Eigenvalues ---    0.16000   0.17105   0.21668   0.23798   0.25000
     Eigenvalues ---    0.29673   0.32799   0.37230   0.38653   0.39696
     Eigenvalues ---    0.55021   0.55459   0.57654
 En-DIIS/RFO-DIIS/Sim-DIIS IScMMF=       -3 using points:     5    4    3
 RFO step:  Lambda=-3.82106171D-07.
 NNeg= 0 NGDIIS= 3 SimSw=  2.50D-01 Rises=F DC= -2.05D-06 SmlDif=  1.00D-05
 NRisDI= 0 DoIntr=F SqrtH=F CThrHd= 10.0 CDAdj=  3.0
 RMS Error=  0.2578177980D-03 NUsed= 3 OKEnD=F EnDIS=F
 InvSVX:  RCond= 2.01D-06 Info=           0 Equed=N FErr=  2.07D-15 BErr=  6.89D-17
 DidBck=F Rises=F RFO-DIIS coefs:    1.20422   -0.19590   -0.00832
 Iteration  1 RMS(Cart)=  0.00021686 RMS(Int)=  0.00000011
 Iteration  2 RMS(Cart)=  0.00000005 RMS(Int)=  0.00000011
 ITry= 1 IFail=0 DXMaxC= 4.54D-04 DCOld= 1.00D+10 DXMaxT= 4.10D-01 DXLimC= 3.00D+00 Rises=F
 ClnCor:  largest displacement from symmetrization is 2.35D-09 for atom     7.
 Variable       Old X    -DE/DX   Delta X   Delta X   Delta X     New X
                                 (Linear)    (Quad)   (Total)
    R1        2.05971   0.00002  -0.00017   0.00014  -0.00003   2.05969
    R2        2.87120  -0.00004  -0.00005  -0.00009  -0.00015   2.87106
    R3        2.58227   0.00007   0.00029   0.00007   0.00035   2.58262
    R4        2.05971   0.00002  -0.00017   0.00014  -0.00003   2.05969
    R5        2.52024  -0.00010  -0.00018  -0.00015  -0.00033   2.51991
    R6        2.52024  -0.00010  -0.00018  -0.00015  -0.00033   2.51991
    R7        2.53214   0.00026   0.00031   0.00048   0.00079   2.53293
    A1        1.89716  -0.00003   0.00001  -0.00009  -0.00009   1.89707
    A2        1.91228   0.00005  -0.00002   0.00005   0.00003   1.91231
    A3        1.92690   0.00004   0.00010   0.00040   0.00050   1.92741
    A4        1.91795  -0.00009  -0.00009  -0.00031  -0.00040   1.91755
    A5        1.89716  -0.00003   0.00001  -0.00009  -0.00009   1.89707
    A6        1.91228   0.00005  -0.00002   0.00005   0.00003   1.91231
    A7        1.95357  -0.00001   0.00020  -0.00011   0.00009   1.95366
    A8        1.95357  -0.00001   0.00020  -0.00011   0.00009   1.95366
    A9        1.90040   0.00001  -0.00030   0.00018  -0.00012   1.90028
   A10        1.88215   0.00000   0.00011  -0.00012  -0.00002   1.88214
   A11        1.88592  -0.00000  -0.00011   0.00009  -0.00002   1.88589
   A12        1.88592  -0.00000  -0.00011   0.00009  -0.00002   1.88589
    D1        1.03486  -0.00001  -0.00028  -0.00003  -0.00031   1.03455
    D2       -3.13287  -0.00001   0.00014  -0.00034  -0.00020  -3.13307
    D3       -1.04901  -0.00001  -0.00007  -0.00018  -0.00025  -1.04926
    D4       -1.05773   0.00000  -0.00021   0.00016  -0.00005  -1.05778
    D5        1.05773  -0.00000   0.00021  -0.00016   0.00005   1.05778
    D6        3.14159   0.00000  -0.00000  -0.00000  -0.00000   3.14159
    D7        3.13287   0.00001  -0.00014   0.00034   0.00020   3.13307
    D8       -1.03486   0.00001   0.00028   0.00003   0.00031  -1.03455
    D9        1.04901   0.00001   0.00007   0.00018   0.00025   1.04926
         Item               Value     Threshold  Converged?
 Maximum Force            0.000262     0.000015     NO 
 RMS     Force            0.000063     0.000010     NO 
 Maximum Displacement     0.000454     0.000060     NO 
 RMS     Displacement     0.000217     0.000040     NO 
 Predicted change in Energy=-1.910370D-07
 Lowest energy point so far.  Saving SCF results.
 GradGradGradGradGradGradGradGradGradGradGradGradGradGradGradGradGradGrad

 Leave Link  103 at Thu Apr  2 15:30:15 2026, MaxMem=  1073741824 cpu:               0.1 elap:               0.0
 (Enter /Users/yarger/Applications/g16/l202.exe)
                          Input orientation:                          
 ---------------------------------------------------------------------
 Center     Atomic      Atomic             Coordinates (Angstroms)
 Number     Number       Type             X           Y           Z
 ---------------------------------------------------------------------
      1          6           0       -1.501157    1.409655    1.458059
      2          1           0       -1.158581    2.444273    1.444777
      3          6           0       -0.322177    0.502318    1.149814
      4          9           0        0.664385    0.649439    2.034811
      5          9           0       -0.673024   -0.784137    1.139281
      6          9           0        0.157911    0.811892   -0.062733
      7          9           0       -2.007055    1.110814    2.691970
      8          1           0       -2.269481    1.253494    0.700918
 ---------------------------------------------------------------------
                    Distance matrix (angstroms):
                    1          2          3          4          5
     1  C    0.000000
     2  H    1.089940   0.000000
     3  C    1.519299   2.134892   0.000000
     4  F    2.366462   2.625410   1.333480   0.000000
     5  F    2.366462   3.278982   1.333480   2.155407   0.000000
     6  F    2.328655   2.582713   1.340370   2.163932   2.163932
     7  F    1.366666   2.013334   2.363753   2.789501   2.789501
     8  H    1.089940   1.790357   2.134892   3.278982   2.625410
                    6          7          8
     6  F    0.000000
     7  F    3.516365   0.000000
     8  H    2.582713   2.013334   0.000000
 Stoichiometry    C2H2F4
 Framework group  CS[SG(C2F2),X(H2F2)]
 Deg. of freedom    11
 Full point group                 CS      NOp   2
 RotChk:  IX=2 Diff= 1.98D-04
 Largest Abelian subgroup         CS      NOp   2
 Largest concise Abelian subgroup CS      NOp   2
                         Standard orientation:                         
 ---------------------------------------------------------------------
 Center     Atomic      Atomic             Coordinates (Angstroms)
 Number     Number       Type             X           Y           Z
 ---------------------------------------------------------------------
      1          6           0        1.154966    0.240878    0.000000
      2          1           0        1.486433    0.766954   -0.895179
      3          6           0       -0.363435    0.188671   -0.000000
      4          9           0       -0.840439   -0.435182   -1.077703
      5          9           0       -0.840439   -0.435182    1.077703
      6          9           0       -0.840439    1.441292   -0.000000
      7          9           0        1.663311   -1.027728    0.000000
      8          1           0        1.486433    0.766954    0.895179
 ---------------------------------------------------------------------
 Rotational constants (GHZ):           5.3627209           2.7925283           2.7507826
 Leave Link  202 at Thu Apr  2 15:30:15 2026, MaxMem=  1073741824 cpu:               0.0 elap:               0.0
 (Enter /Users/yarger/Applications/g16/l301.exe)
 Standard basis: Aug-CC-pVTZ (5D, 7F)
 Ernie: Thresh=  0.10000D-02 Tol=  0.10000D-05 Strict=F.
 Ernie:  18 primitive shells out of 202 were deleted.
 There are   228 symmetry adapted cartesian basis functions of A'  symmetry.
 There are   152 symmetry adapted cartesian basis functions of A"  symmetry.
 There are   189 symmetry adapted basis functions of A'  symmetry.
 There are   133 symmetry adapted basis functions of A"  symmetry.
   322 basis functions,   486 primitive gaussians,   380 cartesian basis functions
    25 alpha electrons       25 beta electrons
       nuclear repulsion energy       272.6089358158 Hartrees.
 IExCor= 4639 DFT=T Ex+Corr=wB97XD ExCW=0 ScaHFX=  1.000000
 ScaDFX=  1.000000  1.000000  1.000000  1.000000 ScalE2=  1.000000  1.000000
 IRadAn=      5 IRanWt=     -1 IRanGd=            0 ICorTp=0 IEmpDi=121
 HFx  wShort=  0.000000 wLong=  0.200000 cFull=  0.222036 cShort=  0.000000 cLong=  0.777964
 DFx  wShort=  0.000000 wLong=  0.200000 cFull=  0.000000 cShort=  0.000000 cLong=  1.000000
 NAtoms=    8 NActive=    8 NUniq=    6 SFac= 1.78D+00 NAtFMM=   60 NAOKFM=F Big=F
 Integral buffers will be    131072 words long.
 Raffenetti 2 integral format.
 Two-electron integral symmetry is turned on.
 R6Disp:  Grimme-D2 Dispersion energy=       -0.0021556958 Hartrees.
 Nuclear repulsion after empirical dispersion term =      272.6067801201 Hartrees.
 Leave Link  301 at Thu Apr  2 15:30:15 2026, MaxMem=  1073741824 cpu:               0.1 elap:               0.0
 (Enter /Users/yarger/Applications/g16/l302.exe)
 NPDir=0 NMtPBC=     1 NCelOv=     1 NCel=       1 NClECP=     1 NCelD=      1
         NCelK=      1 NCelE2=     1 NClLst=     1 CellRange=     0.0.
 One-electron integrals computed using PRISM.
 One-electron integral symmetry used in STVInt
 NBasis=   322 RedAO= T EigKep=  2.37D-05  NBF=   189   133
 NBsUse=   322 1.00D-06 EigRej= -1.00D+00 NBFU=   189   133
 Precomputing XC quadrature grid using
 IXCGrd= 4 IRadAn=           5 IRanWt=          -1 IRanGd=           0 AccXCQ= 0.00D+00.
 Generated NRdTot=       0 NPtTot=           0 NUsed=           0 NTot=          32
 NSgBfM=   380   380   380   380   380 MxSgAt=     8 MxSgA2=     8.
 Leave Link  302 at Thu Apr  2 15:30:15 2026, MaxMem=  1073741824 cpu:               0.7 elap:               0.2
 (Enter /Users/yarger/Applications/g16/l303.exe)
 DipDrv:  MaxL=1.
 Leave Link  303 at Thu Apr  2 15:30:15 2026, MaxMem=  1073741824 cpu:               0.1 elap:               0.0
 (Enter /Users/yarger/Applications/g16/l401.exe)
 Initial guess from the checkpoint file:  "1112Tetrafluoroethane_Opt_Freq_DFT_WB97XD_pVTZ_Gaussian16.chk"
 B after Tr=     0.000000    0.000000   -0.000000
         Rot=    1.000000   -0.000000    0.000000    0.000079 Ang=   0.01 deg.
 Guess basis will be translated and rotated to current coordinates.
 JPrj=2 DoOrth=T DoCkMO=T.
 Initial guess orbital symmetries:
       Occupied  (A') (A") (A') (A') (A') (A') (A') (A') (A") (A')
                 (A') (A') (A") (A') (A') (A') (A") (A') (A") (A')
                 (A') (A") (A") (A") (A')
       Virtual   (A') (A") (A') (A') (A') (A") (A') (A') (A") (A')
                 (A") (A') (A') (A") (A') (A') (A") (A') (A") (A')
                 (A') (A") (A') (A') (A") (A') (A") (A') (A') (A")
                 (A') (A") (A') (A') (A") (A') (A') (A') (A") (A')
                 (A') (A") (A") (A') (A") (A') (A') (A") (A') (A')
                 (A') (A') (A") (A") (A') (A") (A') (A') (A") (A')
                 (A") (A') (A") (A') (A') (A") (A") (A') (A') (A")
                 (A") (A') (A') (A') (A") (A') (A") (A') (A") (A")
                 (A') (A") (A') (A") (A') (A') (A") (A') (A') (A")
                 (A') (A") (A') (A') (A") (A') (A') (A') (A") (A")
                 (A') (A') (A") (A') (A') (A") (A") (A') (A') (A")
                 (A') (A") (A') (A') (A") (A") (A") (A') (A') (A")
                 (A') (A") (A') (A") (A') (A') (A') (A") (A") (A')
                 (A') (A") (A') (A') (A') (A") (A") (A') (A") (A')
                 (A') (A") (A') (A') (A") (A') (A") (A') (A') (A')
                 (A") (A") (A') (A") (A") (A') (A') (A") (A') (A')
                 (A") (A") (A') (A') (A") (A') (A") (A') (A') (A")
                 (A') (A") (A') (A") (A') (A') (A") (A') (A") (A")
                 (A') (A') (A') (A") (A") (A") (A') (A") (A') (A")
                 (A') (A") (A') (A") (A') (A") (A') (A') (A') (A")
                 (A') (A') (A") (A') (A') (A") (A') (A") (A') (A')
                 (A') (A") (A') (A") (A") (A') (A') (A") (A') (A')
                 (A") (A") (A') (A") (A') (A') (A") (A') (A") (A')
                 (A") (A') (A") (A') (A") (A") (A') (A') (A") (A')
                 (A') (A") (A') (A') (A") (A") (A') (A") (A') (A")
                 (A') (A') (A") (A') (A") (A') (A') (A") (A") (A')
                 (A") (A') (A') (A") (A') (A") (A") (A") (A') (A')
                 (A") (A') (A') (A") (A') (A') (A') (A") (A") (A')
                 (A') (A") (A") (A') (A") (A') (A") (A') (A') (A')
                 (A") (A') (A') (A') (A") (A') (A')
 The electronic state of the initial guess is 1-A'.
 Leave Link  401 at Thu Apr  2 15:30:16 2026, MaxMem=  1073741824 cpu:               1.4 elap:               0.5
 (Enter /Users/yarger/Applications/g16/l502.exe)
 Integral symmetry usage will be decided dynamically.
 Closed shell SCF:
 Using DIIS extrapolation, IDIIS=  1040.
 NGot=  1073741824 LenX=  1073446812 LenY=  1073301971
 Requested convergence on RMS density matrix=1.00D-08 within 128 cycles.
 Requested convergence on MAX density matrix=1.00D-06.
 Requested convergence on             energy=1.00D-06.
 No special actions if energy rises.
 Fock matrices will be formed incrementally for  20 cycles.

 Cycle   1  Pass 1  IDiag  1:
 FoFJK:  IHMeth= 1 ICntrl=       0 DoSepK=T KAlg= 0 I1Cent=           0 FoldK=F
 IRaf=         1 NMat=       1 IRICut=       1 DoRegI=T DoRafI=F ISym2E= 1 IDoP0=0 IntGTp=1.
 FoFCou: FMM=F IPFlag=           0 FMFlag=      100000 FMFlg1=           0
         NFxFlg=           0 DoJE=T BraDBF=F KetDBF=F FulRan=T
         wScrn=  0.000000 ICntrl=       500 IOpCl=  0 I1Cent=           0 NGrid=           0
         NMat0=    1 NMatS0=      1 NMatT0=    0 NMatD0=    1 NMtDS0=    0 NMtDT0=    0
 Petite list used in FoFCou.
 E= -476.848464348073    
 DIIS: error= 2.29D-05 at cycle   1 NSaved=   1.
 NSaved= 1 IEnMin= 1 EnMin= -476.848464348073     IErMin= 1 ErrMin= 2.29D-05
 ErrMax= 2.29D-05  0.00D+00 EMaxC= 1.00D-01 BMatC= 1.86D-07 BMatP= 1.86D-07
 IDIUse=1 WtCom= 1.00D+00 WtEn= 0.00D+00
 Coeff-Com:  0.100D+01
 Coeff:      0.100D+01
 Gap=     0.489 Goal=   None    Shift=    0.000
 RMSDP=1.79D-06 MaxDP=7.57D-05              OVMax= 8.87D-05

 Cycle   2  Pass 1  IDiag  1:
 RMSU=  1.79D-06    CP:  1.00D+00
 E= -476.848464520820     Delta-E=       -0.000000172746 Rises=F Damp=F
 DIIS: error= 2.55D-06 at cycle   2 NSaved=   2.
 NSaved= 2 IEnMin= 2 EnMin= -476.848464520820     IErMin= 2 ErrMin= 2.55D-06
 ErrMax= 2.55D-06  0.00D+00 EMaxC= 1.00D-01 BMatC= 5.35D-09 BMatP= 1.86D-07
 IDIUse=1 WtCom= 1.00D+00 WtEn= 0.00D+00
 Coeff-Com: -0.309D-01 0.103D+01
 Coeff:     -0.309D-01 0.103D+01
 Gap=     0.489 Goal=   None    Shift=    0.000
 RMSDP=3.50D-07 MaxDP=8.39D-06 DE=-1.73D-07 OVMax= 2.47D-05

 Cycle   3  Pass 1  IDiag  1:
 RMSU=  2.86D-07    CP:  1.00D+00  1.11D+00
 E= -476.848464528122     Delta-E=       -0.000000007302 Rises=F Damp=F
 DIIS: error= 9.29D-07 at cycle   3 NSaved=   3.
 NSaved= 3 IEnMin= 3 EnMin= -476.848464528122     IErMin= 3 ErrMin= 9.29D-07
 ErrMax= 9.29D-07  0.00D+00 EMaxC= 1.00D-01 BMatC= 6.75D-10 BMatP= 5.35D-09
 IDIUse=1 WtCom= 1.00D+00 WtEn= 0.00D+00
 Coeff-Com: -0.311D-01 0.175D+00 0.857D+00
 Coeff:     -0.311D-01 0.175D+00 0.857D+00
 Gap=     0.489 Goal=   None    Shift=    0.000
 RMSDP=8.69D-08 MaxDP=3.44D-06 DE=-7.30D-09 OVMax= 6.47D-06

 Cycle   4  Pass 1  IDiag  1:
 RMSU=  6.98D-08    CP:  1.00D+00  1.13D+00  1.14D+00
 E= -476.848464528602     Delta-E=       -0.000000000480 Rises=F Damp=F
 DIIS: error= 6.58D-07 at cycle   4 NSaved=   4.
 NSaved= 4 IEnMin= 4 EnMin= -476.848464528602     IErMin= 4 ErrMin= 6.58D-07
 ErrMax= 6.58D-07  0.00D+00 EMaxC= 1.00D-01 BMatC= 2.64D-10 BMatP= 6.75D-10
 IDIUse=1 WtCom= 1.00D+00 WtEn= 0.00D+00
 Coeff-Com: -0.103D-01 0.140D-02 0.399D+00 0.610D+00
 Coeff:     -0.103D-01 0.140D-02 0.399D+00 0.610D+00
 Gap=     0.489 Goal=   None    Shift=    0.000
 RMSDP=3.93D-08 MaxDP=2.41D-06 DE=-4.80D-10 OVMax= 2.92D-06

 Cycle   5  Pass 1  IDiag  1:
 RMSU=  2.94D-08    CP:  1.00D+00  1.14D+00  1.22D+00  9.52D-01
 E= -476.848464528765     Delta-E=       -0.000000000164 Rises=F Damp=F
 DIIS: error= 1.29D-07 at cycle   5 NSaved=   5.
 NSaved= 5 IEnMin= 5 EnMin= -476.848464528765     IErMin= 5 ErrMin= 1.29D-07
 ErrMax= 1.29D-07  0.00D+00 EMaxC= 1.00D-01 BMatC= 1.08D-11 BMatP= 2.64D-10
 IDIUse=1 WtCom= 1.00D+00 WtEn= 0.00D+00
 Coeff-Com:  0.191D-02-0.258D-01-0.394D-01 0.145D+00 0.918D+00
 Coeff:      0.191D-02-0.258D-01-0.394D-01 0.145D+00 0.918D+00
 Gap=     0.489 Goal=   None    Shift=    0.000
 RMSDP=1.59D-08 MaxDP=1.24D-06 DE=-1.64D-10 OVMax= 9.28D-07

 Cycle   6  Pass 1  IDiag  1:
 RMSU=  6.96D-09    CP:  1.00D+00  1.13D+00  1.26D+00  1.06D+00  1.18D+00
 E= -476.848464528765     Delta-E=        0.000000000000 Rises=F Damp=F
 DIIS: error= 1.63D-08 at cycle   6 NSaved=   6.
 NSaved= 6 IEnMin= 5 EnMin= -476.848464528765     IErMin= 6 ErrMin= 1.63D-08
 ErrMax= 1.63D-08  0.00D+00 EMaxC= 1.00D-01 BMatC= 1.56D-13 BMatP= 1.08D-11
 IDIUse=1 WtCom= 1.00D+00 WtEn= 0.00D+00
 Coeff-Com:  0.386D-03-0.266D-02-0.115D-01 0.784D-02 0.815D-01 0.924D+00
 Coeff:      0.386D-03-0.266D-02-0.115D-01 0.784D-02 0.815D-01 0.924D+00
 Gap=     0.489 Goal=   None    Shift=    0.000
 RMSDP=2.32D-09 MaxDP=1.57D-07 DE= 4.55D-13 OVMax= 1.67D-07

 SCF Done:  E(RwB97XD) =  -476.848464529     A.U. after    6 cycles
            NFock=  6  Conv=0.23D-08     -V/T= 2.0049
 KE= 4.745274501848D+02 PE=-1.677537328837D+03 EE= 4.535546340037D+02
 Leave Link  502 at Thu Apr  2 15:31:06 2026, MaxMem=  1073741824 cpu:             201.1 elap:              50.4
 (Enter /Users/yarger/Applications/g16/l701.exe)
 ... and contract with generalized density number  0.
 Compute integral first derivatives.
 R6Disp: Adding Grimme-D2 dispersion energy 1st derivatives to the gradient.
 Leave Link  701 at Thu Apr  2 15:31:07 2026, MaxMem=  1073741824 cpu:               0.5 elap:               0.1
 (Enter /Users/yarger/Applications/g16/l702.exe)
 L702 exits ... SP integral derivatives will be done elsewhere.
 Leave Link  702 at Thu Apr  2 15:31:07 2026, MaxMem=  1073741824 cpu:               0.1 elap:               0.0
 (Enter /Users/yarger/Applications/g16/l703.exe)
 Integral derivatives from FoFJK, PRISM(SPDF).
 Compute integral first derivatives, UseDBF=F ICtDFT=           0.
 Calling FoFJK, ICntrl=      2127 FMM=F ISym2X=1 I1Cent= 0 IOpClX= 0 NMat=1 NMatS=1 NMatT=0.
 FoFJK:  IHMeth= 1 ICntrl=    2127 DoSepK=T KAlg= 0 I1Cent=           0 FoldK=F
 IRaf=         1 NMat=       1 IRICut=       1 DoRegI=T DoRafI=F ISym2E= 1 IDoP0=0 IntGTp=1.
 FoFCou: FMM=F IPFlag=           0 FMFlag=      100000 FMFlg1=         800
         NFxFlg=           0 DoJE=F BraDBF=F KetDBF=F FulRan=T
         wScrn=  0.000000 ICntrl=      2527 IOpCl=  0 I1Cent=           0 NGrid=           0
         NMat0=    1 NMatS0=      1 NMatT0=    0 NMatD0=    1 NMtDS0=    0 NMtDT0=    0
 Petite list used in FoFCou.
 Leave Link  703 at Thu Apr  2 15:31:41 2026, MaxMem=  1073741824 cpu:             136.9 elap:              34.3
 (Enter /Users/yarger/Applications/g16/l716.exe)
 Dipole        = 5.16705624D-01 5.99329946D-01-3.77475828D-15
 ***** Axes restored to original set *****
 -------------------------------------------------------------------
 Center     Atomic                   Forces (Hartrees/Bohr)
 Number     Number              X              Y              Z
 -------------------------------------------------------------------
      1        6          -0.000013473   -0.000007671    0.000032401
      2        1           0.000005962    0.000019918    0.000000611
      3        6          -0.000003069   -0.000028094    0.000049557
      4        9           0.000010745    0.000024145   -0.000005602
      5        9          -0.000014569   -0.000002989   -0.000022553
      6        9           0.000008720   -0.000003801   -0.000006938
      7        9           0.000021070    0.000001455   -0.000033794
      8        1          -0.000015384   -0.000002963   -0.000013682
 -------------------------------------------------------------------
 Cartesian Forces:  Max     0.000049557 RMS     0.000018926
 Leave Link  716 at Thu Apr  2 15:31:41 2026, MaxMem=  1073741824 cpu:               0.1 elap:               0.0
 (Enter /Users/yarger/Applications/g16/l103.exe)

 GradGradGradGradGradGradGradGradGradGradGradGradGradGradGradGradGradGrad
 Berny optimization.
 Using GEDIIS/GDIIS optimizer.
 FormGI is forming the generalized inverse of G from B-inverse, IUseBI=4.
 Internal  Forces:  Max     0.000038004 RMS     0.000013297
 Search for a local minimum.
 Step number   6 out of a maximum of   38
 All quantities printed in internal units (Hartrees-Bohrs-Radians)
 RMS Force = .13297D-04 SwitMx=.10000D-02 MixMth= 2
 Mixed Optimization -- En-DIIS/RFO-DIIS
 Swapping is turned off.
 Update second derivatives using D2CorX and points    1    2    3    4    5
                                                      6
 DE= -1.87D-07 DEPred=-1.91D-07 R= 9.81D-01
 Trust test= 9.81D-01 RLast= 1.36D-03 DXMaxT set to 4.10D-01
 ITU=  0  1  1  1  1  0
     Eigenvalues ---    0.00237   0.05442   0.05745   0.08050   0.08690
     Eigenvalues ---    0.16000   0.17048   0.21989   0.23853   0.25000
     Eigenvalues ---    0.29763   0.35644   0.37230   0.37733   0.39852
     Eigenvalues ---    0.54939   0.55021   0.57325
 En-DIIS/RFO-DIIS/Sim-DIIS IScMMF=       -3 using points:     6    5    4    3
 RFO step:  Lambda=-1.75270301D-08.
 NNeg= 0 NGDIIS= 4 SimSw=  2.50D-01 Rises=F DC= -1.87D-07 SmlDif=  1.00D-05
 NRisDI= 0 DoIntr=F SqrtH=F CThrHd= 10.0 CDAdj=  3.0
 RMS Error=  0.8505478692D-04 NUsed= 4 OKEnD=F EnDIS=F
 InvSVX:  RCond= 9.51D-08 Info=           0 Equed=N FErr=  4.28D-15 BErr=  1.11D-16
 DIIS inversion failure, remove point   4.
 InvSVX:  RCond= 1.28D-07 Info=           0 Equed=N FErr=  3.02D-15 BErr=  6.99D-17
 RFO-DIIS uses    3 points instead of    4
 DidBck=F Rises=F RFO-DIIS coefs:    0.93595    0.13824   -0.07418    0.00000
 Iteration  1 RMS(Cart)=  0.00006211 RMS(Int)=  0.00000004
 Iteration  2 RMS(Cart)=  0.00000000 RMS(Int)=  0.00000004
 ITry= 1 IFail=0 DXMaxC= 1.47D-04 DCOld= 1.00D+10 DXMaxT= 4.10D-01 DXLimC= 3.00D+00 Rises=F
 ClnCor:  largest displacement from symmetrization is 1.38D-09 for atom     5.
 Variable       Old X    -DE/DX   Delta X   Delta X   Delta X     New X
                                 (Linear)    (Quad)   (Total)
    R1        2.05969   0.00002  -0.00005   0.00010   0.00004   2.05973
    R2        2.87106   0.00000  -0.00002   0.00004   0.00002   2.87108
    R3        2.58262  -0.00004   0.00008  -0.00013  -0.00005   2.58257
    R4        2.05969   0.00002  -0.00005   0.00010   0.00004   2.05973
    R5        2.51991   0.00001  -0.00004   0.00004   0.00000   2.51991
    R6        2.51991   0.00001  -0.00004   0.00004   0.00000   2.51991
    R7        2.53293   0.00001   0.00005  -0.00001   0.00005   2.53298
    A1        1.89707   0.00001   0.00000   0.00003   0.00003   1.89710
    A2        1.91231   0.00001   0.00000   0.00000   0.00000   1.91232
    A3        1.92741  -0.00000   0.00001   0.00003   0.00004   1.92745
    A4        1.91755  -0.00002  -0.00002  -0.00009  -0.00011   1.91744
    A5        1.89707   0.00001   0.00000   0.00003   0.00003   1.89710
    A6        1.91231   0.00001   0.00000   0.00000   0.00000   1.91232
    A7        1.95366  -0.00001   0.00006  -0.00006   0.00000   1.95366
    A8        1.95366  -0.00001   0.00006  -0.00006   0.00000   1.95366
    A9        1.90028   0.00001  -0.00010   0.00009  -0.00001   1.90027
   A10        1.88214   0.00003   0.00004   0.00012   0.00017   1.88230
   A11        1.88589  -0.00001  -0.00004  -0.00004  -0.00008   1.88581
   A12        1.88589  -0.00001  -0.00004  -0.00004  -0.00008   1.88581
    D1        1.03455  -0.00001  -0.00008  -0.00007  -0.00015   1.03440
    D2       -3.13307   0.00001   0.00007  -0.00000   0.00007  -3.13300
    D3       -1.04926  -0.00000  -0.00001  -0.00004  -0.00004  -1.04930
    D4       -1.05778  -0.00001  -0.00007  -0.00003  -0.00011  -1.05789
    D5        1.05778   0.00001   0.00007   0.00003   0.00011   1.05789
    D6       -3.14159  -0.00000  -0.00000  -0.00000  -0.00000   3.14159
    D7        3.13307  -0.00001  -0.00007   0.00000  -0.00007   3.13300
    D8       -1.03455   0.00001   0.00008   0.00007   0.00015  -1.03440
    D9        1.04926   0.00000   0.00001   0.00004   0.00004   1.04930
         Item               Value     Threshold  Converged?
 Maximum Force            0.000038     0.000015     NO 
 RMS     Force            0.000013     0.000010     NO 
 Maximum Displacement     0.000147     0.000060     NO 
 RMS     Displacement     0.000062     0.000040     NO 
 Predicted change in Energy=-1.160603D-08
 Lowest energy point so far.  Saving SCF results.
 GradGradGradGradGradGradGradGradGradGradGradGradGradGradGradGradGradGrad

 Leave Link  103 at Thu Apr  2 15:31:41 2026, MaxMem=  1073741824 cpu:               0.0 elap:               0.0
 (Enter /Users/yarger/Applications/g16/l202.exe)
                          Input orientation:                          
 ---------------------------------------------------------------------
 Center     Atomic      Atomic             Coordinates (Angstroms)
 Number     Number       Type             X           Y           Z
 ---------------------------------------------------------------------
      1          6           0       -1.501165    1.409669    1.458049
      2          1           0       -1.158583    2.444309    1.444796
      3          6           0       -0.322185    0.502295    1.149863
      4          9           0        0.664407    0.649517    2.034811
      5          9           0       -0.673083   -0.784145    1.139226
      6          9           0        0.157945    0.811841   -0.062702
      7          9           0       -2.006995    1.110774    2.691945
      8          1           0       -2.269520    1.253489    0.700911
 ---------------------------------------------------------------------
                    Distance matrix (angstroms):
                    1          2          3          4          5
     1  C    0.000000
     2  H    1.089963   0.000000
     3  C    1.519309   2.134940   0.000000
     4  F    2.366472   2.625393   1.333481   0.000000
     5  F    2.366472   3.279024   1.333481   2.155537   0.000000
     6  F    2.328675   2.582779   1.340395   2.163888   2.163888
     7  F    1.366639   2.013331   2.363652   2.789440   2.789440
     8  H    1.089963   1.790419   2.134940   3.279024   2.625393
                    6          7          8
     6  F    0.000000
     7  F    3.516306   0.000000
     8  H    2.582779   2.013331   0.000000
 Stoichiometry    C2H2F4
 Framework group  CS[SG(C2F2),X(H2F2)]
 Deg. of freedom    11
 Full point group                 CS      NOp   2
 RotChk:  IX=2 Diff= 5.79D-05
 Largest Abelian subgroup         CS      NOp   2
 Largest concise Abelian subgroup CS      NOp   2
                         Standard orientation:                         
 ---------------------------------------------------------------------
 Center     Atomic      Atomic             Coordinates (Angstroms)
 Number     Number       Type             X           Y           Z
 ---------------------------------------------------------------------
      1          6           0        1.154998    0.240843    0.000000
      2          1           0        1.486500    0.766891   -0.895209
      3          6           0       -0.363414    0.188629   -0.000000
      4          9           0       -0.840419   -0.435111   -1.077768
      5          9           0       -0.840419   -0.435111    1.077768
      6          9           0       -0.840419    1.441276   -0.000000
      7          9           0        1.663202   -1.027790    0.000000
      8          1           0        1.486500    0.766891    0.895209
 ---------------------------------------------------------------------
 Rotational constants (GHZ):           5.3626663           2.7925150           2.7509181
 Leave Link  202 at Thu Apr  2 15:31:41 2026, MaxMem=  1073741824 cpu:               0.0 elap:               0.0
 (Enter /Users/yarger/Applications/g16/l301.exe)
 Standard basis: Aug-CC-pVTZ (5D, 7F)
 Ernie: Thresh=  0.10000D-02 Tol=  0.10000D-05 Strict=F.
 Ernie:  18 primitive shells out of 202 were deleted.
 There are   228 symmetry adapted cartesian basis functions of A'  symmetry.
 There are   152 symmetry adapted cartesian basis functions of A"  symmetry.
 There are   189 symmetry adapted basis functions of A'  symmetry.
 There are   133 symmetry adapted basis functions of A"  symmetry.
   322 basis functions,   486 primitive gaussians,   380 cartesian basis functions
    25 alpha electrons       25 beta electrons
       nuclear repulsion energy       272.6093556888 Hartrees.
 IExCor= 4639 DFT=T Ex+Corr=wB97XD ExCW=0 ScaHFX=  1.000000
 ScaDFX=  1.000000  1.000000  1.000000  1.000000 ScalE2=  1.000000  1.000000
 IRadAn=      5 IRanWt=     -1 IRanGd=            0 ICorTp=0 IEmpDi=121
 HFx  wShort=  0.000000 wLong=  0.200000 cFull=  0.222036 cShort=  0.000000 cLong=  0.777964
 DFx  wShort=  0.000000 wLong=  0.200000 cFull=  0.000000 cShort=  0.000000 cLong=  1.000000
 NAtoms=    8 NActive=    8 NUniq=    6 SFac= 1.78D+00 NAtFMM=   60 NAOKFM=F Big=F
 Integral buffers will be    131072 words long.
 Raffenetti 2 integral format.
 Two-electron integral symmetry is turned on.
 R6Disp:  Grimme-D2 Dispersion energy=       -0.0021557056 Hartrees.
 Nuclear repulsion after empirical dispersion term =      272.6071999833 Hartrees.
 Leave Link  301 at Thu Apr  2 15:31:41 2026, MaxMem=  1073741824 cpu:               0.1 elap:               0.0
 (Enter /Users/yarger/Applications/g16/l302.exe)
 NPDir=0 NMtPBC=     1 NCelOv=     1 NCel=       1 NClECP=     1 NCelD=      1
         NCelK=      1 NCelE2=     1 NClLst=     1 CellRange=     0.0.
 One-electron integrals computed using PRISM.
 One-electron integral symmetry used in STVInt
 NBasis=   322 RedAO= T EigKep=  2.37D-05  NBF=   189   133
 NBsUse=   322 1.00D-06 EigRej= -1.00D+00 NBFU=   189   133
 Precomputing XC quadrature grid using
 IXCGrd= 4 IRadAn=           5 IRanWt=          -1 IRanGd=           0 AccXCQ= 0.00D+00.
 Generated NRdTot=       0 NPtTot=           0 NUsed=           0 NTot=          32
 NSgBfM=   380   380   380   380   380 MxSgAt=     8 MxSgA2=     8.
 Leave Link  302 at Thu Apr  2 15:31:41 2026, MaxMem=  1073741824 cpu:               0.7 elap:               0.2
 (Enter /Users/yarger/Applications/g16/l303.exe)
 DipDrv:  MaxL=1.
 Leave Link  303 at Thu Apr  2 15:31:41 2026, MaxMem=  1073741824 cpu:               0.1 elap:               0.0
 (Enter /Users/yarger/Applications/g16/l401.exe)
 Initial guess from the checkpoint file:  "1112Tetrafluoroethane_Opt_Freq_DFT_WB97XD_pVTZ_Gaussian16.chk"
 B after Tr=    -0.000000   -0.000000    0.000000
         Rot=    1.000000    0.000000   -0.000000    0.000019 Ang=   0.00 deg.
 Guess basis will be translated and rotated to current coordinates.
 JPrj=2 DoOrth=T DoCkMO=T.
 Initial guess orbital symmetries:
       Occupied  (A') (A") (A') (A') (A') (A') (A') (A') (A") (A')
                 (A') (A') (A") (A') (A') (A') (A") (A') (A") (A')
                 (A') (A") (A") (A") (A')
       Virtual   (A') (A") (A') (A') (A') (A") (A') (A') (A") (A')
                 (A") (A') (A') (A") (A') (A') (A") (A') (A") (A')
                 (A') (A") (A') (A') (A") (A') (A") (A') (A') (A")
                 (A') (A") (A') (A') (A") (A') (A') (A') (A") (A')
                 (A') (A") (A") (A') (A") (A') (A') (A") (A') (A')
                 (A') (A') (A") (A") (A') (A") (A') (A') (A") (A')
                 (A") (A') (A") (A') (A') (A") (A") (A') (A') (A")
                 (A") (A') (A') (A') (A") (A') (A") (A') (A") (A")
                 (A') (A") (A') (A") (A') (A') (A") (A') (A') (A")
                 (A') (A") (A') (A') (A") (A') (A') (A') (A") (A")
                 (A') (A') (A") (A') (A') (A") (A") (A') (A') (A")
                 (A') (A") (A') (A') (A") (A") (A") (A') (A') (A")
                 (A') (A") (A') (A") (A') (A') (A') (A") (A") (A')
                 (A') (A") (A') (A') (A') (A") (A") (A') (A") (A')
                 (A') (A") (A') (A') (A") (A') (A") (A') (A') (A')
                 (A") (A") (A') (A") (A") (A') (A') (A") (A') (A')
                 (A") (A") (A') (A') (A") (A') (A") (A') (A') (A")
                 (A') (A") (A') (A") (A') (A') (A") (A') (A") (A")
                 (A') (A') (A') (A") (A") (A") (A') (A") (A') (A")
                 (A') (A") (A') (A") (A') (A") (A') (A') (A') (A")
                 (A') (A') (A") (A') (A') (A") (A') (A") (A') (A')
                 (A') (A") (A') (A") (A") (A') (A') (A") (A') (A')
                 (A") (A") (A') (A") (A') (A') (A") (A') (A") (A')
                 (A") (A') (A") (A') (A") (A") (A') (A') (A") (A')
                 (A') (A") (A') (A') (A") (A") (A') (A") (A') (A")
                 (A') (A') (A") (A') (A") (A') (A') (A") (A") (A')
                 (A") (A') (A') (A") (A') (A") (A") (A") (A') (A')
                 (A") (A') (A') (A") (A') (A') (A') (A") (A") (A')
                 (A') (A") (A") (A') (A") (A') (A") (A') (A') (A')
                 (A") (A') (A') (A') (A") (A') (A')
 The electronic state of the initial guess is 1-A'.
 Leave Link  401 at Thu Apr  2 15:31:42 2026, MaxMem=  1073741824 cpu:               0.7 elap:               0.2
 (Enter /Users/yarger/Applications/g16/l502.exe)
 Integral symmetry usage will be decided dynamically.
 Closed shell SCF:
 Using DIIS extrapolation, IDIIS=  1040.
 NGot=  1073741824 LenX=  1073446812 LenY=  1073301971
 Requested convergence on RMS density matrix=1.00D-08 within 128 cycles.
 Requested convergence on MAX density matrix=1.00D-06.
 Requested convergence on             energy=1.00D-06.
 No special actions if energy rises.
 Fock matrices will be formed incrementally for  20 cycles.

 Cycle   1  Pass 1  IDiag  1:
 FoFJK:  IHMeth= 1 ICntrl=       0 DoSepK=T KAlg= 0 I1Cent=           0 FoldK=F
 IRaf=         1 NMat=       1 IRICut=       1 DoRegI=T DoRafI=F ISym2E= 1 IDoP0=0 IntGTp=1.
 FoFCou: FMM=F IPFlag=           0 FMFlag=      100000 FMFlg1=           0
         NFxFlg=           0 DoJE=T BraDBF=F KetDBF=F FulRan=T
         wScrn=  0.000000 ICntrl=       500 IOpCl=  0 I1Cent=           0 NGrid=           0
         NMat0=    1 NMatS0=      1 NMatT0=    0 NMatD0=    1 NMtDS0=    0 NMtDT0=    0
 Petite list used in FoFCou.
 E= -476.848464527267    
 DIIS: error= 5.37D-06 at cycle   1 NSaved=   1.
 NSaved= 1 IEnMin= 1 EnMin= -476.848464527267     IErMin= 1 ErrMin= 5.37D-06
 ErrMax= 5.37D-06  0.00D+00 EMaxC= 1.00D-01 BMatC= 1.07D-08 BMatP= 1.07D-08
 IDIUse=1 WtCom= 1.00D+00 WtEn= 0.00D+00
 Coeff-Com:  0.100D+01
 Coeff:      0.100D+01
 Gap=     0.489 Goal=   None    Shift=    0.000
 RMSDP=5.44D-07 MaxDP=2.31D-05              OVMax= 2.87D-05

 Cycle   2  Pass 1  IDiag  1:
 RMSU=  5.44D-07    CP:  1.00D+00
 E= -476.848464537178     Delta-E=       -0.000000009911 Rises=F Damp=F
 DIIS: error= 7.82D-07 at cycle   2 NSaved=   2.
 NSaved= 2 IEnMin= 2 EnMin= -476.848464537178     IErMin= 2 ErrMin= 7.82D-07
 ErrMax= 7.82D-07  0.00D+00 EMaxC= 1.00D-01 BMatC= 3.69D-10 BMatP= 1.07D-08
 IDIUse=1 WtCom= 1.00D+00 WtEn= 0.00D+00
 Coeff-Com: -0.748D-01 0.107D+01
 Coeff:     -0.748D-01 0.107D+01
 Gap=     0.489 Goal=   None    Shift=    0.000
 RMSDP=1.09D-07 MaxDP=4.48D-06 DE=-9.91D-09 OVMax= 8.47D-06

 Cycle   3  Pass 1  IDiag  1:
 RMSU=  9.42D-08    CP:  1.00D+00  1.10D+00
 E= -476.848464537664     Delta-E=       -0.000000000486 Rises=F Damp=F
 DIIS: error= 6.07D-07 at cycle   3 NSaved=   3.
 NSaved= 3 IEnMin= 3 EnMin= -476.848464537664     IErMin= 3 ErrMin= 6.07D-07
 ErrMax= 6.07D-07  0.00D+00 EMaxC= 1.00D-01 BMatC= 1.87D-10 BMatP= 3.69D-10
 IDIUse=1 WtCom= 1.00D+00 WtEn= 0.00D+00
 Coeff-Com: -0.557D-01 0.454D+00 0.601D+00
 Coeff:     -0.557D-01 0.454D+00 0.601D+00
 Gap=     0.489 Goal=   None    Shift=    0.000
 RMSDP=2.75D-08 MaxDP=9.53D-07 DE=-4.86D-10 OVMax= 2.49D-06

 Cycle   4  Pass 1  IDiag  1:
 RMSU=  2.71D-08    CP:  1.00D+00  1.11D+00  1.05D+00
 E= -476.848464537777     Delta-E=       -0.000000000113 Rises=F Damp=F
 DIIS: error= 1.54D-07 at cycle   4 NSaved=   4.
 NSaved= 4 IEnMin= 4 EnMin= -476.848464537777     IErMin= 4 ErrMin= 1.54D-07
 ErrMax= 1.54D-07  0.00D+00 EMaxC= 1.00D-01 BMatC= 1.87D-11 BMatP= 1.87D-10
 IDIUse=1 WtCom= 1.00D+00 WtEn= 0.00D+00
 Coeff-Com: -0.223D-02-0.693D-01 0.203D+00 0.869D+00
 Coeff:     -0.223D-02-0.693D-01 0.203D+00 0.869D+00
 Gap=     0.489 Goal=   None    Shift=    0.000
 RMSDP=1.44D-08 MaxDP=4.67D-07 DE=-1.13D-10 OVMax= 1.10D-06

 Cycle   5  Pass 1  IDiag  1:
 RMSU=  6.91D-09    CP:  1.00D+00  1.11D+00  1.18D+00  1.05D+00
 E= -476.848464537782     Delta-E=       -0.000000000005 Rises=F Damp=F
 DIIS: error= 4.01D-08 at cycle   5 NSaved=   5.
 NSaved= 5 IEnMin= 5 EnMin= -476.848464537782     IErMin= 5 ErrMin= 4.01D-08
 ErrMax= 4.01D-08  0.00D+00 EMaxC= 1.00D-01 BMatC= 5.32D-13 BMatP= 1.87D-11
 IDIUse=1 WtCom= 1.00D+00 WtEn= 0.00D+00
 Coeff-Com:  0.209D-02-0.440D-01 0.253D-01 0.219D+00 0.797D+00
 Coeff:      0.209D-02-0.440D-01 0.253D-01 0.219D+00 0.797D+00
 Gap=     0.489 Goal=   None    Shift=    0.000
 RMSDP=3.16D-09 MaxDP=1.37D-07 DE=-5.46D-12 OVMax= 1.82D-07

 SCF Done:  E(RwB97XD) =  -476.848464538     A.U. after    5 cycles
            NFock=  5  Conv=0.32D-08     -V/T= 2.0049
 KE= 4.745273848827D+02 PE=-1.677538160745D+03 EE= 4.535551113411D+02
 Leave Link  502 at Thu Apr  2 15:32:24 2026, MaxMem=  1073741824 cpu:             168.0 elap:              42.2
 (Enter /Users/yarger/Applications/g16/l701.exe)
 ... and contract with generalized density number  0.
 Compute integral first derivatives.
 R6Disp: Adding Grimme-D2 dispersion energy 1st derivatives to the gradient.
 Leave Link  701 at Thu Apr  2 15:32:24 2026, MaxMem=  1073741824 cpu:               0.5 elap:               0.1
 (Enter /Users/yarger/Applications/g16/l702.exe)
 L702 exits ... SP integral derivatives will be done elsewhere.
 Leave Link  702 at Thu Apr  2 15:32:24 2026, MaxMem=  1073741824 cpu:               0.1 elap:               0.0
 (Enter /Users/yarger/Applications/g16/l703.exe)
 Integral derivatives from FoFJK, PRISM(SPDF).
 Compute integral first derivatives, UseDBF=F ICtDFT=           0.
 Calling FoFJK, ICntrl=      2127 FMM=F ISym2X=1 I1Cent= 0 IOpClX= 0 NMat=1 NMatS=1 NMatT=0.
 FoFJK:  IHMeth= 1 ICntrl=    2127 DoSepK=T KAlg= 0 I1Cent=           0 FoldK=F
 IRaf=         1 NMat=       1 IRICut=       1 DoRegI=T DoRafI=F ISym2E= 1 IDoP0=0 IntGTp=1.
 FoFCou: FMM=F IPFlag=           0 FMFlag=      100000 FMFlg1=         800
         NFxFlg=           0 DoJE=F BraDBF=F KetDBF=F FulRan=T
         wScrn=  0.000000 ICntrl=      2527 IOpCl=  0 I1Cent=           0 NGrid=           0
         NMat0=    1 NMatS0=      1 NMatT0=    0 NMatD0=    1 NMtDS0=    0 NMtDT0=    0
 Petite list used in FoFCou.
 Leave Link  703 at Thu Apr  2 15:32:59 2026, MaxMem=  1073741824 cpu:             137.6 elap:              34.5
 (Enter /Users/yarger/Applications/g16/l716.exe)
 Dipole        = 5.16806356D-01 5.99135014D-01-2.88657986D-15
 ***** Axes restored to original set *****
 -------------------------------------------------------------------
 Center     Atomic                   Forces (Hartrees/Bohr)
 Number     Number              X              Y              Z
 -------------------------------------------------------------------
      1        6          -0.000003772   -0.000009267    0.000020468
      2        1           0.000001835    0.000005234   -0.000002951
      3        6           0.000003424   -0.000002366   -0.000001325
      4        9          -0.000005933   -0.000001508    0.000000632
      5        9          -0.000000445    0.000004374    0.000004306
      6        9           0.000003762   -0.000000428   -0.000004934
      7        9           0.000003506    0.000003241   -0.000010425
      8        1          -0.000002377    0.000000720   -0.000005771
 -------------------------------------------------------------------
 Cartesian Forces:  Max     0.000020468 RMS     0.000005997
 Leave Link  716 at Thu Apr  2 15:32:59 2026, MaxMem=  1073741824 cpu:               0.1 elap:               0.0
 (Enter /Users/yarger/Applications/g16/l103.exe)

 GradGradGradGradGradGradGradGradGradGradGradGradGradGradGradGradGradGrad
 Berny optimization.
 Using GEDIIS/GDIIS optimizer.
 FormGI is forming the generalized inverse of G from B-inverse, IUseBI=4.
 Internal  Forces:  Max     0.000010794 RMS     0.000003444
 Search for a local minimum.
 Step number   7 out of a maximum of   38
 All quantities printed in internal units (Hartrees-Bohrs-Radians)
 RMS Force = .34442D-05 SwitMx=.10000D-02 MixMth= 2
 Mixed Optimization -- En-DIIS/RFO-DIIS
 Swapping is turned off.
 Update second derivatives using D2CorX and points    1    2    3    4    5
                                                      6    7
 DE= -9.02D-09 DEPred=-1.16D-08 R= 7.77D-01
 Trust test= 7.77D-01 RLast= 3.78D-04 DXMaxT set to 4.10D-01
 ITU=  0  0  1  1  1  1  0
     Eigenvalues ---    0.00237   0.05746   0.06005   0.08691   0.09988
     Eigenvalues ---    0.16000   0.17238   0.20987   0.23777   0.25000
     Eigenvalues ---    0.29904   0.35591   0.36978   0.37230   0.40066
     Eigenvalues ---    0.52271   0.55021   0.57551
 En-DIIS/RFO-DIIS/Sim-DIIS IScMMF=       -3 using points:     7    6    5    4    3
 RFO step:  Lambda=-9.28677836D-10.
 NNeg= 0 NGDIIS= 5 SimSw=  2.50D-01 Rises=F DC= -9.02D-09 SmlDif=  1.00D-05
 NRisDI= 0 DoIntr=F SqrtH=F CThrHd= 10.0 CDAdj=  3.0
 RMS Error=  0.1625451980D-04 NUsed= 5 OKEnD=F EnDIS=F
 InvSVX:  RCond= 2.46D-08 Info=           0 Equed=N FErr=  3.30D-15 BErr=  1.07D-16
 DIIS inversion failure, remove point   5.
 InvSVX:  RCond= 7.66D-08 Info=           0 Equed=N FErr=  2.38D-15 BErr=  5.30D-17
 DIIS inversion failure, remove point   4.
 InvSVX:  RCond= 3.29D-08 Info=           0 Equed=N FErr=  1.37D-15 BErr=  3.20D-17
 DIIS inversion failure, remove point   3.
 InvSVX:  RCond= 1.60D-07 Info=           0 Equed=N FErr=  1.09D-15 BErr=  6.32D-17
 RFO-DIIS uses    2 points instead of    5
 DidBck=F Rises=F RFO-DIIS coefs:    0.88949    0.11051    0.00000    0.00000    0.00000
 Iteration  1 RMS(Cart)=  0.00001699 RMS(Int)=  0.00000000
 Iteration  2 RMS(Cart)=  0.00000000 RMS(Int)=  0.00000000
 ITry= 1 IFail=0 DXMaxC= 3.65D-05 DCOld= 1.00D+10 DXMaxT= 4.10D-01 DXLimC= 3.00D+00 Rises=F
 ClnCor:  largest displacement from symmetrization is 7.36D-10 for atom     5.
 Variable       Old X    -DE/DX   Delta X   Delta X   Delta X     New X
                                 (Linear)    (Quad)   (Total)
    R1        2.05973   0.00001  -0.00000   0.00002   0.00002   2.05975
    R2        2.87108   0.00000  -0.00000   0.00001   0.00000   2.87108
    R3        2.58257  -0.00001   0.00001  -0.00003  -0.00003   2.58255
    R4        2.05973   0.00001  -0.00000   0.00002   0.00002   2.05975
    R5        2.51991  -0.00000  -0.00000  -0.00000  -0.00000   2.51991
    R6        2.51991  -0.00000  -0.00000  -0.00000  -0.00000   2.51991
    R7        2.53298   0.00001  -0.00001   0.00001   0.00001   2.53298
    A1        1.89710  -0.00000  -0.00000  -0.00000  -0.00000   1.89710
    A2        1.91232   0.00000  -0.00000   0.00002   0.00002   1.91233
    A3        1.92745  -0.00000  -0.00000  -0.00001  -0.00002   1.92743
    A4        1.91744   0.00000   0.00001  -0.00002  -0.00000   1.91744
    A5        1.89710  -0.00000  -0.00000  -0.00000  -0.00000   1.89710
    A6        1.91232   0.00000  -0.00000   0.00002   0.00002   1.91233
    A7        1.95366  -0.00000  -0.00000  -0.00002  -0.00002   1.95364
    A8        1.95366  -0.00000  -0.00000  -0.00002  -0.00002   1.95364
    A9        1.90027   0.00000   0.00000   0.00003   0.00003   1.90030
   A10        1.88230   0.00000  -0.00002   0.00001  -0.00001   1.88230
   A11        1.88581   0.00000   0.00001  -0.00000   0.00001   1.88582
   A12        1.88581   0.00000   0.00001  -0.00000   0.00001   1.88582
    D1        1.03440   0.00000   0.00002   0.00002   0.00003   1.03444
    D2       -3.13300  -0.00000  -0.00001   0.00000  -0.00001  -3.13301
    D3       -1.04930   0.00000   0.00000   0.00001   0.00001  -1.04929
    D4       -1.05789   0.00000   0.00001   0.00001   0.00002  -1.05787
    D5        1.05789  -0.00000  -0.00001  -0.00001  -0.00002   1.05787
    D6        3.14159   0.00000   0.00000  -0.00000   0.00000   3.14159
    D7        3.13300   0.00000   0.00001  -0.00000   0.00001   3.13301
    D8       -1.03440  -0.00000  -0.00002  -0.00002  -0.00003  -1.03444
    D9        1.04930  -0.00000  -0.00000  -0.00001  -0.00001   1.04929
         Item               Value     Threshold  Converged?
 Maximum Force            0.000011     0.000015     YES
 RMS     Force            0.000003     0.000010     YES
 Maximum Displacement     0.000037     0.000060     YES
 RMS     Displacement     0.000017     0.000040     YES
 Predicted change in Energy=-5.865498D-10
 Optimization completed.
    -- Stationary point found.
                           ----------------------------
                           !   Optimized Parameters   !
                           ! (Angstroms and Degrees)  !
 --------------------------                            --------------------------
 ! Name  Definition              Value          Derivative Info.                !
 --------------------------------------------------------------------------------
 ! R1    R(1,2)                  1.09           -DE/DX =    0.0                 !
 ! R2    R(1,3)                  1.5193         -DE/DX =    0.0                 !
 ! R3    R(1,7)                  1.3666         -DE/DX =    0.0                 !
 ! R4    R(1,8)                  1.09           -DE/DX =    0.0                 !
 ! R5    R(3,4)                  1.3335         -DE/DX =    0.0                 !
 ! R6    R(3,5)                  1.3335         -DE/DX =    0.0                 !
 ! R7    R(3,6)                  1.3404         -DE/DX =    0.0                 !
 ! A1    A(2,1,3)              108.696          -DE/DX =    0.0                 !
 ! A2    A(2,1,7)              109.5676         -DE/DX =    0.0                 !
 ! A3    A(2,1,8)              110.4345         -DE/DX =    0.0                 !
 ! A4    A(3,1,7)              109.8612         -DE/DX =    0.0                 !
 ! A5    A(3,1,8)              108.696          -DE/DX =    0.0                 !
 ! A6    A(7,1,8)              109.5676         -DE/DX =    0.0                 !
 ! A7    A(1,3,4)              111.9365         -DE/DX =    0.0                 !
 ! A8    A(1,3,5)              111.9365         -DE/DX =    0.0                 !
 ! A9    A(1,3,6)              108.8773         -DE/DX =    0.0                 !
 ! A10   A(4,3,5)              107.8481         -DE/DX =    0.0                 !
 ! A11   A(4,3,6)              108.0492         -DE/DX =    0.0                 !
 ! A12   A(5,3,6)              108.0492         -DE/DX =    0.0                 !
 ! D1    D(2,1,3,4)             59.267          -DE/DX =    0.0                 !
 ! D2    D(2,1,3,5)           -179.5078         -DE/DX =    0.0                 !
 ! D3    D(2,1,3,6)            -60.1204         -DE/DX =    0.0                 !
 ! D4    D(7,1,3,4)            -60.6126         -DE/DX =    0.0                 !
 ! D5    D(7,1,3,5)             60.6126         -DE/DX =    0.0                 !
 ! D6    D(7,1,3,6)            180.0            -DE/DX =    0.0                 !
 ! D7    D(8,1,3,4)            179.5078         -DE/DX =    0.0                 !
 ! D8    D(8,1,3,5)            -59.267          -DE/DX =    0.0                 !
 ! D9    D(8,1,3,6)             60.1204         -DE/DX =    0.0                 !
 --------------------------------------------------------------------------------
 Lowest energy point so far.  Saving SCF results.
 Largest change from initial coordinates is atom    7       1.665 Angstoms.
 GradGradGradGradGradGradGradGradGradGradGradGradGradGradGradGradGradGrad

 Leave Link  103 at Thu Apr  2 15:32:59 2026, MaxMem=  1073741824 cpu:               0.0 elap:               0.0
 (Enter /Users/yarger/Applications/g16/l202.exe)
                          Input orientation:                          
 ---------------------------------------------------------------------
 Center     Atomic      Atomic             Coordinates (Angstroms)
 Number     Number       Type             X           Y           Z
 ---------------------------------------------------------------------
      1          6           0       -1.501165    1.409669    1.458049
      2          1           0       -1.158583    2.444309    1.444796
      3          6           0       -0.322185    0.502295    1.149863
      4          9           0        0.664407    0.649517    2.034811
      5          9           0       -0.673083   -0.784145    1.139226
      6          9           0        0.157945    0.811841   -0.062702
      7          9           0       -2.006995    1.110774    2.691945
      8          1           0       -2.269520    1.253489    0.700911
 ---------------------------------------------------------------------
                    Distance matrix (angstroms):
                    1          2          3          4          5
     1  C    0.000000
     2  H    1.089963   0.000000
     3  C    1.519309   2.134940   0.000000
     4  F    2.366472   2.625393   1.333481   0.000000
     5  F    2.366472   3.279024   1.333481   2.155537   0.000000
     6  F    2.328675   2.582779   1.340395   2.163888   2.163888
     7  F    1.366639   2.013331   2.363652   2.789440   2.789440
     8  H    1.089963   1.790419   2.134940   3.279024   2.625393
                    6          7          8
     6  F    0.000000
     7  F    3.516306   0.000000
     8  H    2.582779   2.013331   0.000000
 Stoichiometry    C2H2F4
 Framework group  CS[SG(C2F2),X(H2F2)]
 Deg. of freedom    11
 Full point group                 CS      NOp   2
 RotChk:  IX=2 Diff= 4.09D-15
 Largest Abelian subgroup         CS      NOp   2
 Largest concise Abelian subgroup CS      NOp   2
                         Standard orientation:                         
 ---------------------------------------------------------------------
 Center     Atomic      Atomic             Coordinates (Angstroms)
 Number     Number       Type             X           Y           Z
 ---------------------------------------------------------------------
      1          6           0        1.154998    0.240843   -0.000000
      2          1           0        1.486500    0.766891   -0.895209
      3          6           0       -0.363414    0.188629   -0.000000
      4          9           0       -0.840419   -0.435111   -1.077768
      5          9           0       -0.840419   -0.435111    1.077768
      6          9           0       -0.840419    1.441276   -0.000000
      7          9           0        1.663202   -1.027790    0.000000
      8          1           0        1.486500    0.766891    0.895209
 ---------------------------------------------------------------------
 Rotational constants (GHZ):           5.3626663           2.7925150           2.7509181
 Leave Link  202 at Thu Apr  2 15:32:59 2026, MaxMem=  1073741824 cpu:               0.0 elap:               0.0
 (Enter /Users/yarger/Applications/g16/l601.exe)
 Copying SCF densities to generalized density rwf, IOpCl= 0 IROHF=0.

 **********************************************************************

            Population analysis using the SCF density.

 **********************************************************************

 Orbital symmetries:
       Occupied  (A') (A") (A') (A') (A') (A') (A') (A') (A") (A')
                 (A') (A') (A") (A') (A') (A') (A") (A') (A") (A')
                 (A') (A") (A") (A") (A')
       Virtual   (A') (A") (A') (A') (A') (A") (A') (A') (A") (A')
                 (A") (A') (A') (A") (A') (A') (A") (A') (A") (A')
                 (A') (A") (A') (A') (A") (A') (A") (A') (A') (A")
                 (A') (A") (A') (A') (A") (A') (A') (A') (A") (A')
                 (A') (A") (A") (A') (A") (A') (A') (A") (A') (A')
                 (A') (A') (A") (A") (A') (A") (A') (A') (A") (A')
                 (A") (A') (A") (A') (A') (A") (A") (A') (A') (A")
                 (A") (A') (A') (A') (A") (A') (A") (A') (A") (A")
                 (A') (A") (A') (A") (A') (A') (A") (A') (A') (A")
                 (A') (A") (A') (A') (A") (A') (A') (A') (A") (A")
                 (A') (A') (A") (A') (A') (A") (A") (A') (A') (A")
                 (A') (A") (A') (A') (A") (A") (A") (A') (A') (A")
                 (A') (A") (A') (A") (A') (A') (A') (A") (A") (A')
                 (A') (A") (A') (A') (A') (A") (A") (A') (A") (A')
                 (A') (A") (A') (A') (A") (A') (A") (A') (A') (A')
                 (A") (A") (A') (A") (A") (A') (A') (A") (A') (A')
                 (A") (A") (A') (A') (A") (A') (A") (A') (A') (A")
                 (A') (A") (A') (A") (A') (A') (A") (A') (A") (A")
                 (A') (A') (A') (A") (A") (A") (A') (A") (A') (A")
                 (A') (A") (A') (A") (A') (A") (A') (A') (A') (A")
                 (A') (A') (A") (A') (A') (A") (A') (A") (A') (A')
                 (A') (A") (A') (A") (A") (A') (A') (A") (A') (A')
                 (A") (A") (A') (A") (A') (A') (A") (A') (A") (A')
                 (A") (A') (A") (A') (A") (A") (A') (A') (A") (A')
                 (A') (A") (A') (A') (A") (A") (A') (A") (A') (A")
                 (A') (A') (A") (A') (A") (A') (A') (A") (A") (A')
                 (A") (A') (A') (A") (A') (A") (A") (A") (A') (A')
                 (A") (A') (A') (A") (A') (A') (A') (A") (A") (A')
                 (A') (A") (A") (A') (A") (A') (A") (A') (A') (A')
                 (A") (A') (A') (A') (A") (A') (A')
 The electronic state is 1-A'.
 Alpha  occ. eigenvalues --  -24.86101 -24.85786 -24.85785 -24.83151 -10.55258
 Alpha  occ. eigenvalues --  -10.40261  -1.44039  -1.35064  -1.34816  -1.33751
 Alpha  occ. eigenvalues --   -0.89775  -0.78664  -0.70786  -0.70747  -0.68355
 Alpha  occ. eigenvalues --   -0.61858  -0.61689  -0.57582  -0.57498  -0.54884
 Alpha  occ. eigenvalues --   -0.53574  -0.53495  -0.51711  -0.46936  -0.45880
 Alpha virt. eigenvalues --    0.03057   0.04512   0.06525   0.07243   0.10089
 Alpha virt. eigenvalues --    0.10123   0.10629   0.12226   0.12974   0.14636
 Alpha virt. eigenvalues --    0.16228   0.16510   0.18346   0.21619   0.21938
 Alpha virt. eigenvalues --    0.22585   0.22961   0.24208   0.24862   0.26102
 Alpha virt. eigenvalues --    0.26906   0.27935   0.28159   0.29154   0.30349
 Alpha virt. eigenvalues --    0.31242   0.31607   0.32432   0.33194   0.34656
 Alpha virt. eigenvalues --    0.34716   0.36127   0.36270   0.37822   0.38730
 Alpha virt. eigenvalues --    0.40536   0.42631   0.43849   0.44016   0.44709
 Alpha virt. eigenvalues --    0.46684   0.46868   0.48733   0.49875   0.49996
 Alpha virt. eigenvalues --    0.51126   0.53793   0.55994   0.56412   0.62609
 Alpha virt. eigenvalues --    0.64226   0.67846   0.70114   0.73495   0.74205
 Alpha virt. eigenvalues --    0.74417   0.78850   0.80014   0.82194   0.83070
 Alpha virt. eigenvalues --    0.83480   0.84613   0.87173   0.87594   0.90342
 Alpha virt. eigenvalues --    0.90943   0.94787   0.95511   0.97565   0.98987
 Alpha virt. eigenvalues --    0.99683   1.00031   1.01427   1.02536   1.02813
 Alpha virt. eigenvalues --    1.05933   1.06192   1.07994   1.09346   1.10936
 Alpha virt. eigenvalues --    1.12542   1.13024   1.13349   1.14666   1.15772
 Alpha virt. eigenvalues --    1.17317   1.17450   1.17919   1.24371   1.24854
 Alpha virt. eigenvalues --    1.26592   1.28806   1.30814   1.32579   1.35615
 Alpha virt. eigenvalues --    1.36488   1.38775   1.44842   1.45546   1.47436
 Alpha virt. eigenvalues --    1.48742   1.50036   1.51591   1.52773   1.55222
 Alpha virt. eigenvalues --    1.55307   1.57457   1.58129   1.60668   1.63245
 Alpha virt. eigenvalues --    1.64269   1.66681   1.69481   1.71883   1.71997
 Alpha virt. eigenvalues --    1.76546   1.76688   1.79659   1.82806   1.83615
 Alpha virt. eigenvalues --    1.86707   1.88100   1.88836   1.96773   1.98805
 Alpha virt. eigenvalues --    2.02267   2.04757   2.06998   2.15837   2.30862
 Alpha virt. eigenvalues --    2.39067   2.50013   2.51372   2.56610   2.58167
 Alpha virt. eigenvalues --    2.58899   2.62578   2.63517   2.65934   2.66439
 Alpha virt. eigenvalues --    2.70203   2.71702   2.71847   2.75360   2.76439
 Alpha virt. eigenvalues --    2.80412   2.80800   2.81922   2.84021   2.84308
 Alpha virt. eigenvalues --    2.86078   2.89492   2.90018   2.92710   2.94005
 Alpha virt. eigenvalues --    2.95243   2.97346   3.00068   3.03917   3.05657
 Alpha virt. eigenvalues --    3.05708   3.08642   3.11392   3.16385   3.16982
 Alpha virt. eigenvalues --    3.20445   3.20604   3.22119   3.22770   3.24422
 Alpha virt. eigenvalues --    3.25765   3.27394   3.31718   3.37257   3.37765
 Alpha virt. eigenvalues --    3.42595   3.46518   3.46685   3.47585   3.50255
 Alpha virt. eigenvalues --    3.50372   3.54113   3.56873   3.58158   3.59738
 Alpha virt. eigenvalues --    3.62457   3.65070   3.66866   3.70332   3.77695
 Alpha virt. eigenvalues --    3.79612   3.85776   3.86149   3.88972   3.90688
 Alpha virt. eigenvalues --    3.92634   3.95137   4.02730   4.05908   4.06774
 Alpha virt. eigenvalues --    4.11961   4.15212   4.17565   4.19316   4.21764
 Alpha virt. eigenvalues --    4.25248   4.28267   4.29927   4.40868   4.41900
 Alpha virt. eigenvalues --    4.51453   4.53378   4.54824   4.57433   4.61663
 Alpha virt. eigenvalues --    4.64316   4.72283   4.75366   4.79968   4.84930
 Alpha virt. eigenvalues --    4.90086   4.93767   5.05483   5.12724   5.14581
 Alpha virt. eigenvalues --    5.21857   5.28520   5.32074   5.32195   5.39864
 Alpha virt. eigenvalues --    5.44268   5.48724   5.52602   5.55771   5.57058
 Alpha virt. eigenvalues --    5.73843   5.75353   5.87839   6.36497   6.47074
 Alpha virt. eigenvalues --    6.76230   6.91029   6.91587   8.43676   8.46150
 Alpha virt. eigenvalues --    8.47528   8.48361   8.50102   8.51436   8.54012
 Alpha virt. eigenvalues --    8.57140   8.62751   8.67776   8.76391   8.80130
 Alpha virt. eigenvalues --    8.81277   8.82488   8.82606   8.84598   8.85636
 Alpha virt. eigenvalues --    8.87033   8.87644   8.88593   8.89213   8.91075
 Alpha virt. eigenvalues --    8.92473   8.94565   8.94964   8.95008   8.97173
 Alpha virt. eigenvalues --    8.99539   9.01488   9.04175   9.05194   9.05394
 Alpha virt. eigenvalues --    9.06529   9.09525   9.11056   9.13351   9.16863
 Alpha virt. eigenvalues --    9.21729   9.22167   9.24547   9.31735   9.35846
 Alpha virt. eigenvalues --    9.36360   9.38155   9.39500   9.41351   9.63992
 Alpha virt. eigenvalues --    9.64095  14.69876  14.79373  14.98934  15.05464
 Alpha virt. eigenvalues --   17.13188  17.86539
          Condensed to atoms (all electrons):
               1          2          3          4          5          6
     1  C    5.306822   0.374794   0.111077   0.035071   0.035071   0.016432
     2  H    0.374794   0.444832  -0.054892   0.000729   0.011053   0.005775
     3  C    0.111077  -0.054892   4.483154   0.103885   0.103885   0.100784
     4  F    0.035071   0.000729   0.103885   9.284212  -0.039910  -0.033212
     5  F    0.035071   0.011053   0.103885  -0.039910   9.284212  -0.033212
     6  F    0.016432   0.005775   0.100784  -0.033212  -0.033212   9.295557
     7  F   -0.055845   0.021026   0.009389  -0.003881  -0.003881   0.007231
     8  H    0.374794  -0.055561  -0.054892   0.011053   0.000729   0.005775
               7          8
     1  C   -0.055845   0.374794
     2  H    0.021026  -0.055561
     3  C    0.009389  -0.054892
     4  F   -0.003881   0.011053
     5  F   -0.003881   0.000729
     6  F    0.007231   0.005775
     7  F    9.427792   0.021026
     8  H    0.021026   0.444832
 Mulliken charges:
               1
     1  C   -0.198217
     2  H    0.252244
     3  C    1.197610
     4  F   -0.357947
     5  F   -0.357947
     6  F   -0.365130
     7  F   -0.422858
     8  H    0.252244
 Sum of Mulliken charges =  -0.00000
 Mulliken charges with hydrogens summed into heavy atoms:
               1
     1  C    0.306272
     3  C    1.197610
     4  F   -0.357947
     5  F   -0.357947
     6  F   -0.365130
     7  F   -0.422858
 Electronic spatial extent (au):  <R**2>=            476.0207
 Charge=              0.0000 electrons
 Dipole moment (field-independent basis, Debye):
    X=              1.3136    Y=              1.5228    Z=              0.0000  Tot=              2.0111
 Quadrupole moment (field-independent basis, Debye-Ang):
   XX=            -32.1287   YY=            -33.5130   ZZ=            -31.6594
   XY=              3.1196   XZ=             -0.0000   YZ=             -0.0000
 Traceless Quadrupole moment (field-independent basis, Debye-Ang):
   XX=              0.3050   YY=             -1.0793   ZZ=              0.7743
   XY=              3.1196   XZ=             -0.0000   YZ=             -0.0000
 Octapole moment (field-independent basis, Debye-Ang**2):
  XXX=             -6.2964  YYY=             -3.9809  ZZZ=              0.0000  XYY=             -1.7901
  XXY=              3.4305  XXZ=              0.0000  XZZ=              1.0422  YZZ=              0.6109
  YYZ=              0.0000  XYZ=              0.0000
 Hexadecapole moment (field-independent basis, Debye-Ang**3):
 XXXX=           -233.4786 YYYY=           -137.0217 ZZZZ=            -97.5010 XXXY=             31.9646
 XXXZ=             -0.0000 YYYX=             27.2997 YYYZ=             -0.0000 ZZZX=             -0.0000
 ZZZY=             -0.0000 XXYY=            -63.6530 XXZZ=            -52.8529 YYZZ=            -38.0284
 XXYZ=             -0.0000 YYXZ=             -0.0000 ZZXY=              9.5509
 N-N= 2.726071999833D+02 E-N=-1.677538170557D+03  KE= 4.745273848827D+02
 Symmetry A'   KE= 3.579546102529D+02
 Symmetry A"   KE= 1.165727746297D+02
 No NMR shielding tensors so no spin-rotation constants.
 Leave Link  601 at Thu Apr  2 15:32:59 2026, MaxMem=  1073741824 cpu:               0.6 elap:               0.2
 (Enter /Users/yarger/Applications/g16/l9999.exe)
 1\1\GINC-MACBOOKPRO\FOpt\RwB97XD\Aug-CC-pVTZ\C2H2F4\ROOT\02-Apr-2026\0
 \\#p opt=tight freq=raman wb97xd/aug-cc-pvtz guess=save geom=connectiv
 ity polar\\r134a - 1,1,1,2-Tetrafluoroethane\\0,1\C,-1.5011651675,1.40
 96689105,1.4580487895\H,-1.1585825881,2.4443092732,1.4447958782\C,-0.3
 221847795,0.502294803,1.149862844\F,0.6644071532,0.64951716,2.03481052
 5\F,-0.6730828903,-0.7841451856,1.1392264035\F,0.1579451353,0.81184121
 33,-0.0627022153\F,-2.0069953281,1.1107735209,2.6919450169\H,-2.269520
 439,1.2534893693,0.7009112384\\Version=EM64M-G16RevA.03\State=1-A'\HF=
 -476.8484645\RMSD=3.160e-09\RMSF=5.997e-06\Dipole=-0.3509971,0.5812235
 ,-0.4062411\Quadrupole=0.0406767,1.4189489,-1.4596256,-0.6280703,1.804
 4048,-0.4119451\PG=CS [SG(C2F2),X(H2F2)]\\@


 FRICTION IS A DRAG,
 AND ENTROPY AIN'T WHAT IT USED TO BE.
 Leave Link 9999 at Thu Apr  2 15:32:59 2026, MaxMem=  1073741824 cpu:               0.1 elap:               0.0
 Job cpu time:       0 days  0 hours 47 minutes 14.2 seconds.
 Elapsed time:       0 days  0 hours 11 minutes 51.5 seconds.
 File lengths (MBytes):  RWF=     68 Int=      0 D2E=      0 Chk=      8 Scr=      1
 Normal termination of Gaussian 16 at Thu Apr  2 15:32:59 2026.
 (Enter /Users/yarger/Applications/g16/l1.exe)
 Link1:  Proceeding to internal job step number  2.
 ----------------------------------------------------------------------
 #P Geom=AllCheck Guess=TCheck SCRF=Check GenChk RwB97XD/Aug-CC-pVTZ Fr
 eq
 ----------------------------------------------------------------------
 1/7=10,10=4,29=7,30=1,38=1,40=1/1,3;
 2/12=2,40=1/2;
 3/5=16,6=1,7=10,11=2,14=-4,25=1,30=1,70=2,71=2,74=-58,116=1,140=1/1,2,3;
 4/5=101/1;
 5/5=2,38=6,98=1/2;
 8/6=4,10=90,11=11/1;
 10/13=10,15=4/2;
 11/6=3,8=1,9=11,15=111,16=1/1,2,10;
 10/6=1/2;
 6/7=2,8=2,9=2,10=2,28=1/1;
 7/8=1,10=1,25=1/1,2,3,16;
 1/7=10,10=4,30=1/3;
 99//99;
 Leave Link    1 at Thu Apr  2 15:32:59 2026, MaxMem=  1073741824 cpu:               0.1 elap:               0.0
 (Enter /Users/yarger/Applications/g16/l101.exe)
 Structure from the checkpoint file:  "1112Tetrafluoroethane_Opt_Freq_DFT_WB97XD_pVTZ_Gaussian16.chk"
 ---------------------------------
 r134a - 1,1,1,2-Tetrafluoroethane
 ---------------------------------
 Charge =  0 Multiplicity = 1
 Redundant internal coordinates found in file.  (old form).
 C,0,-1.5011651675,1.4096689105,1.4580487895
 H,0,-1.1585825881,2.4443092732,1.4447958782
 C,0,-0.3221847795,0.502294803,1.149862844
 F,0,0.6644071532,0.64951716,2.034810525
 F,0,-0.6730828903,-0.7841451856,1.1392264035
 F,0,0.1579451353,0.8118412133,-0.0627022153
 F,0,-2.0069953281,1.1107735209,2.6919450169
 H,0,-2.269520439,1.2534893693,0.7009112384
 Recover connectivity data from disk.
 ITRead=  0  0  0  0  0  0  0  0
 MicOpt= -1 -1 -1 -1 -1 -1 -1 -1
 NAtoms=      8 NQM=        8 NQMF=       0 NMMI=      0 NMMIF=      0
                NMic=       0 NMicF=      0.
                    Isotopes and Nuclear Properties:
 (Nuclear quadrupole moments (NQMom) in fm**2, nuclear magnetic moments (NMagM)
  in nuclear magnetons)

  Atom         1           2           3           4           5           6           7           8
 IAtWgt=          12           1          12          19          19          19          19           1
 AtmWgt=  12.0000000   1.0078250  12.0000000  18.9984033  18.9984033  18.9984033  18.9984033   1.0078250
 NucSpn=           0           1           0           1           1           1           1           1
 AtZEff=   3.6000000   1.0000000   3.6000000   6.7500000   6.7500000   6.7500000   6.7500000   1.0000000
 NQMom=    0.0000000   0.0000000   0.0000000   0.0000000   0.0000000   0.0000000   0.0000000   0.0000000
 NMagM=    0.0000000   2.7928460   0.0000000   2.6288670   2.6288670   2.6288670   2.6288670   2.7928460
 AtZNuc=   6.0000000   1.0000000   6.0000000   9.0000000   9.0000000   9.0000000   9.0000000   1.0000000
 Leave Link  101 at Thu Apr  2 15:32:59 2026, MaxMem=  1073741824 cpu:               0.6 elap:               0.2
 (Enter /Users/yarger/Applications/g16/l103.exe)

 GradGradGradGradGradGradGradGradGradGradGradGradGradGradGradGradGradGrad
 Berny optimization.
 Initialization pass.
                           ----------------------------
                           !    Initial Parameters    !
                           ! (Angstroms and Degrees)  !
 --------------------------                            --------------------------
 ! Name  Definition              Value          Derivative Info.                !
 --------------------------------------------------------------------------------
 ! R1    R(1,2)                  1.09           calculate D2E/DX2 analytically  !
 ! R2    R(1,3)                  1.5193         calculate D2E/DX2 analytically  !
 ! R3    R(1,7)                  1.3666         calculate D2E/DX2 analytically  !
 ! R4    R(1,8)                  1.09           calculate D2E/DX2 analytically  !
 ! R5    R(3,4)                  1.3335         calculate D2E/DX2 analytically  !
 ! R6    R(3,5)                  1.3335         calculate D2E/DX2 analytically  !
 ! R7    R(3,6)                  1.3404         calculate D2E/DX2 analytically  !
 ! A1    A(2,1,3)              108.696          calculate D2E/DX2 analytically  !
 ! A2    A(2,1,7)              109.5676         calculate D2E/DX2 analytically  !
 ! A3    A(2,1,8)              110.4345         calculate D2E/DX2 analytically  !
 ! A4    A(3,1,7)              109.8612         calculate D2E/DX2 analytically  !
 ! A5    A(3,1,8)              108.696          calculate D2E/DX2 analytically  !
 ! A6    A(7,1,8)              109.5676         calculate D2E/DX2 analytically  !
 ! A7    A(1,3,4)              111.9365         calculate D2E/DX2 analytically  !
 ! A8    A(1,3,5)              111.9365         calculate D2E/DX2 analytically  !
 ! A9    A(1,3,6)              108.8773         calculate D2E/DX2 analytically  !
 ! A10   A(4,3,5)              107.8481         calculate D2E/DX2 analytically  !
 ! A11   A(4,3,6)              108.0492         calculate D2E/DX2 analytically  !
 ! A12   A(5,3,6)              108.0492         calculate D2E/DX2 analytically  !
 ! D1    D(2,1,3,4)             59.267          calculate D2E/DX2 analytically  !
 ! D2    D(2,1,3,5)           -179.5078         calculate D2E/DX2 analytically  !
 ! D3    D(2,1,3,6)            -60.1204         calculate D2E/DX2 analytically  !
 ! D4    D(7,1,3,4)            -60.6126         calculate D2E/DX2 analytically  !
 ! D5    D(7,1,3,5)             60.6126         calculate D2E/DX2 analytically  !
 ! D6    D(7,1,3,6)            180.0            calculate D2E/DX2 analytically  !
 ! D7    D(8,1,3,4)            179.5078         calculate D2E/DX2 analytically  !
 ! D8    D(8,1,3,5)            -59.267          calculate D2E/DX2 analytically  !
 ! D9    D(8,1,3,6)             60.1204         calculate D2E/DX2 analytically  !
 --------------------------------------------------------------------------------
 Trust Radius=3.00D-01 FncErr=1.00D-07 GrdErr=1.00D-07 EigMax=2.50D+02 EigMin=1.00D-04
 Number of steps in this run=      2 maximum allowed number of steps=      2.
 GradGradGradGradGradGradGradGradGradGradGradGradGradGradGradGradGradGrad

 Leave Link  103 at Thu Apr  2 15:32:59 2026, MaxMem=  1073741824 cpu:               0.0 elap:               0.0
 (Enter /Users/yarger/Applications/g16/l202.exe)
                          Input orientation:                          
 ---------------------------------------------------------------------
 Center     Atomic      Atomic             Coordinates (Angstroms)
 Number     Number       Type             X           Y           Z
 ---------------------------------------------------------------------
      1          6           0       -1.501165    1.409669    1.458049
      2          1           0       -1.158583    2.444309    1.444796
      3          6           0       -0.322185    0.502295    1.149863
      4          9           0        0.664407    0.649517    2.034811
      5          9           0       -0.673083   -0.784145    1.139226
      6          9           0        0.157945    0.811841   -0.062702
      7          9           0       -2.006995    1.110774    2.691945
      8          1           0       -2.269520    1.253489    0.700911
 ---------------------------------------------------------------------
                    Distance matrix (angstroms):
                    1          2          3          4          5
     1  C    0.000000
     2  H    1.089963   0.000000
     3  C    1.519309   2.134940   0.000000
     4  F    2.366472   2.625393   1.333481   0.000000
     5  F    2.366472   3.279024   1.333481   2.155537   0.000000
     6  F    2.328675   2.582779   1.340395   2.163888   2.163888
     7  F    1.366639   2.013331   2.363652   2.789440   2.789440
     8  H    1.089963   1.790419   2.134940   3.279024   2.625393
                    6          7          8
     6  F    0.000000
     7  F    3.516306   0.000000
     8  H    2.582779   2.013331   0.000000
 Stoichiometry    C2H2F4
 Framework group  CS[SG(C2F2),X(H2F2)]
 Deg. of freedom    11
 Full point group                 CS      NOp   2
 RotChk:  IX=2 Diff= 5.62D-15
 Largest Abelian subgroup         CS      NOp   2
 Largest concise Abelian subgroup CS      NOp   2
                         Standard orientation:                         
 ---------------------------------------------------------------------
 Center     Atomic      Atomic             Coordinates (Angstroms)
 Number     Number       Type             X           Y           Z
 ---------------------------------------------------------------------
      1          6           0        1.154998    0.240843   -0.000000
      2          1           0        1.486500    0.766891   -0.895209
      3          6           0       -0.363414    0.188629    0.000000
      4          9           0       -0.840419   -0.435111   -1.077768
      5          9           0       -0.840419   -0.435111    1.077768
      6          9           0       -0.840419    1.441276    0.000000
      7          9           0        1.663202   -1.027790   -0.000000
      8          1           0        1.486500    0.766891    0.895209
 ---------------------------------------------------------------------
 Rotational constants (GHZ):           5.3626663           2.7925150           2.7509181
 Leave Link  202 at Thu Apr  2 15:32:59 2026, MaxMem=  1073741824 cpu:               0.1 elap:               0.0
 (Enter /Users/yarger/Applications/g16/l301.exe)
 Standard basis: Aug-CC-pVTZ (5D, 7F)
 Ernie: Thresh=  0.10000D-02 Tol=  0.10000D-05 Strict=F.
 Ernie:  18 primitive shells out of 202 were deleted.
 There are   228 symmetry adapted cartesian basis functions of A'  symmetry.
 There are   152 symmetry adapted cartesian basis functions of A"  symmetry.
 There are   189 symmetry adapted basis functions of A'  symmetry.
 There are   133 symmetry adapted basis functions of A"  symmetry.
   322 basis functions,   486 primitive gaussians,   380 cartesian basis functions
    25 alpha electrons       25 beta electrons
       nuclear repulsion energy       272.6093556888 Hartrees.
 IExCor= 4639 DFT=T Ex+Corr=wB97XD ExCW=0 ScaHFX=  1.000000
 ScaDFX=  1.000000  1.000000  1.000000  1.000000 ScalE2=  1.000000  1.000000
 IRadAn=      5 IRanWt=     -1 IRanGd=            0 ICorTp=0 IEmpDi=121
 HFx  wShort=  0.000000 wLong=  0.200000 cFull=  0.222036 cShort=  0.000000 cLong=  0.777964
 DFx  wShort=  0.000000 wLong=  0.200000 cFull=  0.000000 cShort=  0.000000 cLong=  1.000000
 NAtoms=    8 NActive=    8 NUniq=    6 SFac= 1.78D+00 NAtFMM=   60 NAOKFM=F Big=F
 Integral buffers will be    131072 words long.
 Raffenetti 2 integral format.
 Two-electron integral symmetry is turned on.
 R6Disp:  Grimme-D2 Dispersion energy=       -0.0021557056 Hartrees.
 Nuclear repulsion after empirical dispersion term =      272.6071999833 Hartrees.
 Leave Link  301 at Thu Apr  2 15:32:59 2026, MaxMem=  1073741824 cpu:               0.1 elap:               0.0
 (Enter /Users/yarger/Applications/g16/l302.exe)
 NPDir=0 NMtPBC=     1 NCelOv=     1 NCel=       1 NClECP=     1 NCelD=      1
         NCelK=      1 NCelE2=     1 NClLst=     1 CellRange=     0.0.
 One-electron integrals computed using PRISM.
 One-electron integral symmetry used in STVInt
 NBasis=   322 RedAO= T EigKep=  2.37D-05  NBF=   189   133
 NBsUse=   322 1.00D-06 EigRej= -1.00D+00 NBFU=   189   133
 Precomputing XC quadrature grid using
 IXCGrd= 4 IRadAn=           5 IRanWt=          -1 IRanGd=           0 AccXCQ= 0.00D+00.
 Generated NRdTot=       0 NPtTot=           0 NUsed=           0 NTot=          32
 NSgBfM=   380   380   380   380   380 MxSgAt=     8 MxSgA2=     8.
 Leave Link  302 at Thu Apr  2 15:33:00 2026, MaxMem=  1073741824 cpu:               0.7 elap:               0.2
 (Enter /Users/yarger/Applications/g16/l303.exe)
 DipDrv:  MaxL=1.
 Leave Link  303 at Thu Apr  2 15:33:00 2026, MaxMem=  1073741824 cpu:               0.1 elap:               0.0
 (Enter /Users/yarger/Applications/g16/l401.exe)
 Initial guess from the checkpoint file:  "1112Tetrafluoroethane_Opt_Freq_DFT_WB97XD_pVTZ_Gaussian16.chk"
 B after Tr=     0.000000    0.000000   -0.000000
         Rot=    1.000000   -0.000000   -0.000000    0.000000 Ang=   0.00 deg.
 Guess basis will be translated and rotated to current coordinates.
 JPrj=2 DoOrth=T DoCkMO=T.
 Initial guess orbital symmetries:
       Occupied  (A') (A") (A') (A') (A') (A') (A') (A') (A") (A')
                 (A') (A') (A") (A') (A') (A') (A") (A') (A") (A')
                 (A') (A") (A") (A") (A')
       Virtual   (A') (A") (A') (A') (A') (A") (A') (A') (A") (A')
                 (A") (A') (A') (A") (A') (A') (A") (A') (A") (A')
                 (A') (A") (A') (A') (A") (A') (A") (A') (A') (A")
                 (A') (A") (A') (A') (A") (A') (A') (A') (A") (A')
                 (A') (A") (A") (A') (A") (A') (A') (A") (A') (A')
                 (A') (A') (A") (A") (A') (A") (A') (A') (A") (A')
                 (A") (A') (A") (A') (A') (A") (A") (A') (A') (A")
                 (A") (A') (A') (A') (A") (A') (A") (A') (A") (A")
                 (A') (A") (A') (A") (A') (A') (A") (A') (A') (A")
                 (A') (A") (A') (A') (A") (A') (A') (A') (A") (A")
                 (A') (A') (A") (A') (A') (A") (A") (A') (A') (A")
                 (A') (A") (A') (A') (A") (A") (A") (A') (A') (A")
                 (A') (A") (A') (A") (A') (A') (A') (A") (A") (A')
                 (A') (A") (A') (A') (A') (A") (A") (A') (A") (A')
                 (A') (A") (A') (A') (A") (A') (A") (A') (A') (A')
                 (A") (A") (A') (A") (A") (A') (A') (A") (A') (A')
                 (A") (A") (A') (A') (A") (A') (A") (A') (A') (A")
                 (A') (A") (A') (A") (A') (A') (A") (A') (A") (A")
                 (A') (A') (A') (A") (A") (A") (A') (A") (A') (A")
                 (A') (A") (A') (A") (A') (A") (A') (A') (A') (A")
                 (A') (A') (A") (A') (A') (A") (A') (A") (A') (A')
                 (A') (A") (A') (A") (A") (A') (A') (A") (A') (A')
                 (A") (A") (A') (A") (A') (A') (A") (A') (A") (A')
                 (A") (A') (A") (A') (A") (A") (A') (A') (A") (A')
                 (A') (A") (A') (A') (A") (A") (A') (A") (A') (A")
                 (A') (A') (A") (A') (A") (A') (A') (A") (A") (A')
                 (A") (A') (A') (A") (A') (A") (A") (A") (A') (A')
                 (A") (A') (A') (A") (A') (A') (A') (A") (A") (A')
                 (A') (A") (A") (A') (A") (A') (A") (A') (A') (A')
                 (A") (A') (A') (A') (A") (A') (A')
 The electronic state of the initial guess is 1-A'.
 Leave Link  401 at Thu Apr  2 15:33:00 2026, MaxMem=  1073741824 cpu:               0.6 elap:               0.2
 (Enter /Users/yarger/Applications/g16/l502.exe)
 Integral symmetry usage will be decided dynamically.
 Closed shell SCF:
 Using DIIS extrapolation, IDIIS=  1040.
 NGot=  1073741824 LenX=  1073446812 LenY=  1073301971
 Requested convergence on RMS density matrix=1.00D-08 within 128 cycles.
 Requested convergence on MAX density matrix=1.00D-06.
 Requested convergence on             energy=1.00D-06.
 No special actions if energy rises.
 Fock matrices will be formed incrementally for  20 cycles.

 Cycle   1  Pass 1  IDiag  1:
 FoFJK:  IHMeth= 1 ICntrl=       0 DoSepK=T KAlg= 0 I1Cent=           0 FoldK=F
 IRaf=         1 NMat=       1 IRICut=       1 DoRegI=T DoRafI=F ISym2E= 1 IDoP0=0 IntGTp=1.
 FoFCou: FMM=F IPFlag=           0 FMFlag=      100000 FMFlg1=           0
         NFxFlg=           0 DoJE=T BraDBF=F KetDBF=F FulRan=T
         wScrn=  0.000000 ICntrl=       500 IOpCl=  0 I1Cent=           0 NGrid=           0
         NMat0=    1 NMatS0=      1 NMatT0=    0 NMatD0=    1 NMtDS0=    0 NMtDT0=    0
 Petite list used in FoFCou.
 E= -476.848464537773    
 DIIS: error= 9.42D-09 at cycle   1 NSaved=   1.
 NSaved= 1 IEnMin= 1 EnMin= -476.848464537773     IErMin= 1 ErrMin= 9.42D-09
 ErrMax= 9.42D-09  0.00D+00 EMaxC= 1.00D-01 BMatC= 2.62D-14 BMatP= 2.62D-14
 IDIUse=1 WtCom= 1.00D+00 WtEn= 0.00D+00
 Coeff-Com:  0.100D+01
 Coeff:      0.100D+01
 Gap=     0.489 Goal=   None    Shift=    0.000
 RMSDP=6.94D-10 MaxDP=2.49D-08              OVMax= 4.37D-08

 SCF Done:  E(RwB97XD) =  -476.848464538     A.U. after    1 cycles
            NFock=  1  Conv=0.69D-09     -V/T= 2.0049
 KE= 4.745273841647D+02 PE=-1.677538169839D+03 EE= 4.535551211530D+02
 Leave Link  502 at Thu Apr  2 15:33:09 2026, MaxMem=  1073741824 cpu:              35.0 elap:               8.8
 (Enter /Users/yarger/Applications/g16/l801.exe)
 DoSCS=F DFT=T ScalE2(SS,OS)=  1.000000  1.000000
 Range of M.O.s used for correlation:     1   322
 NBasis=   322 NAE=    25 NBE=    25 NFC=     0 NFV=     0
 NROrb=    322 NOA=    25 NOB=    25 NVA=   297 NVB=   297

 **** Warning!!: The largest alpha MO coefficient is  0.47945673D+02

 Leave Link  801 at Thu Apr  2 15:33:09 2026, MaxMem=  1073741824 cpu:               0.1 elap:               0.0
 (Enter /Users/yarger/Applications/g16/l1002.exe)
 Minotr:  Closed shell wavefunction.
          Direct CPHF calculation.
          Differentiating once with respect to electric field.
                with respect to dipole field.
          Electric field/nuclear overlap derivatives assumed to be zero.
          Using symmetry in CPHF.
          Requested convergence is 1.0D-08 RMS, and 1.0D-07 maximum.
          Secondary convergence is 1.0D-12 RMS, and 1.0D-12 maximum.
          NewPWx=F KeepS1=T KeepF1=T KeepIn=T MapXYZ=F SortEE=F KeepMc=T.
         2469 words used for storage of precomputed grid.
 Two-electron integral symmetry used by symmetrizing perturbed Fock matrices.
          MDV=    1073741824 using IRadAn=       1.
          Solving linear equations simultaneously, MaxMat=     384.
          There are     3 degrees of freedom in the 1st order CPHF.  IDoFFX=0 NUNeed=     3.
      3 vectors produced by pass  0 Test12= 2.48D-13 3.33D-08 XBig12= 9.33D+00 7.20D-01.
 AX will form     3 AO Fock derivatives at one time.
 FoFJK:  IHMeth= 1 ICntrl=       0 DoSepK=T KAlg= 0 I1Cent=           0 FoldK=F
 IRaf=         1 NMat=       3 IRICut=       1 DoRegI=T DoRafI=F ISym2E=-1 IDoP0=0 IntGTp=1.
 FoFCou: FMM=F IPFlag=           0 FMFlag=      100000 FMFlg1=           0
         NFxFlg=           0 DoJE=T BraDBF=F KetDBF=F FulRan=T
         wScrn=  0.000000 ICntrl=       500 IOpCl=  0 I1Cent=           0 NGrid=           0
         NMat0=    3 NMatS0=      3 NMatT0=    0 NMatD0=    3 NMtDS0=    0 NMtDT0=    0
 Petite list used in FoFCou.
      3 vectors produced by pass  1 Test12= 2.48D-13 3.33D-08 XBig12= 1.63D+00 1.77D-01.
      3 vectors produced by pass  2 Test12= 2.48D-13 3.33D-08 XBig12= 2.73D-01 6.46D-02.
      3 vectors produced by pass  3 Test12= 2.48D-13 3.33D-08 XBig12= 1.20D-02 1.75D-02.
      3 vectors produced by pass  4 Test12= 2.48D-13 3.33D-08 XBig12= 1.57D-03 8.49D-03.
      3 vectors produced by pass  5 Test12= 2.48D-13 3.33D-08 XBig12= 1.09D-04 2.40D-03.
      3 vectors produced by pass  6 Test12= 2.48D-13 3.33D-08 XBig12= 1.36D-05 7.70D-04.
      3 vectors produced by pass  7 Test12= 2.48D-13 3.33D-08 XBig12= 7.82D-07 1.54D-04.
      3 vectors produced by pass  8 Test12= 2.48D-13 3.33D-08 XBig12= 2.37D-08 2.43D-05.
      3 vectors produced by pass  9 Test12= 2.48D-13 3.33D-08 XBig12= 6.41D-10 5.19D-06.
      3 vectors produced by pass 10 Test12= 2.48D-13 3.33D-08 XBig12= 1.76D-11 1.05D-06.
      2 vectors produced by pass 11 Test12= 2.48D-13 3.33D-08 XBig12= 3.90D-13 1.18D-07.
 InvSVY:  IOpt=1 It=  1 EMax= 4.44D-16
 Solved reduced A of dimension    35 with     3 vectors.
 End of Minotr F.D. properties file   721 does not exist.
 End of Minotr F.D. properties file   722 does not exist.
 End of Minotr F.D. properties file   788 does not exist.
 Leave Link 1002 at Thu Apr  2 15:35:26 2026, MaxMem=  1073741824 cpu:             546.3 elap:             137.7
 (Enter /Users/yarger/Applications/g16/l1101.exe)
 Using compressed storage, NAtomX=     8.
 Will process      9 centers per pass.
 R6Disp: Adding Grimme-D2 dispersion energy 1st derivatives to the gradient.
 Leave Link 1101 at Thu Apr  2 15:35:27 2026, MaxMem=  1073741824 cpu:               0.6 elap:               0.2
 (Enter /Users/yarger/Applications/g16/l1102.exe)
 Symmetrizing basis deriv contribution to polar:
 IMax=3 JMax=2 DiffMx= 0.00D+00
 Leave Link 1102 at Thu Apr  2 15:35:27 2026, MaxMem=  1073741824 cpu:               0.1 elap:               0.0
 (Enter /Users/yarger/Applications/g16/l1110.exe)
 Forming Gx(P) for the SCF density, NAtomX=     8.
 Integral derivatives from FoFJK, PRISM(SPDF).
 Do as many integral derivatives as possible in FoFJK.
 G2DrvN: MDV=    1073741112.
 G2DrvN: will do     9 centers at a time, making    1 passes.
 PxScal for G2LodP:  IOpCl= 0 ISclPx=1 IMOff=     1 NMtTot=     4 NTT=   52003 ScalPx= 1.71D+00
 Calling FoFCou, ICntrl=  3107 FMM=F I1Cent=   0 AccDes= 0.00D+00.
 FoFJK:  IHMeth= 1 ICntrl=    3107 DoSepK=T KAlg= 0 I1Cent=           0 FoldK=F
 IRaf=         1 NMat=       1 IRICut=       1 DoRegI=T DoRafI=F ISym2E= 1 IDoP0=0 IntGTp=1.
 FoFCou: FMM=F IPFlag=           0 FMFlag=      100000 FMFlg1=           0
         NFxFlg=           0 DoJE=F BraDBF=F KetDBF=F FulRan=T
         wScrn=  0.000000 ICntrl=      3507 IOpCl=  0 I1Cent=           0 NGrid=           0
         NMat0=    1 NMatS0=      1 NMatT0=    0 NMatD0=    4 NMtDS0=    3 NMtDT0=    0
 Petite list used in FoFCou.
 End of G2Drv F.D. properties file   721 does not exist.
 End of G2Drv F.D. properties file   722 does not exist.
 End of G2Drv F.D. properties file   788 does not exist.
 Leave Link 1110 at Thu Apr  2 15:37:09 2026, MaxMem=  1073741824 cpu:             408.1 elap:             102.4
 (Enter /Users/yarger/Applications/g16/l1002.exe)
 Minotr:  Closed shell wavefunction.
          IDoAtm=11111111
          Direct CPHF calculation.
          Differentiating once with respect to electric field.
                with respect to dipole field.
          Differentiating once with respect to nuclear coordinates.
          Using symmetry in CPHF.
          Requested convergence is 1.0D-08 RMS, and 1.0D-07 maximum.
          Secondary convergence is 1.0D-12 RMS, and 1.0D-12 maximum.
          NewPWx=T KeepS1=F KeepF1=F KeepIn=T MapXYZ=F SortEE=F KeepMc=T.
         2469 words used for storage of precomputed grid.
 Two-electron integrals replicated using symmetry.
          MDV=    1073741824 using IRadAn=       1.
          Solving linear equations simultaneously, MaxMat=     384.
 FoF2E skips out because all densities are zero.
 CalDSu exits because no D1Ps are significant.
 FoFJK:  IHMeth= 1 ICntrl=       0 DoSepK=T KAlg= 0 I1Cent=           0 FoldK=F
 IRaf=         1 NMat=      18 IRICut=       1 DoRegI=T DoRafI=F ISym2E= 2 IDoP0=3 IntGTp=3.
 FoFCou: FMM=F IPFlag=           0 FMFlag=      100000 FMFlg1=           0
         NFxFlg=           0 DoJE=F BraDBF=F KetDBF=F FulRan=T
         wScrn=  0.000000 ICntrl=       500 IOpCl=  0 I1Cent=           0 NGrid=           0
         NMat0=   18 NMatS0=     18 NMatT0=    0 NMatD0=   18 NMtDS0=    0 NMtDT0=    0
 Integrals replicated using symmetry in FoFCou.
          There are    21 degrees of freedom in the 1st order CPHF.  IDoFFX=4 NUNeed=    21.
 Will reuse    3 saved solutions.
     18 vectors produced by pass  0 Test12= 3.54D-14 4.76D-09 XBig12= 9.73D-02 7.04D-02.
 AX will form    18 AO Fock derivatives at one time.
     18 vectors produced by pass  1 Test12= 3.54D-14 4.76D-09 XBig12= 2.20D-03 1.13D-02.
     18 vectors produced by pass  2 Test12= 3.54D-14 4.76D-09 XBig12= 2.05D-04 2.72D-03.
     18 vectors produced by pass  3 Test12= 3.54D-14 4.76D-09 XBig12= 3.00D-06 2.64D-04.
     18 vectors produced by pass  4 Test12= 3.54D-14 4.76D-09 XBig12= 4.95D-08 2.58D-05.
     18 vectors produced by pass  5 Test12= 3.54D-14 4.76D-09 XBig12= 6.04D-10 3.35D-06.
     18 vectors produced by pass  6 Test12= 3.54D-14 4.76D-09 XBig12= 5.20D-12 3.18D-07.
      8 vectors produced by pass  7 Test12= 3.54D-14 4.76D-09 XBig12= 3.70D-14 2.40D-08.
 InvSVY:  IOpt=1 It=  1 EMax= 6.11D-16
 Solved reduced A of dimension   134 with    21 vectors.
 FullF1:  Do perturbations      1 to      21.
 Isotropic polarizability for W=    0.000000       30.62 Bohr**3.
 FullF1:  Do perturbations      1 to       6.
 End of Minotr F.D. properties file   721 does not exist.
 End of Minotr F.D. properties file   722 does not exist.
 End of Minotr F.D. properties file   788 does not exist.
 Leave Link 1002 at Thu Apr  2 15:42:04 2026, MaxMem=  1073741824 cpu:            1175.4 elap:             295.0
 (Enter /Users/yarger/Applications/g16/l601.exe)
 Copying SCF densities to generalized density rwf, IOpCl= 0 IROHF=0.

 **********************************************************************

            Population analysis using the SCF density.

 **********************************************************************

 Orbital symmetries:
       Occupied  (A') (A") (A') (A') (A') (A') (A') (A') (A") (A')
                 (A') (A') (A") (A') (A') (A') (A") (A') (A") (A')
                 (A') (A") (A") (A") (A')
       Virtual   (A') (A") (A') (A') (A') (A") (A') (A') (A") (A')
                 (A") (A') (A') (A") (A') (A') (A") (A') (A") (A')
                 (A') (A") (A') (A') (A") (A') (A") (A') (A') (A")
                 (A') (A") (A') (A') (A") (A') (A') (A') (A") (A')
                 (A') (A") (A") (A') (A") (A') (A') (A") (A') (A')
                 (A') (A') (A") (A") (A') (A") (A') (A') (A") (A')
                 (A") (A') (A") (A') (A') (A") (A") (A') (A') (A")
                 (A") (A') (A') (A') (A") (A') (A") (A') (A") (A")
                 (A') (A") (A') (A") (A') (A') (A") (A') (A') (A")
                 (A') (A") (A') (A') (A") (A') (A') (A') (A") (A")
                 (A') (A') (A") (A') (A') (A") (A") (A') (A') (A")
                 (A') (A") (A') (A') (A") (A") (A") (A') (A') (A")
                 (A') (A") (A') (A") (A') (A') (A') (A") (A") (A')
                 (A') (A") (A') (A') (A') (A") (A") (A') (A") (A')
                 (A') (A") (A') (A') (A") (A') (A") (A') (A') (A')
                 (A") (A") (A') (A") (A") (A') (A') (A") (A') (A')
                 (A") (A") (A') (A') (A") (A') (A") (A') (A') (A")
                 (A') (A") (A') (A") (A') (A') (A") (A') (A") (A")
                 (A') (A') (A') (A") (A") (A") (A') (A") (A') (A")
                 (A') (A") (A') (A") (A') (A") (A') (A') (A') (A")
                 (A') (A') (A") (A') (A') (A") (A') (A") (A') (A')
                 (A') (A") (A') (A") (A") (A') (A') (A") (A') (A')
                 (A") (A") (A') (A") (A') (A') (A") (A') (A") (A')
                 (A") (A') (A") (A') (A") (A") (A') (A') (A") (A')
                 (A') (A") (A') (A') (A") (A") (A') (A") (A') (A")
                 (A') (A') (A") (A') (A") (A') (A') (A") (A") (A')
                 (A") (A') (A') (A") (A') (A") (A") (A") (A') (A')
                 (A") (A') (A') (A") (A') (A') (A') (A") (A") (A')
                 (A') (A") (A") (A') (A") (A') (A") (A') (A') (A')
                 (A") (A') (A') (A') (A") (A') (A')
 The electronic state is 1-A'.
 Alpha  occ. eigenvalues --  -24.86101 -24.85786 -24.85785 -24.83151 -10.55258
 Alpha  occ. eigenvalues --  -10.40261  -1.44039  -1.35064  -1.34816  -1.33751
 Alpha  occ. eigenvalues --   -0.89775  -0.78664  -0.70786  -0.70747  -0.68355
 Alpha  occ. eigenvalues --   -0.61858  -0.61689  -0.57582  -0.57498  -0.54884
 Alpha  occ. eigenvalues --   -0.53574  -0.53495  -0.51711  -0.46936  -0.45880
 Alpha virt. eigenvalues --    0.03057   0.04512   0.06525   0.07243   0.10089
 Alpha virt. eigenvalues --    0.10123   0.10629   0.12226   0.12974   0.14636
 Alpha virt. eigenvalues --    0.16228   0.16510   0.18346   0.21619   0.21938
 Alpha virt. eigenvalues --    0.22585   0.22961   0.24208   0.24862   0.26102
 Alpha virt. eigenvalues --    0.26906   0.27935   0.28159   0.29154   0.30349
 Alpha virt. eigenvalues --    0.31242   0.31607   0.32432   0.33194   0.34656
 Alpha virt. eigenvalues --    0.34716   0.36127   0.36270   0.37822   0.38730
 Alpha virt. eigenvalues --    0.40536   0.42631   0.43849   0.44016   0.44709
 Alpha virt. eigenvalues --    0.46684   0.46868   0.48733   0.49875   0.49996
 Alpha virt. eigenvalues --    0.51126   0.53793   0.55994   0.56412   0.62609
 Alpha virt. eigenvalues --    0.64226   0.67846   0.70114   0.73495   0.74205
 Alpha virt. eigenvalues --    0.74417   0.78850   0.80014   0.82194   0.83070
 Alpha virt. eigenvalues --    0.83480   0.84613   0.87173   0.87594   0.90342
 Alpha virt. eigenvalues --    0.90943   0.94787   0.95511   0.97565   0.98987
 Alpha virt. eigenvalues --    0.99683   1.00031   1.01427   1.02536   1.02813
 Alpha virt. eigenvalues --    1.05933   1.06192   1.07994   1.09346   1.10936
 Alpha virt. eigenvalues --    1.12542   1.13024   1.13349   1.14666   1.15772
 Alpha virt. eigenvalues --    1.17317   1.17450   1.17919   1.24371   1.24854
 Alpha virt. eigenvalues --    1.26592   1.28806   1.30814   1.32579   1.35615
 Alpha virt. eigenvalues --    1.36488   1.38775   1.44842   1.45546   1.47436
 Alpha virt. eigenvalues --    1.48742   1.50036   1.51591   1.52773   1.55222
 Alpha virt. eigenvalues --    1.55307   1.57457   1.58129   1.60668   1.63245
 Alpha virt. eigenvalues --    1.64269   1.66681   1.69481   1.71883   1.71997
 Alpha virt. eigenvalues --    1.76546   1.76688   1.79659   1.82806   1.83615
 Alpha virt. eigenvalues --    1.86707   1.88100   1.88836   1.96773   1.98805
 Alpha virt. eigenvalues --    2.02267   2.04757   2.06998   2.15837   2.30862
 Alpha virt. eigenvalues --    2.39067   2.50013   2.51372   2.56610   2.58167
 Alpha virt. eigenvalues --    2.58899   2.62578   2.63517   2.65934   2.66439
 Alpha virt. eigenvalues --    2.70203   2.71702   2.71847   2.75360   2.76439
 Alpha virt. eigenvalues --    2.80412   2.80800   2.81922   2.84021   2.84308
 Alpha virt. eigenvalues --    2.86078   2.89492   2.90018   2.92710   2.94005
 Alpha virt. eigenvalues --    2.95243   2.97346   3.00068   3.03917   3.05657
 Alpha virt. eigenvalues --    3.05708   3.08642   3.11392   3.16385   3.16982
 Alpha virt. eigenvalues --    3.20445   3.20604   3.22119   3.22770   3.24422
 Alpha virt. eigenvalues --    3.25765   3.27394   3.31718   3.37257   3.37765
 Alpha virt. eigenvalues --    3.42595   3.46518   3.46685   3.47585   3.50255
 Alpha virt. eigenvalues --    3.50372   3.54113   3.56873   3.58158   3.59738
 Alpha virt. eigenvalues --    3.62457   3.65071   3.66866   3.70332   3.77695
 Alpha virt. eigenvalues --    3.79612   3.85776   3.86149   3.88972   3.90688
 Alpha virt. eigenvalues --    3.92634   3.95137   4.02730   4.05908   4.06774
 Alpha virt. eigenvalues --    4.11961   4.15212   4.17565   4.19316   4.21764
 Alpha virt. eigenvalues --    4.25248   4.28267   4.29927   4.40868   4.41900
 Alpha virt. eigenvalues --    4.51453   4.53378   4.54824   4.57433   4.61663
 Alpha virt. eigenvalues --    4.64316   4.72283   4.75366   4.79968   4.84930
 Alpha virt. eigenvalues --    4.90086   4.93767   5.05483   5.12724   5.14581
 Alpha virt. eigenvalues --    5.21857   5.28520   5.32074   5.32195   5.39864
 Alpha virt. eigenvalues --    5.44268   5.48724   5.52602   5.55771   5.57058
 Alpha virt. eigenvalues --    5.73843   5.75353   5.87839   6.36497   6.47074
 Alpha virt. eigenvalues --    6.76230   6.91029   6.91587   8.43676   8.46150
 Alpha virt. eigenvalues --    8.47528   8.48361   8.50102   8.51436   8.54012
 Alpha virt. eigenvalues --    8.57140   8.62751   8.67776   8.76391   8.80130
 Alpha virt. eigenvalues --    8.81277   8.82488   8.82606   8.84598   8.85636
 Alpha virt. eigenvalues --    8.87033   8.87644   8.88593   8.89213   8.91075
 Alpha virt. eigenvalues --    8.92473   8.94565   8.94964   8.95008   8.97173
 Alpha virt. eigenvalues --    8.99539   9.01488   9.04175   9.05194   9.05394
 Alpha virt. eigenvalues --    9.06529   9.09525   9.11056   9.13351   9.16863
 Alpha virt. eigenvalues --    9.21729   9.22167   9.24547   9.31735   9.35846
 Alpha virt. eigenvalues --    9.36360   9.38155   9.39500   9.41351   9.63992
 Alpha virt. eigenvalues --    9.64095  14.69876  14.79373  14.98934  15.05464
 Alpha virt. eigenvalues --   17.13188  17.86539
          Condensed to atoms (all electrons):
               1          2          3          4          5          6
     1  C    5.306822   0.374794   0.111077   0.035071   0.035071   0.016432
     2  H    0.374794   0.444832  -0.054892   0.000729   0.011053   0.005775
     3  C    0.111077  -0.054892   4.483153   0.103885   0.103885   0.100784
     4  F    0.035071   0.000729   0.103885   9.284212  -0.039910  -0.033212
     5  F    0.035071   0.011053   0.103885  -0.039910   9.284212  -0.033212
     6  F    0.016432   0.005775   0.100784  -0.033212  -0.033212   9.295557
     7  F   -0.055845   0.021026   0.009389  -0.003881  -0.003881   0.007231
     8  H    0.374794  -0.055561  -0.054892   0.011053   0.000729   0.005775
               7          8
     1  C   -0.055845   0.374794
     2  H    0.021026  -0.055561
     3  C    0.009389  -0.054892
     4  F   -0.003881   0.011053
     5  F   -0.003881   0.000729
     6  F    0.007231   0.005775
     7  F    9.427792   0.021026
     8  H    0.021026   0.444832
 Mulliken charges:
               1
     1  C   -0.198217
     2  H    0.252244
     3  C    1.197611
     4  F   -0.357947
     5  F   -0.357947
     6  F   -0.365130
     7  F   -0.422858
     8  H    0.252244
 Sum of Mulliken charges =  -0.00000
 Mulliken charges with hydrogens summed into heavy atoms:
               1
     1  C    0.306272
     3  C    1.197611
     4  F   -0.357947
     5  F   -0.357947
     6  F   -0.365130
     7  F   -0.422858
 APT charges:
               1
     1  C    0.471359
     2  H    0.013064
     3  C    1.567702
     4  F   -0.532180
     5  F   -0.532180
     6  F   -0.535142
     7  F   -0.465686
     8  H    0.013064
 Sum of APT charges =  -0.00000
 APT charges with hydrogens summed into heavy atoms:
               1
     1  C    0.497486
     3  C    1.567702
     4  F   -0.532180
     5  F   -0.532180
     6  F   -0.535142
     7  F   -0.465686
 Electronic spatial extent (au):  <R**2>=            476.0207
 Charge=             -0.0000 electrons
 Dipole moment (field-independent basis, Debye):
    X=              1.3136    Y=              1.5228    Z=              0.0000  Tot=              2.0111
 Quadrupole moment (field-independent basis, Debye-Ang):
   XX=            -32.1287   YY=            -33.5130   ZZ=            -31.6594
   XY=              3.1196   XZ=             -0.0000   YZ=             -0.0000
 Traceless Quadrupole moment (field-independent basis, Debye-Ang):
   XX=              0.3050   YY=             -1.0793   ZZ=              0.7743
   XY=              3.1196   XZ=             -0.0000   YZ=             -0.0000
 Octapole moment (field-independent basis, Debye-Ang**2):
  XXX=             -6.2964  YYY=             -3.9809  ZZZ=             -0.0000  XYY=             -1.7901
  XXY=              3.4305  XXZ=              0.0000  XZZ=              1.0422  YZZ=              0.6109
  YYZ=              0.0000  XYZ=              0.0000
 Hexadecapole moment (field-independent basis, Debye-Ang**3):
 XXXX=           -233.4787 YYYY=           -137.0217 ZZZZ=            -97.5010 XXXY=             31.9646
 XXXZ=              0.0000 YYYX=             27.2997 YYYZ=             -0.0000 ZZZX=              0.0000
 ZZZY=             -0.0000 XXYY=            -63.6530 XXZZ=            -52.8529 YYZZ=            -38.0284
 XXYZ=             -0.0000 YYXZ=              0.0000 ZZXY=              9.5509
 N-N= 2.726071999833D+02 E-N=-1.677538167686D+03  KE= 4.745273841647D+02
 Symmetry A'   KE= 3.579546097347D+02
 Symmetry A"   KE= 1.165727744300D+02
  Exact polarizability:  31.194  -0.527  31.060   0.000   0.000  29.598
 Approx polarizability:  29.988  -0.515  33.407   0.000   0.000  31.727
 No NMR shielding tensors so no spin-rotation constants.
 Leave Link  601 at Thu Apr  2 15:42:04 2026, MaxMem=  1073741824 cpu:               0.7 elap:               0.2
 (Enter /Users/yarger/Applications/g16/l701.exe)
 ... and contract with generalized density number  0.
 Compute integral second derivatives.
 R6Disp: Adding Grimme-D2 dispersion energy 2nd derivatives to the Hessian.
 Leave Link  701 at Thu Apr  2 15:42:05 2026, MaxMem=  1073741824 cpu:               0.6 elap:               0.2
 (Enter /Users/yarger/Applications/g16/l702.exe)
 L702 exits ... SP integral derivatives will be done elsewhere.
 Leave Link  702 at Thu Apr  2 15:42:05 2026, MaxMem=  1073741824 cpu:               0.1 elap:               0.0
 (Enter /Users/yarger/Applications/g16/l703.exe)
 Integral derivatives from FoFJK, PRISM(SPDF).
 Compute integral second derivatives, UseDBF=F ICtDFT=           0.
 Calling FoFJK, ICntrl=    100127 FMM=F ISym2X=1 I1Cent= 0 IOpClX= 0 NMat=1 NMatS=1 NMatT=0.
 FoFJK:  IHMeth= 1 ICntrl=  100127 DoSepK=T KAlg= 0 I1Cent=           0 FoldK=F
 IRaf=         1 NMat=       1 IRICut=       1 DoRegI=T DoRafI=F ISym2E= 1 IDoP0=0 IntGTp=1.
 FoFCou: FMM=F IPFlag=           0 FMFlag=      100000 FMFlg1=         800
         NFxFlg=           0 DoJE=F BraDBF=F KetDBF=F FulRan=T
         wScrn=  0.000000 ICntrl=    100527 IOpCl=  0 I1Cent=           0 NGrid=           0
         NMat0=    1 NMatS0=      1 NMatT0=    0 NMatD0=    1 NMtDS0=    0 NMtDT0=    0
 Petite list used in FoFCou.
 Leave Link  703 at Thu Apr  2 15:45:33 2026, MaxMem=  1073741824 cpu:             822.4 elap:             208.6
 (Enter /Users/yarger/Applications/g16/l716.exe)
 Dipole        = 5.16806314D-01 5.99134881D-01 2.22023699D-15
 Polarizability= 3.11937320D+01-5.26960424D-01 3.10604151D+01
                 1.44456080D-14 3.83767399D-14 2.95975248D+01
 HyperPolar    = 1.15885173D+01 1.19040307D+01 9.79584234D+00
                 2.42741306D+01 3.44212437D-11 1.05399834D-11
                -2.54069844D-12 1.45366416D+01 2.24053835D+01
                 8.89285982D-11
 Full mass-weighted force constant matrix:
 Low frequencies ---   -7.1193   -0.0015   -0.0013    0.0007    2.9915    6.7592
 Low frequencies ---  111.1422  222.0663  354.6883
 Diagonal vibrational polarizability:
        6.4703971       8.3374381      18.0983175
 Diagonal vibrational hyperpolarizability:
        5.5728565       5.5969746       0.0000048
 Harmonic frequencies (cm**-1), IR intensities (KM/Mole), Raman scattering
 activities (A**4/AMU), depolarization ratios for plane and unpolarized
 incident light, reduced masses (AMU), force constants (mDyne/A),
 and normal coordinates:
                      1                      2                      3
                     A"                     A'                     A"
 Frequencies --    111.1311               222.0662               354.6881
 Red. masses --      4.8222                15.8833                 3.3293
 Frc consts  --      0.0351                 0.4615                 0.2468
 IR Inten    --      5.5272                 2.8388                 1.4244
 Raman Activ --      0.0426                 0.0758                 0.2269
 Depolar (P) --      0.7500                 0.4047                 0.7500
 Depolar (U) --      0.8571                 0.5762                 0.8571
  Atom  AN      X      Y      Z        X      Y      Z        X      Y      Z
     1   6     0.00   0.00  -0.23    -0.07  -0.11  -0.00     0.00  -0.00  -0.20
     2   1    -0.06  -0.39  -0.48    -0.27   0.04   0.01    -0.32  -0.28  -0.49
     3   6     0.00   0.00  -0.07    -0.11  -0.17  -0.00    -0.00  -0.00   0.08
     4   9    -0.15   0.11  -0.08    -0.39  -0.01   0.03     0.20  -0.05   0.01
     5   9     0.15  -0.11  -0.08    -0.39  -0.01  -0.03    -0.20   0.05   0.01
     6   9    -0.00  -0.00   0.09     0.36   0.03   0.00     0.00  -0.00   0.12
     7   9    -0.00  -0.00   0.30     0.57   0.16   0.00     0.00   0.00  -0.02
     8   1     0.06   0.39  -0.48    -0.27   0.04  -0.01     0.32   0.28  -0.49
                      4                      5                      6
                     A'                     A"                     A'
 Frequencies --    413.1984               537.0333               551.7981
 Red. masses --     13.5003                 8.2254                10.9475
 Frc consts  --      1.3580                 1.3977                 1.9639
 IR Inten    --      0.6068                 1.4928                 7.6172
 Raman Activ --      1.2429                 0.4856                 1.1655
 Depolar (P) --      0.4384                 0.7500                 0.4490
 Depolar (U) --      0.6095                 0.8571                 0.6197
  Atom  AN      X      Y      Z        X      Y      Z        X      Y      Z
     1   6    -0.16   0.26   0.00    -0.00   0.00   0.01     0.28   0.03  -0.00
     2   1    -0.22   0.29  -0.00     0.41   0.20   0.28     0.44  -0.07  -0.00
     3   6     0.03  -0.06   0.00    -0.00  -0.00  -0.24     0.08   0.24  -0.00
     4   9     0.01  -0.26   0.13    -0.05  -0.30  -0.14    -0.08  -0.15   0.38
     5   9     0.01  -0.26  -0.13     0.05   0.30  -0.14    -0.08  -0.15  -0.38
     6   9     0.48   0.11  -0.00     0.00  -0.00   0.37    -0.19   0.25   0.00
     7   9    -0.39   0.26  -0.00    -0.00   0.00   0.03     0.09  -0.12   0.00
     8   1    -0.22   0.29   0.00    -0.41  -0.20   0.28     0.44  -0.07   0.00
                      7                      8                      9
                     A'                     A'                     A"
 Frequencies --    670.5059               853.7227               986.2511
 Red. masses --      9.2722                 7.4959                 1.9823
 Frc consts  --      2.4560                 3.2189                 1.1360
 IR Inten    --     32.2042                14.9863                61.4301
 Raman Activ --      1.4075                 8.3213                 1.6550
 Depolar (P) --      0.6083                 0.0201                 0.7500
 Depolar (U) --      0.7564                 0.0394                 0.8571
  Atom  AN      X      Y      Z        X      Y      Z        X      Y      Z
     1   6    -0.37  -0.21  -0.00     0.38   0.16   0.00    -0.00   0.00   0.21
     2   1    -0.44  -0.17   0.01     0.53   0.06  -0.01    -0.57  -0.31  -0.19
     3   6    -0.25   0.09   0.00    -0.07   0.01   0.00    -0.00   0.00   0.11
     4   9     0.16  -0.13  -0.07    -0.10  -0.15  -0.27    -0.05  -0.04  -0.07
     5   9     0.16  -0.13   0.07    -0.10  -0.15   0.27     0.05   0.04  -0.07
     6   9    -0.03   0.42   0.00    -0.02   0.20   0.00     0.00  -0.00   0.00
     7   9     0.16  -0.07   0.00    -0.03  -0.02   0.00     0.00  -0.00  -0.03
     8   1    -0.44  -0.17  -0.01     0.53   0.06   0.01     0.57   0.31  -0.19
                     10                     11                     12
                     A'                     A'                     A"
 Frequencies --   1130.4566              1192.1150              1211.1770
 Red. masses --      7.1268                 8.9236                 2.0861
 Frc consts  --      5.3660                 7.4719                 1.8030
 IR Inten    --    100.4189               278.0604               107.6420
 Raman Activ --      3.7391                 1.5543                 1.6621
 Depolar (P) --      0.4000                 0.7382                 0.7500
 Depolar (U) --      0.5715                 0.8494                 0.8571
  Atom  AN      X      Y      Z        X      Y      Z        X      Y      Z
     1   6    -0.13   0.54  -0.00    -0.09  -0.00   0.00    -0.00   0.00  -0.14
     2   1    -0.19   0.48  -0.04     0.36  -0.20   0.04    -0.21   0.62   0.15
     3   6    -0.11  -0.06  -0.00    -0.24   0.70  -0.00    -0.00   0.00   0.24
     4   9     0.01   0.02   0.02    -0.00  -0.07  -0.04    -0.02  -0.03  -0.06
     5   9     0.01   0.02  -0.02    -0.00  -0.07   0.04     0.02   0.03  -0.06
     6   9     0.04  -0.03   0.00     0.13  -0.26   0.00     0.00  -0.00  -0.02
     7   9     0.11  -0.36  -0.00     0.05  -0.01  -0.00     0.00  -0.00   0.05
     8   1    -0.19   0.48   0.04     0.36  -0.20  -0.04     0.21  -0.62   0.15
                     13                     14                     15
                     A'                     A"                     A'
 Frequencies --   1309.1189              1323.4562              1452.3256
 Red. masses --      3.7468                 1.5871                 1.7219
 Frc consts  --      3.7833                 1.6378                 2.1399
 IR Inten    --    147.1831               124.7037                14.5922
 Raman Activ --      1.6214                 3.0354                 0.2716
 Depolar (P) --      0.5306                 0.7500                 0.7210
 Depolar (U) --      0.6933                 0.8571                 0.8379
  Atom  AN      X      Y      Z        X      Y      Z        X      Y      Z
     1   6    -0.07  -0.02   0.00    -0.00  -0.00  -0.01     0.19  -0.08  -0.00
     2   1    -0.56   0.27  -0.00     0.57  -0.39  -0.00    -0.55   0.41  -0.01
     3   6     0.41   0.18  -0.00     0.00   0.00   0.21    -0.14   0.04  -0.00
     4   9    -0.06  -0.05  -0.06    -0.01  -0.02  -0.04     0.02   0.00   0.01
     5   9    -0.06  -0.05   0.06     0.01   0.02  -0.04     0.02   0.00  -0.01
     6   9    -0.04   0.01   0.00    -0.00   0.00  -0.01     0.01  -0.02   0.00
     7   9     0.01  -0.05   0.00    -0.00  -0.00  -0.03    -0.02  -0.01   0.00
     8   1    -0.56   0.27   0.00    -0.57   0.39  -0.00    -0.55   0.41   0.01
                     16                     17                     18
                     A'                     A'                     A"
 Frequencies --   1499.5217              3084.3692              3147.3913
 Red. masses --      1.0879                 1.0565                 1.1109
 Frc consts  --      1.4412                 5.9218                 6.4838
 IR Inten    --      7.5268                14.5457                 7.4239
 Raman Activ --      3.6648               107.0945                40.7591
 Depolar (P) --      0.7288                 0.0536                 0.7500
 Depolar (U) --      0.8431                 0.1018                 0.8571
  Atom  AN      X      Y      Z        X      Y      Z        X      Y      Z
     1   6    -0.05  -0.07  -0.00     0.04   0.05  -0.00    -0.00   0.00  -0.10
     2   1     0.29   0.47   0.43    -0.22  -0.33   0.59    -0.23  -0.33   0.58
     3   6     0.00  -0.01   0.00    -0.00   0.00   0.00     0.00  -0.00  -0.00
     4   9     0.00   0.00  -0.00    -0.00  -0.00  -0.00     0.00   0.00   0.00
     5   9     0.00   0.00   0.00    -0.00  -0.00   0.00    -0.00  -0.00   0.00
     6   9    -0.00   0.00   0.00     0.00  -0.00  -0.00     0.00  -0.00   0.00
     7   9    -0.00  -0.01   0.00    -0.00   0.00  -0.00    -0.00   0.00   0.00
     8   1     0.29   0.47  -0.43    -0.22  -0.33  -0.59     0.23   0.33   0.58

 -------------------
 - Thermochemistry -
 -------------------
 Temperature   298.150 Kelvin.  Pressure   1.00000 Atm.
 Atom     1 has atomic number  6 and mass  12.00000
 Atom     2 has atomic number  1 and mass   1.00783
 Atom     3 has atomic number  6 and mass  12.00000
 Atom     4 has atomic number  9 and mass  18.99840
 Atom     5 has atomic number  9 and mass  18.99840
 Atom     6 has atomic number  9 and mass  18.99840
 Atom     7 has atomic number  9 and mass  18.99840
 Atom     8 has atomic number  1 and mass   1.00783
 Molecular mass:   102.00926 amu.
 Principal axes and moments of inertia in atomic units:
                           1         2         3
     Eigenvalues --   336.53804 646.27807 656.05050
           X            0.87381   0.48627  -0.00000
           Y           -0.48627   0.87381  -0.00000
           Z           -0.00000   0.00000   1.00000
 This molecule is an asymmetric top.
 Rotational symmetry number  1.
 Rotational temperatures (Kelvin)      0.25737     0.13402     0.13202
 Rotational constants (GHZ):           5.36267     2.79251     2.75092
 Zero-point vibrational energy     119927.6 (Joules/Mol)
                                   28.66338 (Kcal/Mol)
 Warning -- explicit consideration of   6 degrees of freedom as
           vibrations may cause significant error
 Vibrational temperatures:    159.89   319.50   510.32   594.50   772.67
          (Kelvin)            793.91   964.71  1228.32  1419.00  1626.47
                             1715.19  1742.61  1883.53  1904.16  2089.57
                             2157.48  4437.72  4528.39
 
 Zero-point correction=                           0.045678 (Hartree/Particle)
 Thermal correction to Energy=                    0.051106
 Thermal correction to Enthalpy=                  0.052050
 Thermal correction to Gibbs Free Energy=         0.016214
 Sum of electronic and zero-point Energies=           -476.802787
 Sum of electronic and thermal Energies=              -476.797358
 Sum of electronic and thermal Enthalpies=            -476.796414
 Sum of electronic and thermal Free Energies=         -476.832251
 
                     E (Thermal)             CV                S
                      KCal/Mol        Cal/Mol-Kelvin    Cal/Mol-Kelvin
 Total                   32.070             17.973             75.424
 Electronic               0.000              0.000              0.000
 Translational            0.889              2.981             39.777
 Rotational               0.889              2.981             26.459
 Vibrational             30.292             12.011              9.188
 Vibration     1          0.607              1.940              3.249
 Vibration     2          0.648              1.807              1.942
 Vibration     3          0.731              1.566              1.145
 Vibration     4          0.777              1.442              0.915
 Vibration     5          0.892              1.168              0.572
 Vibration     6          0.907              1.136              0.540
                       Q            Log10(Q)             Ln(Q)
 Total Bot       0.348547D-07         -7.457739        -17.172079
 Total V=0       0.356998D+14         13.552666         31.206167
 Vib (Bot)       0.636512D-20        -20.196193        -46.503454
 Vib (Bot)    1  0.184253D+01          0.265414          0.611138
 Vib (Bot)    2  0.889967D+00         -0.050626         -0.116571
 Vib (Bot)    3  0.518584D+00         -0.285181         -0.656654
 Vib (Bot)    4  0.427150D+00         -0.369420         -0.850620
 Vib (Bot)    5  0.295845D+00         -0.528935         -1.217918
 Vib (Bot)    6  0.283910D+00         -0.546819         -1.259096
 Vib (V=0)       0.651946D+01          0.814212          1.874792
 Vib (V=0)    1  0.240916D+01          0.381866          0.879280
 Vib (V=0)    2  0.152080D+01          0.182073          0.419239
 Vib (V=0)    3  0.122037D+01          0.086491          0.199152
 Vib (V=0)    4  0.115761D+01          0.063564          0.146362
 Vib (V=0)    5  0.108097D+01          0.033813          0.077857
 Vib (V=0)    6  0.107498D+01          0.031401          0.072305
 Electronic      0.100000D+01          0.000000          0.000000
 Translational   0.404961D+08          7.607413         17.516716
 Rotational      0.135220D+06          5.131041         11.814659
 
                                                  r134a - 1,1,1,2-Tetrafluoroetha
 ne
                                                             IR Spectrum
 
     3  3                                                               1 1    11  11  1                                             
     1  0                                                               5 4    33  21  1     9    8      6    55    4 3     2   1    
     4  8                                                               0 5    20  19  3     8    5      7    53    1 5     2   1    
     7  4                                                               0 2    39  12  0     6    4      1    27    3 5     2   1    
 
     X  X                                                               X X    XX  XX  X     X    X      X    XX    X X     X   X    
                                                                               XX  XX  X     X           X                           
                                                                               XX  XX  X     X                                       
                                                                               XX  XX  X     X                                       
                                                                               XX  XX  X                                             
                                                                               XX  XX  X                                             
                                                                               XX  XX  X                                             
                                                                               XX  XX                                                
                                                                               XX   X                                                
                                                                                X   X                                                
                                                                                X   X                                                
                                                                                    X                                                
                                                                                    X                                                
                                                                                    X                                                
                                                                                    X                                                
                                                                                    X                                                
                                                                                    X                                                
                                                                                    X                                                
                                                                                    X                                                
                                                                                    X                                                
 
 
                                                  r134a - 1,1,1,2-Tetrafluoroetha
 ne
                                                            Raman Spectrum
 
     3  3                                                               1 1    11  11  1                                             
     1  0                                                               5 4    33  21  1     9    8      6    55    4 3     2   1    
     4  8                                                               0 5    20  19  3     8    5      7    53    1 5     2   1    
     7  4                                                               0 2    39  12  0     6    4      1    27    3 5     2   1    
 
     X  X                                                               X X    XX  XX  X     X    X      X    XX    X X     X        
     X  X                                                                                         X                                  
     X  X                                                                                                                            
     X  X                                                                                                                            
     X  X                                                                                                                            
     X  X                                                                                                                            
     X  X                                                                                                                            
     X  X                                                                                                                            
        X                                                                                                                            
        X                                                                                                                            
        X                                                                                                                            
        X                                                                                                                            
        X                                                                                                                            
        X                                                                                                                            
        X                                                                                                                            
        X                                                                                                                            
        X                                                                                                                            
        X                                                                                                                            
        X                                                                                                                            
        X                                                                                                                            
 
 ***** Axes restored to original set *****
 -------------------------------------------------------------------
 Center     Atomic                   Forces (Hartrees/Bohr)
 Number     Number              X              Y              Z
 -------------------------------------------------------------------
      1        6          -0.000003745   -0.000009294    0.000020471
      2        1           0.000001828    0.000005220   -0.000002948
      3        6           0.000003410   -0.000002366   -0.000001304
      4        9          -0.000005964   -0.000001507    0.000000596
      5        9          -0.000000435    0.000004420    0.000004298
      6        9           0.000003755   -0.000000441   -0.000004903
      7        9           0.000003520    0.000003245   -0.000010452
      8        1          -0.000002368    0.000000723   -0.000005758
 -------------------------------------------------------------------
 Cartesian Forces:  Max     0.000020471 RMS     0.000006000
 Force constants in Cartesian coordinates: 
                1             2             3             4             5 
      1  0.558046D+00
      2  0.515164D-01  0.594400D+00
      3  0.532414D-01  0.103362D-01  0.552859D+00
      4 -0.804777D-01 -0.767924D-01 -0.552507D-02  0.807919D-01
      5 -0.738457D-01 -0.295115D+00 -0.733995D-02  0.846244D-01  0.316363D+00
      6 -0.600715D-02 -0.152631D-01 -0.490713D-01 -0.463713D-02  0.973808D-03
      7 -0.153365D+00  0.620378D-01  0.192318D-01  0.103758D-01 -0.111991D-01
      8  0.700125D-01 -0.122608D+00 -0.267279D-01  0.240065D-01 -0.205680D-01
      9  0.646571D-02 -0.148182D-01 -0.599238D-01  0.323322D-03 -0.111493D-02
     10 -0.342692D-01 -0.376616D-02 -0.406906D-01  0.603283D-03  0.215129D-03
     11  0.167902D-01  0.763414D-02  0.142238D-01 -0.151767D-02  0.214424D-02
     12 -0.892113D-02 -0.190393D-02 -0.799120D-02  0.127654D-03  0.199332D-03
     13  0.991751D-02  0.228175D-01  0.113971D-02 -0.339507D-02  0.321293D-02
     14 -0.165157D-01 -0.503412D-01  0.504536D-02  0.765897D-02 -0.307432D-02
     15 -0.571676D-03 -0.686862D-02  0.579743D-02  0.141362D-02 -0.602934D-03
     16 -0.514903D-02 -0.101490D-01  0.340640D-01  0.206323D-03  0.119218D-02
     17  0.469542D-02  0.895300D-02 -0.104884D-01 -0.117593D-02  0.214143D-02
     18  0.103009D-01  0.116806D-01 -0.273006D-01 -0.854846D-03 -0.602776D-03
     19 -0.966932D-01 -0.183949D-01  0.715306D-01 -0.426606D-02 -0.450875D-02
     20 -0.196359D-01 -0.796966D-01  0.472262D-01 -0.143596D-01 -0.773232D-03
     21  0.735172D-01  0.453729D-01 -0.250940D+00  0.103775D-01  0.899995D-02
     22 -0.198009D+00 -0.272692D-01 -0.132992D+00 -0.383851D-02  0.308860D-03
     23 -0.330174D-01 -0.632255D-01 -0.322753D-01 -0.224442D-01 -0.111821D-02
     24 -0.128025D+00 -0.285359D-01 -0.163429D+00 -0.122500D-02 -0.512504D-03
                6             7             8             9            10 
      6  0.600020D-01
      7 -0.576992D-02  0.594009D+00
      8 -0.339901D-02 -0.464450D-01  0.575441D+00
      9  0.177604D-02 -0.745251D-02  0.114007D-01  0.532113D+00
     10  0.348866D-03 -0.214819D+00  0.659385D-02 -0.902366D-01  0.255428D+00
     11  0.473712D-03 -0.338599D-03 -0.795713D-01 -0.500969D-02  0.299197D-01
     12  0.224213D-03 -0.100807D+00 -0.163238D-02 -0.146232D+00  0.165765D+00
     13  0.189879D-02 -0.858067D-01 -0.269976D-01 -0.585203D-03 -0.225650D-01
     14 -0.181401D-02 -0.148754D-01 -0.279393D+00 -0.112440D-01 -0.398514D-01
     15  0.990808D-04  0.167699D-02 -0.687078D-02 -0.754233D-01 -0.241412D-01
     16  0.244661D-04 -0.124008D+00 -0.218668D-02  0.770798D-01  0.189035D-01
     17 -0.162593D-03 -0.724760D-02 -0.808919D-01  0.206725D-01  0.238207D-02
     18 -0.423254D-03  0.851814D-01  0.131144D-01 -0.222946D+00 -0.176149D-01
     19  0.188536D-01 -0.968788D-02 -0.156806D-01  0.352866D-01  0.245050D-02
     20  0.386763D-01  0.213004D-02  0.366858D-02 -0.136450D-01 -0.132982D-02
     21 -0.153564D-01  0.677510D-02  0.129539D-01 -0.337229D-01  0.328145D-02
     22 -0.471148D-02 -0.166975D-01 -0.930296D-02 -0.208812D-01 -0.573277D-02
     23 -0.194852D-01  0.159378D-01  0.392234D-02  0.137586D-01  0.583669D-02
     24  0.274957D-02  0.116375D-02  0.116103D-02  0.435901D-02  0.328803D-02
               11            12            13            14            15 
     11  0.835754D-01
     12  0.226297D-01  0.226906D+00
     13 -0.525695D-01 -0.230199D-01  0.993584D-01
     14 -0.251090D-01 -0.266261D-01  0.878514D-01  0.387091D+00
     15 -0.363441D-01 -0.227016D-02  0.341268D-02 -0.586382D-03  0.794600D-01
     16  0.357840D-02 -0.327375D-01 -0.762905D-03 -0.259525D-01  0.189713D-01
     17  0.123109D-01  0.678608D-02 -0.335175D-01 -0.352281D-01  0.522901D-01
     18  0.680468D-02 -0.781383D-01  0.178740D-01  0.391870D-01 -0.109330D-01
     19  0.319255D-03 -0.294530D-03  0.122421D-02  0.163791D-02 -0.201631D-02
     20  0.708410D-03 -0.648249D-03  0.271505D-03  0.524734D-02 -0.541416D-03
     21 -0.155936D-02  0.644670D-02 -0.765075D-03 -0.413371D-02  0.313407D-02
     22  0.381822D-02 -0.112891D-03  0.202948D-02  0.467193D-04  0.125461D-02
     23 -0.169285D-02  0.119555D-02 -0.106862D-02  0.806389D-03 -0.475930D-03
     24 -0.121878D-02  0.105531D-02  0.449615D-04  0.171819D-03  0.135871D-03
               16            17            18            19            20 
     16  0.117870D+00
     17  0.297010D-01  0.932254D-01
     18 -0.104226D+00 -0.656606D-01  0.340681D+00
     19 -0.818643D-02  0.489127D-02  0.742997D-02  0.995886D-01
     20  0.535480D-02 -0.218836D-03 -0.439438D-02  0.260025D-01  0.665793D-01
     21  0.668795D-02 -0.370213D-02 -0.202988D-02 -0.117850D+00 -0.676971D-01
     22  0.112693D-02  0.271267D-03  0.190931D-02  0.155703D-01  0.156652D-02
     23 -0.153827D-02 -0.291858D-03 -0.128938D-03  0.573332D-02  0.448507D-02
     24  0.135834D-03  0.265063D-03  0.108943D-02 -0.129397D-01  0.102364D-02
               21            22            23            24 
     21  0.332919D+00
     22  0.179761D-01  0.205552D+00
     23  0.976560D-02  0.305606D-01  0.571146D-01
     24 -0.404510D-01  0.137557D+00  0.276457D-01  0.194491D+00
 FormGI is forming the generalized inverse of G from B-inverse, IUseBI=4.
 Force constants in internal coordinates: 
                1             2             3             4             5 
      1  0.343556D+00
      2  0.293730D-02  0.286017D+00
      3  0.142401D-01  0.185069D-01  0.397942D+00
      4  0.236485D-02  0.293729D-02  0.142401D-01  0.343556D+00
      5  0.613126D-03  0.199979D-01  0.557317D-02 -0.446411D-04  0.411760D+00
      6 -0.446413D-04  0.199979D-01  0.557317D-02  0.613126D-03  0.582946D-01
      7  0.156897D-02  0.193532D-01  0.493646D-02  0.156897D-02  0.571464D-01
      8  0.741383D-02  0.128318D-01 -0.255133D-01 -0.853069D-02 -0.146384D-02
      9 -0.504510D-03 -0.124105D-01  0.141928D-01  0.130645D-02  0.804414D-03
     10  0.339823D-02 -0.146155D-01  0.213652D-02  0.339823D-02 -0.351323D-02
     11 -0.313304D-02  0.143419D-01  0.200944D-01 -0.313304D-02 -0.725108D-02
     12 -0.853069D-02  0.128318D-01 -0.255133D-01  0.741383D-02  0.122051D-01
     13  0.130645D-02 -0.124105D-01  0.141928D-01 -0.504509D-03 -0.782194D-03
     14 -0.265987D-02  0.175678D-01 -0.411227D-02  0.460913D-02  0.147253D-01
     15  0.460913D-02  0.175678D-01 -0.411227D-02 -0.265987D-02 -0.311277D-01
     16 -0.125259D-02  0.114864D-01  0.177147D-01 -0.125259D-02 -0.286432D-01
     17 -0.454613D-03 -0.183684D-01 -0.120719D-02 -0.454613D-03  0.213435D-01
     18  0.827440D-04 -0.153481D-01 -0.428816D-02 -0.382394D-03  0.215821D-01
     19 -0.382394D-03 -0.153481D-01 -0.428816D-02  0.827439D-04  0.398438D-02
     20 -0.149903D-02  0.594892D-03  0.174572D-01 -0.275707D-02 -0.107371D-02
     21 -0.693213D-03  0.195809D-02  0.100140D-01 -0.195125D-02  0.148081D-01
     22  0.865379D-03  0.127649D-02  0.137356D-01 -0.431566D-02 -0.182690D-01
     23 -0.354074D-02 -0.681601D-03  0.372159D-02  0.273492D-02  0.317442D-02
     24 -0.273492D-02  0.681599D-03 -0.372159D-02  0.354075D-02  0.190563D-01
     25 -0.117633D-02  0.000000D+00  0.000000D+00  0.117633D-02 -0.140209D-01
     26  0.195125D-02 -0.195809D-02 -0.100140D-01  0.693213D-03  0.100565D-02
     27  0.275707D-02 -0.594893D-03 -0.174572D-01  0.149903D-02  0.168875D-01
     28  0.431566D-02 -0.127649D-02 -0.137356D-01 -0.865379D-03 -0.161897D-01
                6             7             8             9            10 
      6  0.411760D+00
      7  0.571464D-01  0.398796D+00
      8  0.122051D-01 -0.302668D-02  0.113045D+00
      9 -0.782194D-03 -0.638060D-02 -0.462866D-01  0.731795D-01
     10 -0.351323D-02  0.332407D-03 -0.416356D-01  0.137926D-01  0.508909D-01
     11 -0.725108D-02  0.187582D-01 -0.177795D-01 -0.687356D-01  0.397923D-02
     12 -0.146384D-02 -0.302668D-02 -0.137127D-01  0.725502D-02 -0.416356D-01
     13  0.804414D-03 -0.638060D-02  0.725502D-02  0.189259D-01  0.137926D-01
     14 -0.311277D-01 -0.280035D-01 -0.101967D-01  0.604506D-02 -0.407492D-02
     15  0.147253D-01 -0.280035D-01  0.241507D-01 -0.481675D-02 -0.407492D-02
     16 -0.286432D-01  0.200125D-01 -0.947250D-02 -0.782325D-02  0.420427D-02
     17  0.213435D-01  0.441699D-02 -0.470812D-02  0.421630D-03  0.270566D-02
     18  0.398438D-02  0.172175D-01  0.373429D-02  0.225496D-02  0.751569D-03
     19  0.215821D-01  0.172175D-01 -0.383401D-02  0.422857D-02  0.751569D-03
     20 -0.168875D-01  0.187503D-01 -0.601172D-02  0.856119D-02 -0.507405D-02
     21 -0.100565D-02 -0.155868D-01 -0.212379D-02  0.998502D-02 -0.740186D-02
     22  0.161897D-01  0.158176D-02  0.186235D-02  0.713689D-02 -0.623795D-02
     23 -0.190563D-01  0.171685D-01 -0.799760D-02 -0.113275D-01  0.116390D-02
     24 -0.317442D-02 -0.171685D-01 -0.410968D-02 -0.990365D-02 -0.116390D-02
     25  0.140209D-01  0.000000D+00 -0.123538D-03 -0.127518D-01  0.000000D+00
     26 -0.148081D-01  0.155868D-01  0.216082D-02  0.224588D-02  0.740186D-02
     27  0.107372D-02 -0.187503D-01  0.604875D-02  0.366971D-02  0.507405D-02
     28  0.182690D-01 -0.158176D-02  0.100349D-01  0.821578D-03  0.623795D-02
               11            12            13            14            15 
     11  0.171912D+00
     12 -0.177795D-01  0.113045D+00
     13 -0.687356D-01 -0.462866D-01  0.731795D-01
     14 -0.111381D-01  0.241507D-01 -0.481675D-02  0.183987D+00
     15 -0.111381D-01 -0.101967D-01  0.604506D-02 -0.497444D-02  0.183987D+00
     16  0.307258D-01 -0.947250D-02 -0.782325D-02  0.125226D-02  0.125226D-02
     17  0.585476D-02 -0.470812D-02  0.421630D-03 -0.946608D-01 -0.946608D-01
     18 -0.727421D-02 -0.383401D-02  0.422857D-02 -0.867004D-01 -0.825024D-02
     19 -0.727421D-02  0.373429D-02  0.225496D-02 -0.825024D-02 -0.867004D-01
     20  0.122446D-01 -0.604874D-02 -0.366971D-02 -0.219827D-02 -0.664873D-02
     21  0.388874D-02 -0.216082D-02 -0.224588D-02  0.335612D-02 -0.109434D-02
     22  0.806666D-02 -0.100349D-01 -0.821578D-03 -0.916139D-02  0.586878D-02
     23  0.417791D-02  0.410968D-02  0.990365D-02  0.331726D-02 -0.887165D-02
     24 -0.417791D-02  0.799760D-02  0.113275D-01  0.887165D-02 -0.331726D-02
     25  0.000000D+00  0.123537D-03  0.127518D-01 -0.364586D-02  0.364586D-02
     26 -0.388875D-02  0.212379D-02 -0.998502D-02  0.109434D-02 -0.335612D-02
     27 -0.122446D-01  0.601172D-02 -0.856119D-02  0.664873D-02  0.219827D-02
     28 -0.806666D-02 -0.186235D-02 -0.713689D-02 -0.586878D-02  0.916139D-02
               16            17            18            19            20 
     16  0.183661D+00
     17 -0.954796D-02  0.131616D+00
     18 -0.931057D-01  0.381494D-01  0.122064D+00
     19 -0.931057D-01  0.381494D-01  0.382212D-01  0.122064D+00
     20  0.831838D-02 -0.163033D-01  0.181881D-01 -0.490419D-03  0.273369D-01
     21 -0.224251D-02  0.185785D-01 -0.359413D-03 -0.190379D-01 -0.806942D-04
     22  0.303793D-02  0.113760D-02 -0.189142D-01  0.180643D-01  0.639150D-03
     23  0.528044D-02 -0.174409D-01  0.175045D-01  0.104306D-02  0.132473D-01
     24 -0.528044D-02  0.174409D-01 -0.104306D-02 -0.175045D-01 -0.141703D-01
     25  0.000000D+00  0.000000D+00 -0.195978D-01  0.195978D-01 -0.134504D-01
     26  0.224251D-02 -0.185785D-01  0.190379D-01  0.359413D-03  0.140995D-01
     27 -0.831838D-02  0.163033D-01  0.490419D-03 -0.181881D-01 -0.133181D-01
     28 -0.303794D-02 -0.113760D-02 -0.180643D-01  0.189142D-01 -0.125983D-01
               21            22            23            24            25 
     21  0.255711D-01
     22 -0.243754D-03  0.278381D-01
     23 -0.132874D-01 -0.140268D-01  0.294536D-01
     24  0.123644D-01 -0.149097D-01  0.291891D-02  0.294536D-01
     25 -0.134504D-01  0.131721D-01  0.217952D-02  0.217952D-02  0.288021D-01
     26 -0.115523D-01 -0.117154D-01  0.123644D-01 -0.132874D-01 -0.134504D-01
     27  0.140995D-01 -0.125983D-01 -0.141703D-01  0.132473D-01 -0.134504D-01
     28 -0.117154D-01  0.154835D-01 -0.149097D-01 -0.140268D-01  0.131721D-01
               26            27            28 
     26  0.255711D-01
     27 -0.806940D-04  0.273369D-01
     28 -0.243754D-03  0.639151D-03  0.278381D-01
 Leave Link  716 at Thu Apr  2 15:45:33 2026, MaxMem=  1073741824 cpu:               0.1 elap:               0.0
 (Enter /Users/yarger/Applications/g16/l103.exe)

 GradGradGradGradGradGradGradGradGradGradGradGradGradGradGradGradGradGrad
 Berny optimization.
 Red2BG is reusing G-inverse.
 Internal  Forces:  Max     0.000010824 RMS     0.000003448
 Search for a local minimum.
 Step number   1 out of a maximum of    2
 All quantities printed in internal units (Hartrees-Bohrs-Radians)
 Second derivative matrix not updated -- analytic derivatives used.
 ITU=  0
     Eigenvalues ---    0.00297   0.05048   0.07187   0.09493   0.10050
     Eigenvalues ---    0.14332   0.14804   0.20084   0.23607   0.25387
     Eigenvalues ---    0.26944   0.34143   0.34300   0.37338   0.37855
     Eigenvalues ---    0.38254   0.42622   0.54776
 Angle between quadratic step and forces=  41.77 degrees.
 Linear search not attempted -- first point.
 Iteration  1 RMS(Cart)=  0.00001519 RMS(Int)=  0.00000000
 Iteration  2 RMS(Cart)=  0.00000000 RMS(Int)=  0.00000000
 ITry= 1 IFail=0 DXMaxC= 3.10D-05 DCOld= 1.00D+10 DXMaxT= 3.00D-01 DXLimC= 3.00D+00 Rises=F
 ClnCor:  largest displacement from symmetrization is 6.38D-12 for atom     8.
 Variable       Old X    -DE/DX   Delta X   Delta X   Delta X     New X
                                 (Linear)    (Quad)   (Total)
    R1        2.05973   0.00001   0.00000   0.00002   0.00002   2.05975
    R2        2.87108   0.00000   0.00000   0.00001   0.00001   2.87109
    R3        2.58257  -0.00001   0.00000  -0.00004  -0.00004   2.58254
    R4        2.05973   0.00001   0.00000   0.00002   0.00002   2.05975
    R5        2.51991  -0.00000   0.00000  -0.00001  -0.00001   2.51991
    R6        2.51991  -0.00000   0.00000  -0.00001  -0.00001   2.51991
    R7        2.53298   0.00001   0.00000   0.00001   0.00001   2.53299
    A1        1.89710  -0.00000   0.00000  -0.00001  -0.00001   1.89710
    A2        1.91232   0.00000   0.00000   0.00002   0.00002   1.91233
    A3        1.92745  -0.00000   0.00000  -0.00003  -0.00003   1.92742
    A4        1.91744   0.00000   0.00000   0.00000   0.00000   1.91744
    A5        1.89710  -0.00000   0.00000  -0.00001  -0.00001   1.89710
    A6        1.91232   0.00000   0.00000   0.00002   0.00002   1.91233
    A7        1.95366  -0.00000   0.00000  -0.00002  -0.00002   1.95364
    A8        1.95366  -0.00000   0.00000  -0.00002  -0.00002   1.95364
    A9        1.90027   0.00000   0.00000   0.00003   0.00003   1.90029
   A10        1.88230   0.00000   0.00000  -0.00001  -0.00001   1.88230
   A11        1.88581   0.00000   0.00000   0.00001   0.00001   1.88582
   A12        1.88581   0.00000   0.00000   0.00001   0.00001   1.88582
    D1        1.03440   0.00000   0.00000   0.00004   0.00004   1.03444
    D2       -3.13300  -0.00000   0.00000   0.00000   0.00000  -3.13300
    D3       -1.04930   0.00000   0.00000   0.00002   0.00002  -1.04928
    D4       -1.05789   0.00000   0.00000   0.00002   0.00002  -1.05787
    D5        1.05789  -0.00000   0.00000  -0.00002  -0.00002   1.05787
    D6        3.14159  -0.00000   0.00000   0.00000   0.00000   3.14159
    D7        3.13300   0.00000   0.00000  -0.00000  -0.00000   3.13300
    D8       -1.03440  -0.00000   0.00000  -0.00004  -0.00004  -1.03444
    D9        1.04930  -0.00000   0.00000  -0.00002  -0.00002   1.04928
         Item               Value     Threshold  Converged?
 Maximum Force            0.000011     0.000015     YES
 RMS     Force            0.000003     0.000010     YES
 Maximum Displacement     0.000031     0.000060     YES
 RMS     Displacement     0.000015     0.000040     YES
 Predicted change in Energy=-6.904227D-10
 Optimization completed.
    -- Stationary point found.
                           ----------------------------
                           !   Optimized Parameters   !
                           ! (Angstroms and Degrees)  !
 --------------------------                            --------------------------
 ! Name  Definition              Value          Derivative Info.                !
 --------------------------------------------------------------------------------
 ! R1    R(1,2)                  1.09           -DE/DX =    0.0                 !
 ! R2    R(1,3)                  1.5193         -DE/DX =    0.0                 !
 ! R3    R(1,7)                  1.3666         -DE/DX =    0.0                 !
 ! R4    R(1,8)                  1.09           -DE/DX =    0.0                 !
 ! R5    R(3,4)                  1.3335         -DE/DX =    0.0                 !
 ! R6    R(3,5)                  1.3335         -DE/DX =    0.0                 !
 ! R7    R(3,6)                  1.3404         -DE/DX =    0.0                 !
 ! A1    A(2,1,3)              108.696          -DE/DX =    0.0                 !
 ! A2    A(2,1,7)              109.5676         -DE/DX =    0.0                 !
 ! A3    A(2,1,8)              110.4345         -DE/DX =    0.0                 !
 ! A4    A(3,1,7)              109.8612         -DE/DX =    0.0                 !
 ! A5    A(3,1,8)              108.696          -DE/DX =    0.0                 !
 ! A6    A(7,1,8)              109.5676         -DE/DX =    0.0                 !
 ! A7    A(1,3,4)              111.9365         -DE/DX =    0.0                 !
 ! A8    A(1,3,5)              111.9365         -DE/DX =    0.0                 !
 ! A9    A(1,3,6)              108.8773         -DE/DX =    0.0                 !
 ! A10   A(4,3,5)              107.8481         -DE/DX =    0.0                 !
 ! A11   A(4,3,6)              108.0492         -DE/DX =    0.0                 !
 ! A12   A(5,3,6)              108.0492         -DE/DX =    0.0                 !
 ! D1    D(2,1,3,4)             59.267          -DE/DX =    0.0                 !
 ! D2    D(2,1,3,5)           -179.5078         -DE/DX =    0.0                 !
 ! D3    D(2,1,3,6)            -60.1204         -DE/DX =    0.0                 !
 ! D4    D(7,1,3,4)            -60.6126         -DE/DX =    0.0                 !
 ! D5    D(7,1,3,5)             60.6126         -DE/DX =    0.0                 !
 ! D6    D(7,1,3,6)            180.0            -DE/DX =    0.0                 !
 ! D7    D(8,1,3,4)            179.5078         -DE/DX =    0.0                 !
 ! D8    D(8,1,3,5)            -59.267          -DE/DX =    0.0                 !
 ! D9    D(8,1,3,6)             60.1204         -DE/DX =    0.0                 !
 --------------------------------------------------------------------------------
 GradGradGradGradGradGradGradGradGradGradGradGradGradGradGradGradGradGrad

 Leave Link  103 at Thu Apr  2 15:45:33 2026, MaxMem=  1073741824 cpu:               0.1 elap:               0.0
 (Enter /Users/yarger/Applications/g16/l9999.exe)

 ----------------------------------------------------------------------

 Electric dipole moment (input orientation):
 (Debye = 10**-18 statcoulomb cm , SI units = C m)
                  (au)            (Debye)         (10**-30 SI)
   Tot        0.791234D+00      0.201112D+01      0.670836D+01
   x         -0.350997D+00     -0.892146D+00     -0.297588D+01
   y          0.581223D+00      0.147732D+01      0.492782D+01
   z         -0.406241D+00     -0.103256D+01     -0.344425D+01

 Dipole polarizability, Alpha (input orientation).
 (esu units = cm**3 , SI units = C**2 m**2 J**-1)
 Alpha(0;0):
               (au)            (10**-24 esu)      (10**-40 SI)
   iso        0.306172D+02      0.453700D+01      0.504810D+01
   aniso      0.178491D+01      0.264497D+00      0.294292D+00
   xx         0.306492D+02      0.454175D+01      0.505337D+01
   yx        -0.498204D+00     -0.738263D-01     -0.821428D-01
   yy         0.301712D+02      0.447091D+01      0.497456D+01
   zx        -0.773109D+00     -0.114563D+00     -0.127468D+00
   zy        -0.174356D+00     -0.258369D-01     -0.287475D-01
   zz         0.310312D+02      0.459835D+01      0.511636D+01

 First dipole hyperpolarizability, Beta (input orientation).
 ||, _|_  parallel and perpendicular components, (z) with respect to z axis,
 vector components x,y,z.  Values do not include the 1/n! factor of 1/2.
 (esu units = statvolt**-1 cm**4 , SI units = C**3 m**3 J**-2)
 Beta(0;0,0):
               (au)            (10**-30 esu)      (10**-50 SI)
   || (z)    -0.258780D+02     -0.223565D+00     -0.829741D-01
   _|_(z)    -0.862599D+01     -0.745218D-01     -0.276580D-01
   x         -0.687936D+02     -0.594323D+00     -0.220577D+00
   y          0.145006D+03      0.125274D+01      0.464943D+00
   z         -0.129390D+03     -0.111783D+01     -0.414871D+00
   ||         0.412316D+02      0.356209D+00      0.132203D+00
   xxx       -0.146152D+02     -0.126264D+00     -0.468615D-01
   xxy        0.560129D+01      0.483908D-01      0.179598D-01
   yxy        0.297135D+01      0.256702D-01      0.952722D-02
   yyy        0.393326D+02      0.339803D+00      0.126115D+00
   xxz       -0.151940D+02     -0.131265D+00     -0.487175D-01
   yxz        0.143605D+00      0.124063D-02      0.460448D-03
   yyz       -0.672979D+01     -0.581402D-01     -0.215782D-01
   zxz       -0.112874D+02     -0.975142D-01     -0.361914D-01
   zyz        0.340154D+01      0.293866D-01      0.109066D-01
   zzz       -0.212061D+02     -0.183204D+00     -0.679945D-01

 ----------------------------------------------------------------------

 Dipole orientation:
     6         -3.11663012         -3.12727952          1.80060328
     1         -2.12132928         -4.50634911          2.96251406
     6         -1.28922302         -2.07585832         -0.14829119
     9         -0.34920178         -3.88474725         -1.62958889
     9         -2.38062238         -0.35406665         -1.62958889
     9          0.64255415         -0.96438651          1.05539009
     9         -5.10420682         -4.27085626          0.61255537
     1         -3.80865551         -1.57371665          2.96251406

 Electric dipole moment (dipole orientation):
 (Debye = 10**-18 statcoulomb cm , SI units = C m)
                  (au)            (Debye)         (10**-30 SI)
   Tot        0.791234D+00      0.201112D+01      0.670836D+01
   x          0.000000D+00      0.000000D+00      0.000000D+00
   y          0.000000D+00      0.000000D+00      0.000000D+00
   z          0.791234D+00      0.201112D+01      0.670836D+01

 Dipole polarizability, Alpha (dipole orientation).
 (esu units = cm**3 , SI units = C**2 m**2 J**-1)
 Alpha(0;0):
               (au)            (10**-24 esu)      (10**-40 SI)
   iso        0.306172D+02      0.453700D+01      0.504810D+01
   aniso      0.178491D+01      0.264497D+00      0.294292D+00
   xx         0.311456D+02      0.461531D+01      0.513522D+01
   yx         0.890719D+00      0.131991D+00      0.146860D+00
   yy         0.301100D+02      0.446184D+01      0.496447D+01
   zx         0.987715D-02      0.146364D-02      0.162852D-02
   zy         0.568294D-02      0.842125D-03      0.936991D-03
   zz         0.305960D+02      0.453386D+01      0.504460D+01

 First dipole hyperpolarizability, Beta (dipole orientation).
 ||, _|_  parallel and perpendicular components, (z) with respect to z axis,
 vector components x,y,z.  Values do not include the 1/n! factor of 1/2.
 (esu units = statvolt**-1 cm**4 , SI units = C**3 m**3 J**-2)
 Beta(0;0,0):
               (au)            (10**-30 esu)      (10**-50 SI)
   || (z)     0.406936D+02      0.351561D+00      0.130478D+00
   _|_(z)     0.135645D+02      0.117187D+00      0.434928D-01
   x          0.287718D+02      0.248566D+00      0.922529D-01
   y          0.165542D+02      0.143016D+00      0.530789D-01
   z          0.203468D+03      0.175781D+01      0.652392D+00
   ||         0.412316D+02      0.356209D+00      0.132203D+00
   xxx        0.600131D+01      0.518466D-01      0.192424D-01
   xxy       -0.164730D+00     -0.142314D-02     -0.528185D-03
   yxy        0.200830D+01      0.173501D-01      0.643932D-02
   yyy        0.477316D+01      0.412363D-01      0.153045D-01
   xxz        0.103760D+02      0.896405D-01      0.332692D-01
   yxz       -0.925444D+01     -0.799511D-01     -0.296731D-01
   yyz        0.211359D+02      0.182598D+00      0.677693D-01
   zxz        0.158101D+01      0.136587D-01      0.506929D-02
   zyz        0.909653D+00      0.785869D-02      0.291668D-02
   zzz        0.363108D+02      0.313697D+00      0.116426D+00

 ----------------------------------------------------------------------
 1\1\GINC-MACBOOKPRO\Freq\RwB97XD\Aug-CC-pVTZ\C2H2F4\ROOT\02-Apr-2026\0
 \\#P Geom=AllCheck Guess=TCheck SCRF=Check GenChk RwB97XD/Aug-CC-pVTZ 
 Freq\\r134a - 1,1,1,2-Tetrafluoroethane\\0,1\C,-1.5011651675,1.4096689
 105,1.4580487895\H,-1.1585825881,2.4443092732,1.4447958782\C,-0.322184
 7795,0.502294803,1.149862844\F,0.6644071532,0.64951716,2.034810525\F,-
 0.6730828903,-0.7841451856,1.1392264035\F,0.1579451353,0.8118412133,-0
 .0627022153\F,-2.0069953281,1.1107735209,2.6919450169\H,-2.269520439,1
 .2534893693,0.7009112384\\Version=EM64M-G16RevA.03\State=1-A'\HF=-476.
 8484645\RMSD=6.936e-10\RMSF=6.000e-06\ZeroPoint=0.045678\Thermal=0.051
 106\Dipole=-0.3509971,0.5812234,-0.406241\DipoleDeriv=0.3505727,0.0936
 361,-0.2129304,0.1099431,0.2707338,-0.103954,-0.2390348,-0.0796007,0.7
 927705,0.0449136,-0.0406329,0.0313346,-0.0459862,-0.0459587,0.031891,0
 .0204493,-0.0352279,0.0402362,1.4891285,0.1170411,0.0872187,0.1443709,
 1.5756179,-0.0597373,0.043469,-0.0189224,1.6383607,-0.7154105,-0.03436
 45,-0.3593424,0.0172087,-0.3173134,-0.0305368,-0.2880937,-0.0635708,-0
 .563817,-0.3639218,-0.0709448,0.0098037,-0.1611226,-0.9515318,-0.00653
 83,0.0003535,-0.0311573,-0.2810873,-0.4223856,-0.0483266,0.2802838,-0.
 0012009,-0.3394386,0.0865241,0.2048444,0.1569028,-0.8436012,-0.3735412
 ,-0.0126765,0.2350305,-0.0343954,-0.2664625,0.1101326,0.2697985,0.0776
 969,-0.7570554,-0.0093558,-0.0037319,-0.0713985,-0.0288176,0.0743534,-
 0.0277813,-0.0117862,-0.0061207,-0.0258064\Polar=30.6492269,-0.4982043
 ,30.1712261,-0.7731091,-0.1743562,31.031219\PolarDeriv=0.2261235,1.328
 8276,-2.9642856,1.3759029,-0.1622829,2.9111666,1.2120736,-2.3114775,-4
 .1479619,-0.1882714,0.3180856,0.6681575,2.4322279,-0.2753674,1.3865503
 ,3.5349354,0.6877802,-0.4469357,0.9714393,1.1585461,1.8068945,-0.40658
 37,-0.0773231,0.1420782,1.4962669,0.9044956,7.8185501,-0.0971829,-0.15
 63352,1.4370445,-0.267658,-0.0534189,-0.2103641,-0.0859491,1.2008036,0
 .0730411,0.1211109,-1.1311254,1.9064768,-1.002787,0.3220605,-1.8600743
 ,-1.0961254,1.354,2.1856422,0.0168764,-0.1034456,-0.6499701,-1.5894177
 ,0.6377162,-0.3190764,-1.7268241,-0.7250252,0.9546935,4.6230408,0.2698
 704,0.9110809,1.8220878,-0.0349481,1.7717522,0.2724575,1.2442899,0.220
 4814,0.2327671,0.985642,0.2906911,2.1100962,0.1023238,0.8463049,2.0872
 936,0.0809442,3.4994308,-0.8738479,-1.6964391,-1.1466621,-0.0412014,-0
 .0035616,-0.2747109,-1.2108564,-0.7475122,-6.8024252,0.0165126,-0.1584
 62,-1.4945505,0.0515117,-0.0674459,0.0633134,-0.2727464,-1.4867442,-0.
 0878919,1.9306804,0.456902,0.417548,-1.8012933,-0.0851172,1.4056199,0.
 357549,0.6756279,0.7706719,-0.2219875,-1.4759262,0.8028198,-1.5372944,
 -0.3857545,-1.107,1.6950004,0.5881085,-6.0530407,-2.3284735,-0.2645386
 ,-0.0724416,2.2453741,-0.0148595,-1.6305451,-0.3833401,-0.5419261,-0.2
 876459,0.3358613,1.4246884,-0.5122092,1.6128828,-0.1451268,0.3981524,-
 2.7428435,-0.1917016,5.9037324,-4.6700735,-0.1220431,-0.8586108,-2.191
 4997,0.056032,-2.4652866,-0.6480251,-0.5774976,0.2426874,-0.094576,-0.
 8342471,-0.5419832,-2.8123483,0.1870733,-1.0578805,-2.4888662,-0.15416
 56,-3.8430295\HyperPolar=-14.6151683,5.6012869,2.9713503,39.3326489,-1
 5.1940264,0.1436046,-6.7297948,-11.2873846,3.4015373,-21.2061224\Quadr
 upole=0.0406767,1.4189488,-1.4596255,-0.62807,1.8044048,-0.4119449\PG=
 CS [SG(C2F2),X(H2F2)]\NImag=0\\0.55804614,0.05151644,0.59439982,0.0532
 4137,0.01033623,0.55285881,-0.08047768,-0.07679235,-0.00552507,0.08079
 191,-0.07384565,-0.29511528,-0.00733995,0.08462437,0.31636334,-0.00600
 715,-0.01526306,-0.04907129,-0.00463713,0.00097381,0.06000201,-0.15336
 512,0.06203779,0.01923177,0.01037579,-0.01119906,-0.00576992,0.5940085
 8,0.07001252,-0.12260840,-0.02672792,0.02400646,-0.02056798,-0.0033990
 1,-0.04644503,0.57544129,0.00646571,-0.01481823,-0.05992377,0.00032332
 ,-0.00111493,0.00177604,-0.00745251,0.01140075,0.53211304,-0.03426918,
 -0.00376616,-0.04069060,0.00060328,0.00021513,0.00034887,-0.21481881,0
 .00659385,-0.09023656,0.25542847,0.01679024,0.00763414,0.01422383,-0.0
 0151767,0.00214424,0.00047371,-0.00033860,-0.07957131,-0.00500969,0.02
 991967,0.08357542,-0.00892113,-0.00190393,-0.00799120,0.00012765,0.000
 19933,0.00022421,-0.10080659,-0.00163238,-0.14623250,0.16576490,0.0226
 2969,0.22690598,0.00991751,0.02281746,0.00113971,-0.00339507,0.0032129
 3,0.00189879,-0.08580670,-0.02699759,-0.00058520,-0.02256495,-0.052569
 51,-0.02301990,0.09935843,-0.01651570,-0.05034118,0.00504536,0.0076589
 7,-0.00307432,-0.00181401,-0.01487537,-0.27939258,-0.01124400,-0.03985
 142,-0.02510896,-0.02662609,0.08785137,0.38709142,-0.00057168,-0.00686
 862,0.00579743,0.00141362,-0.00060293,0.00009908,0.00167699,-0.0068707
 8,-0.07542334,-0.02414123,-0.03634408,-0.00227016,0.00341268,-0.000586
 38,0.07946003,-0.00514903,-0.01014900,0.03406401,0.00020632,0.00119218
 ,0.00002447,-0.12400836,-0.00218668,0.07707985,0.01890346,0.00357840,-
 0.03273752,-0.00076291,-0.02595247,0.01897133,0.11787002,0.00469542,0.
 00895300,-0.01048844,-0.00117593,0.00214143,-0.00016259,-0.00724760,-0
 .08089193,0.02067254,0.00238207,0.01231090,0.00678608,-0.03351754,-0.0
 3522811,0.05229014,0.02970104,0.09322541,0.01030089,0.01168062,-0.0273
 0061,-0.00085485,-0.00060278,-0.00042325,0.08518141,0.01311443,-0.2229
 4560,-0.01761486,0.00680468,-0.07813834,0.01787404,0.03918701,-0.01093
 298,-0.10422592,-0.06566065,0.34068123,-0.09669322,-0.01839493,0.07153
 062,-0.00426606,-0.00450875,0.01885357,-0.00968788,-0.01568057,0.03528
 656,0.00245050,0.00031925,-0.00029453,0.00122421,0.00163791,-0.0020163
 1,-0.00818643,0.00489127,0.00742997,0.09958860,-0.01963590,-0.07969661
 ,0.04722623,-0.01435964,-0.00077323,0.03867631,0.00213004,0.00366858,-
 0.01364500,-0.00132982,0.00070841,-0.00064825,0.00027151,0.00524734,-0
 .00054142,0.00535480,-0.00021884,-0.00439438,0.02600251,0.06657928,0.0
 7351719,0.04537292,-0.25094003,0.01037746,0.00899995,-0.01535636,0.006
 77510,0.01295386,-0.03372289,0.00328145,-0.00155936,0.00644670,-0.0007
 6508,-0.00413371,0.00313407,0.00668795,-0.00370213,-0.00202988,-0.1178
 5018,-0.06769713,0.33291939,-0.19800941,-0.02726925,-0.13299181,-0.003
 83851,0.00030886,-0.00471148,-0.01669750,-0.00930296,-0.02088116,-0.00
 573277,0.00381822,-0.00011289,0.00202948,0.00004672,0.00125461,0.00112
 693,0.00027127,0.00190931,0.01557027,0.00156652,0.01797611,0.20555151,
 -0.03301736,-0.06322549,-0.03227534,-0.02244422,-0.00111821,-0.0194851
 6,0.01593783,0.00392234,0.01375857,0.00583669,-0.00169285,0.00119555,-
 0.00106862,0.00080639,-0.00047593,-0.00153827,-0.00029186,-0.00012894,
 0.00573332,0.00448507,0.00976560,0.03056063,0.05711460,-0.12802520,-0.
 02853593,-0.16342935,-0.00122500,-0.00051250,0.00274957,0.00116375,0.0
 0116103,0.00435901,0.00328803,-0.00121878,0.00105531,0.00004496,0.0001
 7182,0.00013587,0.00013583,0.00026506,0.00108943,-0.01293969,0.0010236
 4,-0.04045100,0.13755732,0.02764566,0.19449115\\0.00000375,0.00000929,
 -0.00002047,-0.00000183,-0.00000522,0.00000295,-0.00000341,0.00000237,
 0.00000130,0.00000596,0.00000151,-0.00000060,0.00000044,-0.00000442,-0
 .00000430,-0.00000376,0.00000044,0.00000490,-0.00000352,-0.00000325,0.
 00001045,0.00000237,-0.00000072,0.00000576\\\@


 TO BEHOLD HARMS OF OUR OWN HANDS DOING,
 WHERE NONE BESIDE US WROUGHT,
 CAUSES SHARP RUING...

                                         SOPHOCLES
 Job cpu time:       0 days  0 hours 49 minutes 52.5 seconds.
 Elapsed time:       0 days  0 hours 12 minutes 33.8 seconds.
 File lengths (MBytes):  RWF=     85 Int=      0 D2E=      0 Chk=      9 Scr=      1
 Normal termination of Gaussian 16 at Thu Apr  2 15:45:33 2026.
