 Entering Gaussian System, Link 0=g16
 Input=/Users/asuyarger/Downloads/11Difluoroethane_Opt_Freq_DFT_WB97XD_631pd_Gaussian16.gjf
 Output=/Users/asuyarger/Downloads/11Difluoroethane_Opt_Freq_DFT_WB97XD_631pd_Gaussian16.log
 Initial command:
 /Users/asuyarger/Applications/G16/g16/l1.exe "/Users/asuyarger/Applications/G16/scratch/Gau-28904.inp" -scrdir="/Users/asuyarger/Applications/G16/scratch/"
 Entering Link 1 = /Users/asuyarger/Applications/G16/g16/l1.exe PID=     28905.
  
 Copyright (c) 1988,1990,1992,1993,1995,1998,2003,2009,2016,
            Gaussian, Inc.  All Rights Reserved.
  
 This is part of the Gaussian(R) 16 program.  It is based on
 the Gaussian(R) 09 system (copyright 2009, Gaussian, Inc.),
 the Gaussian(R) 03 system (copyright 2003, Gaussian, Inc.),
 the Gaussian(R) 98 system (copyright 1998, Gaussian, Inc.),
 the Gaussian(R) 94 system (copyright 1995, Gaussian, Inc.),
 the Gaussian 92(TM) system (copyright 1992, Gaussian, Inc.),
 the Gaussian 90(TM) system (copyright 1990, Gaussian, Inc.),
 the Gaussian 88(TM) system (copyright 1988, Gaussian, Inc.),
 the Gaussian 86(TM) system (copyright 1986, Carnegie Mellon
 University), and the Gaussian 82(TM) system (copyright 1983,
 Carnegie Mellon University). Gaussian is a federally registered
 trademark of Gaussian, Inc.
  
 This software contains proprietary and confidential information,
 including trade secrets, belonging to Gaussian, Inc.
  
 This software is provided under written license and may be
 used, copied, transmitted, or stored only in accord with that
 written license.
  
 The following legend is applicable only to US Government
 contracts under FAR:
  
                    RESTRICTED RIGHTS LEGEND
  
 Use, reproduction and disclosure by the US Government is
 subject to restrictions as set forth in subparagraphs (a)
 and (c) of the Commercial Computer Software - Restricted
 Rights clause in FAR 52.227-19.
  
 Gaussian, Inc.
 340 Quinnipiac St., Bldg. 40, Wallingford CT 06492
  
  
 ---------------------------------------------------------------
 Warning -- This program may not be used in any manner that
 competes with the business of Gaussian, Inc. or will provide
 assistance to any competitor of Gaussian, Inc.  The licensee
 of this program is prohibited from giving any competitor of
 Gaussian, Inc. access to this program.  By using this program,
 the user acknowledges that Gaussian, Inc. is engaged in the
 business of creating and licensing software in the field of
 computational chemistry and represents and warrants to the
 licensee that it is not a competitor of Gaussian, Inc. and that
 it will not use this program in any manner prohibited above.
 ---------------------------------------------------------------
  

 Cite this work as:
 Gaussian 16, Revision A.03,
 M. J. Frisch, G. W. Trucks, H. B. Schlegel, G. E. Scuseria, 
 M. A. Robb, J. R. Cheeseman, G. Scalmani, V. Barone, 
 G. A. Petersson, H. Nakatsuji, X. Li, M. Caricato, A. V. Marenich, 
 J. Bloino, B. G. Janesko, R. Gomperts, B. Mennucci, H. P. Hratchian, 
 J. V. Ortiz, A. F. Izmaylov, J. L. Sonnenberg, D. Williams-Young, 
 F. Ding, F. Lipparini, F. Egidi, J. Goings, B. Peng, A. Petrone, 
 T. Henderson, D. Ranasinghe, V. G. Zakrzewski, J. Gao, N. Rega, 
 G. Zheng, W. Liang, M. Hada, M. Ehara, K. Toyota, R. Fukuda, 
 J. Hasegawa, M. Ishida, T. Nakajima, Y. Honda, O. Kitao, H. Nakai, 
 T. Vreven, K. Throssell, J. A. Montgomery, Jr., J. E. Peralta, 
 F. Ogliaro, M. J. Bearpark, J. J. Heyd, E. N. Brothers, K. N. Kudin, 
 V. N. Staroverov, T. A. Keith, R. Kobayashi, J. Normand, 
 K. Raghavachari, A. P. Rendell, J. C. Burant, S. S. Iyengar, 
 J. Tomasi, M. Cossi, J. M. Millam, M. Klene, C. Adamo, R. Cammi, 
 J. W. Ochterski, R. L. Martin, K. Morokuma, O. Farkas, 
 J. B. Foresman, and D. J. Fox, Gaussian, Inc., Wallingford CT, 2016.
 
 ******************************************
 Gaussian 16:  EM64M-G16RevA.03 25-Dec-2016
                31-Mar-2026 
 ******************************************
 %nprocshared=4
 Will use up to    4 processors via shared memory.
 %mem=4GB
 %chk=11Difluoroethane_Opt_Freq_DFT_WB97XD_631pd_Gaussian16.chk
 ---------------------------------------------------------------------
 #p opt freq=raman wb97xd/6-31+g(d) guess=save geom=connectivity polar
 ---------------------------------------------------------------------
 1/18=20,19=15,26=3,38=1,57=2/1,3;
 2/9=110,12=2,17=6,18=5,40=1/2;
 3/5=1,6=6,7=11,11=2,25=1,30=1,71=1,74=-58/1,2,3;
 4//1;
 5/5=2,38=5,98=1/2;
 6/7=2,8=2,9=2,10=2,28=1/1;
 7//1,2,3,16;
 1/18=20,19=15,26=3/3(2);
 2/9=110/2;
 99//99;
 2/9=110/2;
 3/5=1,6=6,7=11,11=2,25=1,30=1,71=1,74=-58/1,2,3;
 4/5=5,16=3,69=1/1;
 5/5=2,38=5,98=1/2;
 7//1,2,3,16;
 1/18=20,19=15,26=3/3(-5);
 2/9=110/2;
 6/7=2,8=2,9=2,10=2,19=2,28=1/1;
 99/9=1/99;
 Leave Link    1 at Tue Mar 31 17:52:45 2026, MaxMem=   536870912 cpu:               0.1 elap:               0.0
 (Enter /Users/asuyarger/Applications/G16/g16/l101.exe)
 --------------------------
 R152a - 1,1-difluoroethane
 --------------------------
 Symbolic Z-matrix:
 Charge =  0 Multiplicity = 1
 C                     0.74359   0.09744   0. 
 H                     1.10026   0.60183  -0.87365 
 F                     1.1936    0.73383   1.10227 
 F                    -0.60641   0.09745  0. 
 C                     1.25691  -1.3545   0. 
 H                     0.90023  -1.85889  -0.87365 
 H                     2.32691  -1.35451   0. 
 H                     0.90023  -1.8589    0.87365 
 
 ITRead=  0  0  0  0  0  0  0  0
 MicOpt= -1 -1 -1 -1 -1 -1 -1 -1
 NAtoms=      8 NQM=        8 NQMF=       0 NMMI=      0 NMMIF=      0
                NMic=       0 NMicF=      0.
                    Isotopes and Nuclear Properties:
 (Nuclear quadrupole moments (NQMom) in fm**2, nuclear magnetic moments (NMagM)
  in nuclear magnetons)

  Atom         1           2           3           4           5           6           7           8
 IAtWgt=          12           1          19          19          12           1           1           1
 AtmWgt=  12.0000000   1.0078250  18.9984033  18.9984033  12.0000000   1.0078250   1.0078250   1.0078250
 NucSpn=           0           1           1           1           0           1           1           1
 AtZEff=  -0.0000000  -0.0000000  -0.0000000  -0.0000000  -0.0000000  -0.0000000  -0.0000000  -0.0000000
 NQMom=    0.0000000   0.0000000   0.0000000   0.0000000   0.0000000   0.0000000   0.0000000   0.0000000
 NMagM=    0.0000000   2.7928460   2.6288670   2.6288670   0.0000000   2.7928460   2.7928460   2.7928460
 AtZNuc=   6.0000000   1.0000000   9.0000000   9.0000000   6.0000000   1.0000000   1.0000000   1.0000000
 Leave Link  101 at Tue Mar 31 17:52:45 2026, MaxMem=   536870912 cpu:               0.5 elap:               0.1
 (Enter /Users/asuyarger/Applications/G16/g16/l103.exe)

 GradGradGradGradGradGradGradGradGradGradGradGradGradGradGradGradGradGrad
 Berny optimization.
 Initialization pass.
                           ----------------------------
                           !    Initial Parameters    !
                           ! (Angstroms and Degrees)  !
 --------------------------                            --------------------------
 ! Name  Definition              Value          Derivative Info.                !
 --------------------------------------------------------------------------------
 ! R1    R(1,2)                  1.07           estimate D2E/DX2                !
 ! R2    R(1,3)                  1.35           estimate D2E/DX2                !
 ! R3    R(1,4)                  1.35           estimate D2E/DX2                !
 ! R4    R(1,5)                  1.54           estimate D2E/DX2                !
 ! R5    R(5,6)                  1.07           estimate D2E/DX2                !
 ! R6    R(5,7)                  1.07           estimate D2E/DX2                !
 ! R7    R(5,8)                  1.07           estimate D2E/DX2                !
 ! A1    A(2,1,3)              109.4712         estimate D2E/DX2                !
 ! A2    A(2,1,4)              109.4712         estimate D2E/DX2                !
 ! A3    A(2,1,5)              109.4712         estimate D2E/DX2                !
 ! A4    A(3,1,4)              109.4712         estimate D2E/DX2                !
 ! A5    A(3,1,5)              109.4712         estimate D2E/DX2                !
 ! A6    A(4,1,5)              109.4712         estimate D2E/DX2                !
 ! A7    A(1,5,6)              109.4712         estimate D2E/DX2                !
 ! A8    A(1,5,7)              109.4712         estimate D2E/DX2                !
 ! A9    A(1,5,8)              109.4712         estimate D2E/DX2                !
 ! A10   A(6,5,7)              109.4712         estimate D2E/DX2                !
 ! A11   A(6,5,8)              109.4712         estimate D2E/DX2                !
 ! A12   A(7,5,8)              109.4712         estimate D2E/DX2                !
 ! D1    D(2,1,5,6)            -60.0            estimate D2E/DX2                !
 ! D2    D(2,1,5,7)             60.0            estimate D2E/DX2                !
 ! D3    D(2,1,5,8)            180.0            estimate D2E/DX2                !
 ! D4    D(3,1,5,6)            180.0            estimate D2E/DX2                !
 ! D5    D(3,1,5,7)            -60.0            estimate D2E/DX2                !
 ! D6    D(3,1,5,8)             60.0            estimate D2E/DX2                !
 ! D7    D(4,1,5,6)             60.0            estimate D2E/DX2                !
 ! D8    D(4,1,5,7)            180.0            estimate D2E/DX2                !
 ! D9    D(4,1,5,8)            -60.0            estimate D2E/DX2                !
 --------------------------------------------------------------------------------
 Trust Radius=3.00D-01 FncErr=1.00D-07 GrdErr=1.00D-06 EigMax=2.50D+02 EigMin=1.00D-04
 Number of steps in this run=     38 maximum allowed number of steps=    100.
 GradGradGradGradGradGradGradGradGradGradGradGradGradGradGradGradGradGrad

 Leave Link  103 at Tue Mar 31 17:52:45 2026, MaxMem=   536870912 cpu:               0.0 elap:               0.0
 (Enter /Users/asuyarger/Applications/G16/g16/l202.exe)
                          Input orientation:                          
 ---------------------------------------------------------------------
 Center     Atomic      Atomic             Coordinates (Angstroms)
 Number     Number       Type             X           Y           Z
 ---------------------------------------------------------------------
      1          6           0        0.743590    0.097436    0.000000
      2          1           0        1.100263    0.601835   -0.873651
      3          9           0        1.193597    0.733826    1.102271
      4          9           0       -0.606410    0.097453   -0.000000
      5          6           0        1.256905   -1.354496   -0.000000
      6          1           0        0.900233   -1.858895   -0.873652
      7          1           0        2.326905   -1.354510    0.000000
      8          1           0        0.900232   -1.858895    0.873651
 ---------------------------------------------------------------------
                    Distance matrix (angstroms):
                    1          2          3          4          5
     1  C    0.000000
     2  H    1.070000   0.000000
     3  F    1.350000   1.982524   0.000000
     4  F    1.350000   1.982524   2.204541   0.000000
     5  C    1.540000   2.148263   2.362224   2.362224   0.000000
     6  H    2.148263   2.468846   3.273001   2.619262   1.070000
     7  H    2.148263   2.468846   2.619262   3.273001   1.070000
     8  H    2.148263   3.024610   2.619262   2.619262   1.070000
                    6          7          8
     6  H    0.000000
     7  H    1.747303   0.000000
     8  H    1.747303   1.747303   0.000000
 Stoichiometry    C2H4F2
 Framework group  CS[SG(C2H2),X(H2F2)]
 Deg. of freedom    11
 Full point group                 CS      NOp   2
 Largest Abelian subgroup         CS      NOp   2
 Largest concise Abelian subgroup CS      NOp   2
                         Standard orientation:                         
 ---------------------------------------------------------------------
 Center     Atomic      Atomic             Coordinates (Angstroms)
 Number     Number       Type             X           Y           Z
 ---------------------------------------------------------------------
      1          6           0        0.332842    0.140941    0.000000
      2          1           0        1.206494    0.758706    0.000000
      3          9           0        0.332842   -0.638481   -1.102270
      4          9           0        0.332842   -0.638481    1.102270
      5          6           0       -0.924562    1.030061    0.000000
      6          1           0       -0.924562    1.647826    0.873651
      7          1           0       -0.924562    1.647826   -0.873651
      8          1           0       -1.798214    0.412296    0.000000
 ---------------------------------------------------------------------
 Rotational constants (GHZ):           9.4549941           8.9776407           5.1437408
 Leave Link  202 at Tue Mar 31 17:52:45 2026, MaxMem=   536870912 cpu:               0.0 elap:               0.0
 (Enter /Users/asuyarger/Applications/G16/g16/l301.exe)
 Standard basis: 6-31+G(d) (6D, 7F)
 Ernie: Thresh=  0.10000D-02 Tol=  0.10000D-05 Strict=F.
 There are    53 symmetry adapted cartesian basis functions of A'  symmetry.
 There are    31 symmetry adapted cartesian basis functions of A"  symmetry.
 There are    53 symmetry adapted basis functions of A'  symmetry.
 There are    31 symmetry adapted basis functions of A"  symmetry.
    84 basis functions,   144 primitive gaussians,    84 cartesian basis functions
    17 alpha electrons       17 beta electrons
       nuclear repulsion energy       132.6230194170 Hartrees.
 IExCor= 4639 DFT=T Ex+Corr=wB97XD ExCW=0 ScaHFX=  1.000000
 ScaDFX=  1.000000  1.000000  1.000000  1.000000 ScalE2=  1.000000  1.000000
 IRadAn=      5 IRanWt=     -1 IRanGd=            0 ICorTp=0 IEmpDi=121
 HFx  wShort=  0.000000 wLong=  0.200000 cFull=  0.222036 cShort=  0.000000 cLong=  0.777964
 DFx  wShort=  0.000000 wLong=  0.200000 cFull=  0.000000 cShort=  0.000000 cLong=  1.000000
 NAtoms=    8 NActive=    8 NUniq=    6 SFac= 1.78D+00 NAtFMM=   60 NAOKFM=F Big=F
 Integral buffers will be    131072 words long.
 Raffenetti 2 integral format.
 Two-electron integral symmetry is turned on.
 R6Disp:  Grimme-D2 Dispersion energy=       -0.0020301991 Hartrees.
 Nuclear repulsion after empirical dispersion term =      132.6209892179 Hartrees.
 Leave Link  301 at Tue Mar 31 17:52:45 2026, MaxMem=   536870912 cpu:               0.1 elap:               0.0
 (Enter /Users/asuyarger/Applications/G16/g16/l302.exe)
 NPDir=0 NMtPBC=     1 NCelOv=     1 NCel=       1 NClECP=     1 NCelD=      1
         NCelK=      1 NCelE2=     1 NClLst=     1 CellRange=     0.0.
 One-electron integrals computed using PRISM.
 One-electron integral symmetry used in STVInt
 NBasis=    84 RedAO= T EigKep=  2.83D-04  NBF=    53    31
 NBsUse=    84 1.00D-06 EigRej= -1.00D+00 NBFU=    53    31
 Precomputing XC quadrature grid using
 IXCGrd= 4 IRadAn=           5 IRanWt=          -1 IRanGd=           0 AccXCQ= 0.00D+00.
 Generated NRdTot=       0 NPtTot=           0 NUsed=           0 NTot=          32
 NSgBfM=    84    84    84    84    84 MxSgAt=     8 MxSgA2=     8.
 Leave Link  302 at Tue Mar 31 17:52:45 2026, MaxMem=   536870912 cpu:               0.4 elap:               0.1
 (Enter /Users/asuyarger/Applications/G16/g16/l303.exe)
 DipDrv:  MaxL=1.
 Leave Link  303 at Tue Mar 31 17:52:45 2026, MaxMem=   536870912 cpu:               0.1 elap:               0.0
 (Enter /Users/asuyarger/Applications/G16/g16/l401.exe)
 ExpMin= 4.38D-02 ExpMax= 7.00D+03 ExpMxC= 1.05D+03 IAcc=3 IRadAn=         5 AccDes= 0.00D+00
 Harris functional with IExCor= 4639 and IRadAn=       5 diagonalized for initial guess.
 HarFok:  IExCor= 4639 AccDes= 0.00D+00 IRadAn=         5 IDoV= 1 UseB2=F ITyADJ=14
 ICtDFT=  3500011 ScaDFX=  1.000000  1.000000  1.000000  1.000000
 FoFCou: FMM=F IPFlag=           0 FMFlag=      100000 FMFlg1=           0
         NFxFlg=           0 DoJE=T BraDBF=F KetDBF=T FulRan=T
         wScrn=  0.000000 ICntrl=       500 IOpCl=  0 I1Cent=   200000004 NGrid=           0
         NMat0=    1 NMatS0=      1 NMatT0=    0 NMatD0=    1 NMtDS0=    0 NMtDT0=    0
 Petite list used in FoFCou.
 Harris En= -268.374440512894    
 JPrj=0 DoOrth=F DoCkMO=F.
 Initial guess orbital symmetries:
       Occupied  (A') (A") (A') (A') (A') (A") (A') (A') (A') (A")
                 (A') (A') (A") (A') (A") (A") (A')
       Virtual   (A') (A') (A') (A") (A") (A') (A') (A') (A') (A")
                 (A') (A") (A") (A') (A') (A') (A') (A") (A') (A")
                 (A') (A') (A") (A') (A') (A") (A') (A') (A") (A")
                 (A') (A') (A') (A') (A') (A") (A') (A") (A") (A')
                 (A') (A') (A") (A') (A") (A') (A") (A') (A") (A")
                 (A') (A") (A') (A") (A') (A') (A") (A') (A") (A')
                 (A') (A") (A') (A') (A') (A") (A')
 The electronic state of the initial guess is 1-A'.
 Leave Link  401 at Tue Mar 31 17:52:45 2026, MaxMem=   536870912 cpu:               0.8 elap:               0.2
 (Enter /Users/asuyarger/Applications/G16/g16/l502.exe)
 Keep R1 ints in memory in symmetry-blocked form, NReq=19173689.
 FoFCou: FMM=F IPFlag=           0 FMFlag=           0 FMFlg1=           0
         NFxFlg=           0 DoJE=F BraDBF=F KetDBF=F FulRan=T
         wScrn=  0.000000 ICntrl=       600 IOpCl=  0 I1Cent=           0 NGrid=           0
         NMat0=    1 NMatS0=   3570 NMatT0=    0 NMatD0=    1 NMtDS0=    0 NMtDT0=    0
 Petite list used in FoFCou.
 Closed shell SCF:
 Using DIIS extrapolation, IDIIS=  1040.
 NGot=   536870912 LenX=   533638906 LenY=   533631409
 Requested convergence on RMS density matrix=1.00D-08 within 128 cycles.
 Requested convergence on MAX density matrix=1.00D-06.
 Requested convergence on             energy=1.00D-06.
 No special actions if energy rises.

 Cycle   1  Pass 1  IDiag  1:
 E= -278.026224263413    
 DIIS: error= 6.53D-02 at cycle   1 NSaved=   1.
 NSaved= 1 IEnMin= 1 EnMin= -278.026224263413     IErMin= 1 ErrMin= 6.53D-02
 ErrMax= 6.53D-02  0.00D+00 EMaxC= 1.00D-01 BMatC= 4.48D-01 BMatP= 4.48D-01
 IDIUse=3 WtCom= 3.47D-01 WtEn= 6.53D-01
 Coeff-Com:  0.100D+01
 Coeff-En:   0.100D+01
 Coeff:      0.100D+01
 Gap=     0.658 Goal=   None    Shift=    0.000
 GapD=    0.658 DampG=2.000 DampE=0.500 DampFc=1.0000 IDamp=-1.
 RMSDP=1.02D-02 MaxDP=1.37D-01              OVMax= 1.46D-01

 Cycle   2  Pass 1  IDiag  1:
 E= -278.059996796430     Delta-E=       -0.033772533018 Rises=F Damp=F
 DIIS: error= 5.90D-02 at cycle   2 NSaved=   2.
 NSaved= 2 IEnMin= 2 EnMin= -278.059996796430     IErMin= 2 ErrMin= 5.90D-02
 ErrMax= 5.90D-02  0.00D+00 EMaxC= 1.00D-01 BMatC= 3.05D-01 BMatP= 4.48D-01
 IDIUse=3 WtCom= 4.10D-01 WtEn= 5.90D-01
 Coeff-Com:  0.447D+00 0.553D+00
 Coeff-En:   0.454D+00 0.546D+00
 Coeff:      0.451D+00 0.549D+00
 Gap=     0.619 Goal=   None    Shift=    0.000
 RMSDP=3.85D-03 MaxDP=7.95D-02 DE=-3.38D-02 OVMax= 8.15D-02

 Cycle   3  Pass 1  IDiag  1:
 E= -278.237443359709     Delta-E=       -0.177446563278 Rises=F Damp=F
 DIIS: error= 7.85D-03 at cycle   3 NSaved=   3.
 NSaved= 3 IEnMin= 3 EnMin= -278.237443359709     IErMin= 3 ErrMin= 7.85D-03
 ErrMax= 7.85D-03  0.00D+00 EMaxC= 1.00D-01 BMatC= 5.41D-03 BMatP= 3.05D-01
 IDIUse=3 WtCom= 9.21D-01 WtEn= 7.85D-02
 Coeff-Com:  0.380D-01 0.128D+00 0.834D+00
 Coeff-En:   0.000D+00 0.000D+00 0.100D+01
 Coeff:      0.351D-01 0.118D+00 0.847D+00
 Gap=     0.498 Goal=   None    Shift=    0.000
 RMSDP=1.01D-03 MaxDP=1.42D-02 DE=-1.77D-01 OVMax= 1.92D-02

 Cycle   4  Pass 1  IDiag  1:
 E= -278.240422597088     Delta-E=       -0.002979237380 Rises=F Damp=F
 DIIS: error= 4.13D-03 at cycle   4 NSaved=   4.
 NSaved= 4 IEnMin= 4 EnMin= -278.240422597088     IErMin= 4 ErrMin= 4.13D-03
 ErrMax= 4.13D-03  0.00D+00 EMaxC= 1.00D-01 BMatC= 9.70D-04 BMatP= 5.41D-03
 IDIUse=3 WtCom= 9.59D-01 WtEn= 4.13D-02
 Coeff-Com: -0.503D-02 0.172D-01 0.362D+00 0.626D+00
 Coeff-En:   0.000D+00 0.000D+00 0.767D-01 0.923D+00
 Coeff:     -0.482D-02 0.165D-01 0.350D+00 0.639D+00
 Gap=     0.501 Goal=   None    Shift=    0.000
 RMSDP=3.23D-04 MaxDP=6.55D-03 DE=-2.98D-03 OVMax= 5.97D-03

 Cycle   5  Pass 1  IDiag  1:
 E= -278.241147841261     Delta-E=       -0.000725244173 Rises=F Damp=F
 DIIS: error= 2.19D-04 at cycle   5 NSaved=   5.
 NSaved= 5 IEnMin= 5 EnMin= -278.241147841261     IErMin= 5 ErrMin= 2.19D-04
 ErrMax= 2.19D-04  0.00D+00 EMaxC= 1.00D-01 BMatC= 6.04D-06 BMatP= 9.70D-04
 IDIUse=3 WtCom= 9.98D-01 WtEn= 2.19D-03
 Coeff-Com: -0.131D-02-0.583D-02-0.180D-01 0.292D-01 0.996D+00
 Coeff-En:   0.000D+00 0.000D+00 0.000D+00 0.000D+00 0.100D+01
 Coeff:     -0.131D-02-0.582D-02-0.180D-01 0.292D-01 0.996D+00
 Gap=     0.501 Goal=   None    Shift=    0.000
 RMSDP=1.20D-04 MaxDP=2.11D-03 DE=-7.25D-04 OVMax= 9.92D-04

 Cycle   6  Pass 1  IDiag  1:
 E= -278.241155601230     Delta-E=       -0.000007759969 Rises=F Damp=F
 DIIS: error= 7.99D-05 at cycle   6 NSaved=   6.
 NSaved= 6 IEnMin= 6 EnMin= -278.241155601230     IErMin= 6 ErrMin= 7.99D-05
 ErrMax= 7.99D-05  0.00D+00 EMaxC= 1.00D-01 BMatC= 7.59D-07 BMatP= 6.04D-06
 IDIUse=1 WtCom= 1.00D+00 WtEn= 0.00D+00
 Coeff-Com: -0.467D-06-0.326D-02-0.300D-01-0.318D-01 0.329D+00 0.736D+00
 Coeff:     -0.467D-06-0.326D-02-0.300D-01-0.318D-01 0.329D+00 0.736D+00
 Gap=     0.501 Goal=   None    Shift=    0.000
 RMSDP=2.39D-05 MaxDP=3.80D-04 DE=-7.76D-06 OVMax= 2.66D-04

 Cycle   7  Pass 1  IDiag  1:
 E= -278.241156432144     Delta-E=       -0.000000830914 Rises=F Damp=F
 DIIS: error= 1.14D-05 at cycle   7 NSaved=   7.
 NSaved= 7 IEnMin= 7 EnMin= -278.241156432144     IErMin= 7 ErrMin= 1.14D-05
 ErrMax= 1.14D-05  0.00D+00 EMaxC= 1.00D-01 BMatC= 1.68D-08 BMatP= 7.59D-07
 IDIUse=1 WtCom= 1.00D+00 WtEn= 0.00D+00
 Coeff-Com:  0.459D-04 0.986D-04-0.249D-03-0.296D-02-0.458D-01 0.501D-01
 Coeff-Com:  0.999D+00
 Coeff:      0.459D-04 0.986D-04-0.249D-03-0.296D-02-0.458D-01 0.501D-01
 Coeff:      0.999D+00
 Gap=     0.501 Goal=   None    Shift=    0.000
 RMSDP=5.70D-06 MaxDP=9.34D-05 DE=-8.31D-07 OVMax= 6.74D-05

 Cycle   8  Pass 1  IDiag  1:
 E= -278.241156459204     Delta-E=       -0.000000027060 Rises=F Damp=F
 DIIS: error= 2.03D-06 at cycle   8 NSaved=   8.
 NSaved= 8 IEnMin= 8 EnMin= -278.241156459204     IErMin= 8 ErrMin= 2.03D-06
 ErrMax= 2.03D-06  0.00D+00 EMaxC= 1.00D-01 BMatC= 3.47D-10 BMatP= 1.68D-08
 IDIUse=1 WtCom= 1.00D+00 WtEn= 0.00D+00
 Coeff-Com:  0.485D-05 0.146D-03 0.124D-02 0.115D-02-0.182D-01-0.223D-01
 Coeff-Com:  0.902D-01 0.948D+00
 Coeff:      0.485D-05 0.146D-03 0.124D-02 0.115D-02-0.182D-01-0.223D-01
 Coeff:      0.902D-01 0.948D+00
 Gap=     0.501 Goal=   None    Shift=    0.000
 RMSDP=5.97D-07 MaxDP=5.77D-06 DE=-2.71D-08 OVMax= 9.88D-06

 Cycle   9  Pass 1  IDiag  1:
 E= -278.241156459817     Delta-E=       -0.000000000613 Rises=F Damp=F
 DIIS: error= 2.43D-07 at cycle   9 NSaved=   9.
 NSaved= 9 IEnMin= 9 EnMin= -278.241156459817     IErMin= 9 ErrMin= 2.43D-07
 ErrMax= 2.43D-07  0.00D+00 EMaxC= 1.00D-01 BMatC= 1.22D-11 BMatP= 3.47D-10
 IDIUse=1 WtCom= 1.00D+00 WtEn= 0.00D+00
 Coeff-Com: -0.934D-06-0.289D-05-0.251D-04 0.640D-04 0.173D-02-0.488D-03
 Coeff-Com: -0.266D-01-0.232D-01 0.105D+01
 Coeff:     -0.934D-06-0.289D-05-0.251D-04 0.640D-04 0.173D-02-0.488D-03
 Coeff:     -0.266D-01-0.232D-01 0.105D+01
 Gap=     0.501 Goal=   None    Shift=    0.000
 RMSDP=2.38D-07 MaxDP=3.12D-06 DE=-6.13D-10 OVMax= 1.75D-06

 Cycle  10  Pass 1  IDiag  1:
 E= -278.241156459837     Delta-E=       -0.000000000020 Rises=F Damp=F
 DIIS: error= 4.83D-08 at cycle  10 NSaved=  10.
 NSaved=10 IEnMin=10 EnMin= -278.241156459837     IErMin=10 ErrMin= 4.83D-08
 ErrMax= 4.83D-08  0.00D+00 EMaxC= 1.00D-01 BMatC= 2.83D-13 BMatP= 1.22D-11
 IDIUse=1 WtCom= 1.00D+00 WtEn= 0.00D+00
 Coeff-Com: -0.106D-06-0.405D-05-0.380D-04-0.383D-04 0.564D-03 0.717D-03
 Coeff-Com: -0.340D-02-0.291D-01 0.679D-02 0.102D+01
 Coeff:     -0.106D-06-0.405D-05-0.380D-04-0.383D-04 0.564D-03 0.717D-03
 Coeff:     -0.340D-02-0.291D-01 0.679D-02 0.102D+01
 Gap=     0.501 Goal=   None    Shift=    0.000
 RMSDP=3.42D-08 MaxDP=4.86D-07 DE=-1.97D-11 OVMax= 4.39D-07

 Cycle  11  Pass 1  IDiag  1:
 E= -278.241156459840     Delta-E=       -0.000000000003 Rises=F Damp=F
 DIIS: error= 8.27D-09 at cycle  11 NSaved=  11.
 NSaved=11 IEnMin=11 EnMin= -278.241156459840     IErMin=11 ErrMin= 8.27D-09
 ErrMax= 8.27D-09  0.00D+00 EMaxC= 1.00D-01 BMatC= 1.00D-14 BMatP= 2.83D-13
 IDIUse=1 WtCom= 1.00D+00 WtEn= 0.00D+00
 Coeff-Com:  0.742D-08-0.606D-07-0.103D-06-0.277D-05-0.272D-04 0.160D-04
 Coeff-Com:  0.382D-03-0.595D-04-0.260D-01 0.308D-01 0.995D+00
 Coeff:      0.742D-08-0.606D-07-0.103D-06-0.277D-05-0.272D-04 0.160D-04
 Coeff:      0.382D-03-0.595D-04-0.260D-01 0.308D-01 0.995D+00
 Gap=     0.501 Goal=   None    Shift=    0.000
 RMSDP=4.16D-09 MaxDP=6.95D-08 DE=-2.73D-12 OVMax= 8.21D-08

 SCF Done:  E(RwB97XD) =  -278.241156460     A.U. after   11 cycles
            NFock= 11  Conv=0.42D-08     -V/T= 2.0074
 KE= 2.762048271066D+02 PE=-9.228118658262D+02 EE= 2.357448930419D+02
 Leave Link  502 at Tue Mar 31 17:52:47 2026, MaxMem=   536870912 cpu:               6.6 elap:               1.7
 (Enter /Users/asuyarger/Applications/G16/g16/l601.exe)
 Copying SCF densities to generalized density rwf, IOpCl= 0 IROHF=0.

 **********************************************************************

            Population analysis using the SCF density.

 **********************************************************************

 Orbital symmetries:
       Occupied  (A') (A") (A') (A') (A') (A") (A') (A') (A') (A")
                 (A') (A") (A') (A") (A') (A") (A')
       Virtual   (A') (A') (A") (A') (A") (A') (A') (A') (A') (A")
                 (A") (A') (A') (A') (A") (A') (A') (A") (A') (A")
                 (A') (A') (A") (A') (A") (A') (A') (A') (A") (A')
                 (A") (A') (A') (A') (A') (A") (A') (A") (A") (A')
                 (A') (A") (A') (A') (A") (A') (A") (A") (A') (A")
                 (A') (A") (A') (A') (A") (A') (A") (A') (A") (A')
                 (A') (A") (A') (A') (A') (A") (A')
 The electronic state is 1-A'.
 Alpha  occ. eigenvalues --  -24.85120 -24.85119 -10.46424 -10.30398  -1.36983
 Alpha  occ. eigenvalues --   -1.31186  -0.87666  -0.75764  -0.65777  -0.64802
 Alpha  occ. eigenvalues --   -0.60333  -0.53424  -0.51555  -0.50945  -0.48981
 Alpha  occ. eigenvalues --   -0.48649  -0.42262
 Alpha virt. eigenvalues --    0.07803   0.08898   0.10861   0.10878   0.13088
 Alpha virt. eigenvalues --    0.13542   0.13833   0.19985   0.23144   0.23488
 Alpha virt. eigenvalues --    0.28761   0.29471   0.31080   0.31604   0.33204
 Alpha virt. eigenvalues --    0.36440   0.37135   0.39559   0.40335   0.42757
 Alpha virt. eigenvalues --    0.44260   0.46110   0.48522   0.70039   0.73541
 Alpha virt. eigenvalues --    0.73655   0.79488   0.84882   0.85844   1.04322
 Alpha virt. eigenvalues --    1.05456   1.06738   1.20726   1.24105   1.36219
 Alpha virt. eigenvalues --    1.39939   1.50502   1.63960   1.67243   1.67891
 Alpha virt. eigenvalues --    1.71569   1.72351   1.73318   1.84982   1.86802
 Alpha virt. eigenvalues --    1.88871   1.92095   1.95500   1.96303   2.06609
 Alpha virt. eigenvalues --    2.10328   2.11726   2.23352   2.27805   2.29700
 Alpha virt. eigenvalues --    2.35934   2.36754   2.51285   2.69214   2.72402
 Alpha virt. eigenvalues --    2.84424   3.18247   3.24060   4.33323   4.61004
 Alpha virt. eigenvalues --    5.34229   5.62727
          Condensed to atoms (all electrons):
               1          2          3          4          5          6
     1  C    4.568975   0.427163   0.165353   0.165353   0.317758  -0.036159
     2  H    0.427163   0.568710  -0.058772  -0.058772  -0.065540  -0.001207
     3  F    0.165353  -0.058772   9.308468  -0.037864  -0.082385   0.007427
     4  F    0.165353  -0.058772  -0.037864   9.308468  -0.082385  -0.004394
     5  C    0.317758  -0.065540  -0.082385  -0.082385   5.519709   0.383772
     6  H   -0.036159  -0.001207   0.007427  -0.004394   0.383772   0.466153
     7  H   -0.036159  -0.001207  -0.004394   0.007427   0.383772  -0.025422
     8  H   -0.023063   0.003774  -0.004035  -0.004035   0.382302  -0.022494
               7          8
     1  C   -0.036159  -0.023063
     2  H   -0.001207   0.003774
     3  F   -0.004394  -0.004035
     4  F    0.007427  -0.004035
     5  C    0.383772   0.382302
     6  H   -0.025422  -0.022494
     7  H    0.466153  -0.022494
     8  H   -0.022494   0.446724
 Mulliken charges:
               1
     1  C    0.450779
     2  H    0.185852
     3  F   -0.293798
     4  F   -0.293798
     5  C   -0.757002
     6  H    0.232324
     7  H    0.232324
     8  H    0.243320
 Sum of Mulliken charges =  -0.00000
 Mulliken charges with hydrogens summed into heavy atoms:
               1
     1  C    0.636631
     3  F   -0.293798
     4  F   -0.293798
     5  C   -0.049034
 Electronic spatial extent (au):  <R**2>=            257.7351
 Charge=              0.0000 electrons
 Dipole moment (field-independent basis, Debye):
    X=             -0.2851    Y=              2.2126    Z=              0.0000  Tot=              2.2309
 Quadrupole moment (field-independent basis, Debye-Ang):
   XX=            -21.6326   YY=            -22.9496   ZZ=            -25.4996
   XY=              0.6304   XZ=             -0.0000   YZ=              0.0000
 Traceless Quadrupole moment (field-independent basis, Debye-Ang):
   XX=              1.7280   YY=              0.4110   ZZ=             -2.1389
   XY=              0.6304   XZ=             -0.0000   YZ=              0.0000
 Octapole moment (field-independent basis, Debye-Ang**2):
  XXX=              4.8100  YYY=             -6.7656  ZZZ=             -0.0000  XYY=              1.2117
  XXY=             -2.2864  XXZ=              0.0000  XZZ=              0.4302  YZZ=             -0.0547
  YYZ=              0.0000  XYZ=             -0.0000
 Hexadecapole moment (field-independent basis, Debye-Ang**3):
 XXXX=            -80.5925 YYYY=           -104.0742 ZZZZ=           -101.2234 XXXY=             29.0156
 XXXZ=              0.0000 YYYX=             26.6729 YYYZ=             -0.0000 ZZZX=              0.0000
 ZZZY=             -0.0000 XXYY=            -31.5418 XXZZ=            -31.3639 YYZZ=            -32.1351
 XXYZ=             -0.0000 YYXZ=              0.0000 ZZXY=              8.6895
 N-N= 1.326209892179D+02 E-N=-9.228118659183D+02  KE= 2.762048271066D+02
 Symmetry A'   KE= 1.732287752937D+02
 Symmetry A"   KE= 1.029760518128D+02
 No NMR shielding tensors so no spin-rotation constants.
 Leave Link  601 at Tue Mar 31 17:52:47 2026, MaxMem=   536870912 cpu:               0.3 elap:               0.1
 (Enter /Users/asuyarger/Applications/G16/g16/l701.exe)
 ... and contract with generalized density number  0.
 Compute integral first derivatives.
 R6Disp: Adding Grimme-D2 dispersion energy 1st derivatives to the gradient.
 Leave Link  701 at Tue Mar 31 17:52:47 2026, MaxMem=   536870912 cpu:               0.3 elap:               0.1
 (Enter /Users/asuyarger/Applications/G16/g16/l702.exe)
 L702 exits ... SP integral derivatives will be done elsewhere.
 Leave Link  702 at Tue Mar 31 17:52:47 2026, MaxMem=   536870912 cpu:               0.1 elap:               0.0
 (Enter /Users/asuyarger/Applications/G16/g16/l703.exe)
 Integral derivatives from FoFJK, PRISM(SPDF).
 Compute integral first derivatives, UseDBF=F ICtDFT=           0.
 Calling FoFJK, ICntrl=      2127 FMM=F ISym2X=1 I1Cent= 0 IOpClX= 0 NMat=1 NMatS=1 NMatT=0.
 FoFJK:  IHMeth= 1 ICntrl=    2127 DoSepK=T KAlg= 0 I1Cent=           0 FoldK=F
 IRaf=         1 NMat=       1 IRICut=       1 DoRegI=T DoRafI=F ISym2E= 1 IDoP0=0 IntGTp=1.
 FoFCou: FMM=F IPFlag=           0 FMFlag=      100000 FMFlg1=         800
         NFxFlg=           0 DoJE=F BraDBF=F KetDBF=F FulRan=T
         wScrn=  0.000000 ICntrl=      2527 IOpCl=  0 I1Cent=           0 NGrid=           0
         NMat0=    1 NMatS0=      1 NMatT0=    0 NMatD0=    1 NMtDS0=    0 NMtDT0=    0
 Petite list used in FoFCou.
 Leave Link  703 at Tue Mar 31 17:52:48 2026, MaxMem=   536870912 cpu:               2.0 elap:               0.5
 (Enter /Users/asuyarger/Applications/G16/g16/l716.exe)
 Dipole        =-1.12181761D-01 8.70513851D-01 1.11022302D-15
 ***** Axes restored to original set *****
 -------------------------------------------------------------------
 Center     Atomic                   Forces (Hartrees/Bohr)
 Number     Number              X              Y              Z
 -------------------------------------------------------------------
      1        6           0.017111583   -0.042829084   -0.003216702
      2        1           0.001240940    0.016242840   -0.011403923
      3        9          -0.000601978    0.009642825    0.009381282
      4        9          -0.012004686    0.005611518    0.002398602
      5        6          -0.011231855    0.026823085    0.002855847
      6        1          -0.005501026   -0.007610119   -0.013558295
      7        1           0.016491424    0.000165080   -0.000090770
      8        1          -0.005504402   -0.008046145    0.013633958
 -------------------------------------------------------------------
 Cartesian Forces:  Max     0.042829084 RMS     0.013805690
 Leave Link  716 at Tue Mar 31 17:52:48 2026, MaxMem=   536870912 cpu:               0.1 elap:               0.0
 (Enter /Users/asuyarger/Applications/G16/g16/l103.exe)

 GradGradGradGradGradGradGradGradGradGradGradGradGradGradGradGradGradGrad
 Berny optimization.
 FormGI is forming the generalized inverse of G from B-inverse, IUseBI=4.
 Internal  Forces:  Max     0.017381655 RMS     0.008450741
 Search for a local minimum.
 Step number   1 out of a maximum of   38
 All quantities printed in internal units (Hartrees-Bohrs-Radians)
 RMS Force = .84507D-02 SwitMx=.10000D-02 MixMth= 1
 Mixed Optimization -- RFO/linear search
 Second derivative matrix not updated -- first step.
 ITU=  0
     Eigenvalues ---    0.00237   0.05720   0.05720   0.06082   0.07530
     Eigenvalues ---    0.16000   0.16000   0.16000   0.16000   0.23463
     Eigenvalues ---    0.24168   0.28519   0.37230   0.37230   0.37230
     Eigenvalues ---    0.37230   0.55021   0.55021
 RFO step:  Lambda=-6.39945843D-03 EMin= 2.36824132D-03
 Linear search not attempted -- first point.
 Iteration  1 RMS(Cart)=  0.02771743 RMS(Int)=  0.00106571
 Iteration  2 RMS(Cart)=  0.00085206 RMS(Int)=  0.00054323
 Iteration  3 RMS(Cart)=  0.00000079 RMS(Int)=  0.00054323
 ITry= 1 IFail=0 DXMaxC= 9.46D-02 DCOld= 1.00D+10 DXMaxT= 3.00D-01 DXLimC= 3.00D+00 Rises=F
 ClnCor:  largest displacement from symmetrization is 5.37D-13 for atom     4.
 Variable       Old X    -DE/DX   Delta X   Delta X   Delta X     New X
                                 (Linear)    (Quad)   (Total)
    R1        2.02201   0.01738   0.00000   0.04590   0.04590   2.06791
    R2        2.55113   0.01200   0.00000   0.02157   0.02157   2.57270
    R3        2.55113   0.01200   0.00000   0.02157   0.02157   2.57270
    R4        2.91018  -0.01260   0.00000  -0.04321  -0.04321   2.86697
    R5        2.02201   0.01649   0.00000   0.04355   0.04355   2.06555
    R6        2.02201   0.01649   0.00000   0.04355   0.04355   2.06555
    R7        2.02201   0.01676   0.00000   0.04426   0.04426   2.06626
    A1        1.91063  -0.00766   0.00000  -0.03606  -0.03746   1.87318
    A2        1.91063  -0.00766   0.00000  -0.03606  -0.03746   1.87318
    A3        1.91063   0.01187   0.00000   0.08132   0.07980   1.99043
    A4        1.91063  -0.00876   0.00000  -0.04873  -0.04859   1.86205
    A5        1.91063   0.00611   0.00000   0.01976   0.01903   1.92967
    A6        1.91063   0.00611   0.00000   0.01976   0.01903   1.92967
    A7        1.91063  -0.00026   0.00000  -0.00186  -0.00187   1.90877
    A8        1.91063  -0.00026   0.00000  -0.00186  -0.00187   1.90877
    A9        1.91063   0.00037   0.00000   0.00278   0.00278   1.91341
   A10        1.91063   0.00012   0.00000  -0.00036  -0.00036   1.91027
   A11        1.91063   0.00002   0.00000   0.00065   0.00065   1.91129
   A12        1.91063   0.00002   0.00000   0.00065   0.00065   1.91129
    D1       -1.04720   0.00009   0.00000   0.00136   0.00136  -1.04584
    D2        1.04720  -0.00009   0.00000  -0.00136  -0.00136   1.04584
    D3        3.14159   0.00000   0.00000   0.00000   0.00000  -3.14159
    D4        3.14159  -0.00154   0.00000  -0.01638  -0.01678   3.12482
    D5       -1.04720  -0.00171   0.00000  -0.01910  -0.01950  -1.06669
    D6        1.04720  -0.00162   0.00000  -0.01774  -0.01814   1.02906
    D7        1.04720   0.00171   0.00000   0.01910   0.01950   1.06669
    D8        3.14159   0.00154   0.00000   0.01638   0.01678  -3.12482
    D9       -1.04720   0.00162   0.00000   0.01774   0.01814  -1.02906
         Item               Value     Threshold  Converged?
 Maximum Force            0.017382     0.000450     NO 
 RMS     Force            0.008451     0.000300     NO 
 Maximum Displacement     0.094555     0.001800     NO 
 RMS     Displacement     0.027704     0.001200     NO 
 Predicted change in Energy=-3.288488D-03
 Lowest energy point so far.  Saving SCF results.
 GradGradGradGradGradGradGradGradGradGradGradGradGradGradGradGradGradGrad

 Leave Link  103 at Tue Mar 31 17:52:48 2026, MaxMem=   536870912 cpu:               0.1 elap:               0.0
 (Enter /Users/asuyarger/Applications/G16/g16/l202.exe)
                          Input orientation:                          
 ---------------------------------------------------------------------
 Center     Atomic      Atomic             Coordinates (Angstroms)
 Number     Number       Type             X           Y           Z
 ---------------------------------------------------------------------
      1          6           0        0.758968    0.073935   -0.011545
      2          1           0        1.087031    0.651871   -0.880931
      3          9           0        1.181600    0.737654    1.099448
      4          9           0       -0.601910    0.107113    0.007279
      5          6           0        1.257276   -1.358966    0.001975
      6          1           0        0.893102   -1.877745   -0.888526
      7          1           0        2.350313   -1.362563    0.003827
      8          1           0        0.888935   -1.867546    0.897093
 ---------------------------------------------------------------------
                    Distance matrix (angstroms):
                    1          2          3          4          5
     1  C    0.000000
     2  H    1.094288   0.000000
     3  F    1.361413   1.984490   0.000000
     4  F    1.361413   1.984490   2.184336   0.000000
     5  C    1.517135   2.202719   2.367697   2.367697   0.000000
     6  H    2.143861   2.537050   3.297815   2.641437   1.093044
     7  H    2.143861   2.537050   2.641437   3.297815   1.093044
     8  H    2.147525   3.089996   2.629386   2.629386   1.093419
                    6          7          8
     6  H    0.000000
     7  H    1.784704   0.000000
     8  H    1.785653   1.785653   0.000000
 Stoichiometry    C2H4F2
 Framework group  CS[SG(C2H2),X(H2F2)]
 Deg. of freedom    11
 Full point group                 CS      NOp   2
 RotChk:  IX=2 Diff= 3.36D-02
 Largest Abelian subgroup         CS      NOp   2
 Largest concise Abelian subgroup CS      NOp   2
                         Standard orientation:                         
 ---------------------------------------------------------------------
 Center     Atomic      Atomic             Coordinates (Angstroms)
 Number     Number       Type             X           Y           Z
 ---------------------------------------------------------------------
      1          6           0        0.322765    0.159001   -0.000000
      2          1           0        1.271201    0.704835   -0.000000
      3          9           0        0.322765   -0.653782   -1.092168
      4          9           0        0.322765   -0.653782    1.092168
      5          6           0       -0.904065    1.051518   -0.000000
      6          1           0       -0.893100    1.682655    0.892352
      7          1           0       -0.893100    1.682655   -0.892352
      8          1           0       -1.806974    0.434818   -0.000000
 ---------------------------------------------------------------------
 Rotational constants (GHZ):           9.5608124           8.8480375           5.1508419
 Leave Link  202 at Tue Mar 31 17:52:48 2026, MaxMem=   536870912 cpu:               0.0 elap:               0.0
 (Enter /Users/asuyarger/Applications/G16/g16/l301.exe)
 Standard basis: 6-31+G(d) (6D, 7F)
 Ernie: Thresh=  0.10000D-02 Tol=  0.10000D-05 Strict=F.
 There are    53 symmetry adapted cartesian basis functions of A'  symmetry.
 There are    31 symmetry adapted cartesian basis functions of A"  symmetry.
 There are    53 symmetry adapted basis functions of A'  symmetry.
 There are    31 symmetry adapted basis functions of A"  symmetry.
    84 basis functions,   144 primitive gaussians,    84 cartesian basis functions
    17 alpha electrons       17 beta electrons
       nuclear repulsion energy       132.1882042139 Hartrees.
 IExCor= 4639 DFT=T Ex+Corr=wB97XD ExCW=0 ScaHFX=  1.000000
 ScaDFX=  1.000000  1.000000  1.000000  1.000000 ScalE2=  1.000000  1.000000
 IRadAn=      5 IRanWt=     -1 IRanGd=            0 ICorTp=0 IEmpDi=121
 HFx  wShort=  0.000000 wLong=  0.200000 cFull=  0.222036 cShort=  0.000000 cLong=  0.777964
 DFx  wShort=  0.000000 wLong=  0.200000 cFull=  0.000000 cShort=  0.000000 cLong=  1.000000
 NAtoms=    8 NActive=    8 NUniq=    6 SFac= 1.78D+00 NAtFMM=   60 NAOKFM=F Big=F
 Integral buffers will be    131072 words long.
 Raffenetti 2 integral format.
 Two-electron integral symmetry is turned on.
 R6Disp:  Grimme-D2 Dispersion energy=       -0.0020265482 Hartrees.
 Nuclear repulsion after empirical dispersion term =      132.1861776657 Hartrees.
 Leave Link  301 at Tue Mar 31 17:52:48 2026, MaxMem=   536870912 cpu:               0.1 elap:               0.0
 (Enter /Users/asuyarger/Applications/G16/g16/l302.exe)
 NPDir=0 NMtPBC=     1 NCelOv=     1 NCel=       1 NClECP=     1 NCelD=      1
         NCelK=      1 NCelE2=     1 NClLst=     1 CellRange=     0.0.
 One-electron integrals computed using PRISM.
 One-electron integral symmetry used in STVInt
 NBasis=    84 RedAO= T EigKep=  2.61D-04  NBF=    53    31
 NBsUse=    84 1.00D-06 EigRej= -1.00D+00 NBFU=    53    31
 Precomputing XC quadrature grid using
 IXCGrd= 4 IRadAn=           5 IRanWt=          -1 IRanGd=           0 AccXCQ= 0.00D+00.
 Generated NRdTot=       0 NPtTot=           0 NUsed=           0 NTot=          32
 NSgBfM=    84    84    84    84    84 MxSgAt=     8 MxSgA2=     8.
 Leave Link  302 at Tue Mar 31 17:52:48 2026, MaxMem=   536870912 cpu:               0.4 elap:               0.1
 (Enter /Users/asuyarger/Applications/G16/g16/l303.exe)
 DipDrv:  MaxL=1.
 Leave Link  303 at Tue Mar 31 17:52:48 2026, MaxMem=   536870912 cpu:               0.1 elap:               0.0
 (Enter /Users/asuyarger/Applications/G16/g16/l401.exe)
 Initial guess from the checkpoint file:  "11Difluoroethane_Opt_Freq_DFT_WB97XD_631pd_Gaussian16.chk"
 B after Tr=    -0.000000    0.000000   -0.000000
         Rot=    0.999944    0.000000    0.000000    0.010564 Ang=   1.21 deg.
 Guess basis will be translated and rotated to current coordinates.
 JPrj=2 DoOrth=T DoCkMO=T.
 Initial guess orbital symmetries:
       Occupied  (A') (A") (A') (A') (A') (A") (A') (A') (A') (A")
                 (A') (A") (A') (A") (A') (A") (A')
       Virtual   (A') (A') (A") (A') (A") (A') (A') (A') (A') (A")
                 (A") (A') (A') (A') (A") (A') (A') (A") (A') (A")
                 (A') (A') (A") (A') (A") (A') (A') (A') (A") (A')
                 (A") (A') (A') (A') (A') (A") (A') (A") (A") (A')
                 (A') (A") (A') (A') (A") (A') (A") (A") (A') (A")
                 (A') (A") (A') (A') (A") (A') (A") (A') (A") (A')
                 (A') (A") (A') (A') (A') (A") (A')
 The electronic state of the initial guess is 1-A'.
 Generating alternative initial guess.
 ExpMin= 4.38D-02 ExpMax= 7.00D+03 ExpMxC= 1.05D+03 IAcc=2 IRadAn=         4 AccDes= 0.00D+00
 Harris functional with IExCor= 4639 and IRadAn=       4 diagonalized for initial guess.
 HarFok:  IExCor= 4639 AccDes= 0.00D+00 IRadAn=         4 IDoV= 1 UseB2=F ITyADJ=14
 ICtDFT=  3500011 ScaDFX=  1.000000  1.000000  1.000000  1.000000
 FoFCou: FMM=F IPFlag=           0 FMFlag=      100000 FMFlg1=           0
         NFxFlg=           0 DoJE=T BraDBF=F KetDBF=T FulRan=T
         wScrn=  0.000000 ICntrl=       500 IOpCl=  0 I1Cent=   200000004 NGrid=           0
         NMat0=    1 NMatS0=      1 NMatT0=    0 NMatD0=    1 NMtDS0=    0 NMtDT0=    0
 Petite list used in FoFCou.
 Harris En= -268.379922648924    
 Leave Link  401 at Tue Mar 31 17:52:49 2026, MaxMem=   536870912 cpu:               0.7 elap:               0.2
 (Enter /Users/asuyarger/Applications/G16/g16/l502.exe)
 Keep R1 ints in memory in symmetry-blocked form, NReq=19173689.
 FoFCou: FMM=F IPFlag=           0 FMFlag=           0 FMFlg1=           0
         NFxFlg=           0 DoJE=F BraDBF=F KetDBF=F FulRan=T
         wScrn=  0.000000 ICntrl=       600 IOpCl=  0 I1Cent=           0 NGrid=           0
         NMat0=    1 NMatS0=   3570 NMatT0=    0 NMatD0=    1 NMtDS0=    0 NMtDT0=    0
 Petite list used in FoFCou.
 Closed shell SCF:
 Using DIIS extrapolation, IDIIS=  1040.
 NGot=   536870912 LenX=   533638906 LenY=   533631409
 Requested convergence on RMS density matrix=1.00D-08 within 128 cycles.
 Requested convergence on MAX density matrix=1.00D-06.
 Requested convergence on             energy=1.00D-06.
 No special actions if energy rises.

 Cycle   1  Pass 1  IDiag  1:
 E= -278.243105763575    
 DIIS: error= 2.13D-03 at cycle   1 NSaved=   1.
 NSaved= 1 IEnMin= 1 EnMin= -278.243105763575     IErMin= 1 ErrMin= 2.13D-03
 ErrMax= 2.13D-03  0.00D+00 EMaxC= 1.00D-01 BMatC= 9.27D-04 BMatP= 9.27D-04
 IDIUse=3 WtCom= 9.79D-01 WtEn= 2.13D-02
 Coeff-Com:  0.100D+01
 Coeff-En:   0.100D+01
 Coeff:      0.100D+01
 Gap=     0.507 Goal=   None    Shift=    0.000
 GapD=    0.507 DampG=2.000 DampE=1.000 DampFc=2.0000 IDamp=-1.
 RMSDP=5.63D-04 MaxDP=5.73D-03              OVMax= 9.15D-03

 Cycle   2  Pass 1  IDiag  1:
 E= -278.244367968305     Delta-E=       -0.001262204730 Rises=F Damp=F
 DIIS: error= 6.59D-04 at cycle   2 NSaved=   2.
 NSaved= 2 IEnMin= 2 EnMin= -278.244367968305     IErMin= 2 ErrMin= 6.59D-04
 ErrMax= 6.59D-04  0.00D+00 EMaxC= 1.00D-01 BMatC= 7.21D-05 BMatP= 9.27D-04
 IDIUse=3 WtCom= 9.93D-01 WtEn= 6.59D-03
 Coeff-Com:  0.281D-01 0.972D+00
 Coeff-En:   0.000D+00 0.100D+01
 Coeff:      0.280D-01 0.972D+00
 Gap=     0.507 Goal=   None    Shift=    0.000
 RMSDP=1.62D-04 MaxDP=2.66D-03 DE=-1.26D-03 OVMax= 2.68D-03

 Cycle   3  Pass 1  IDiag  1:
 E= -278.244438732800     Delta-E=       -0.000070764495 Rises=F Damp=F
 DIIS: error= 4.36D-04 at cycle   3 NSaved=   3.
 NSaved= 3 IEnMin= 3 EnMin= -278.244438732800     IErMin= 3 ErrMin= 4.36D-04
 ErrMax= 4.36D-04  0.00D+00 EMaxC= 1.00D-01 BMatC= 2.28D-05 BMatP= 7.21D-05
 IDIUse=3 WtCom= 9.96D-01 WtEn= 4.36D-03
 Coeff-Com: -0.602D-01 0.346D+00 0.714D+00
 Coeff-En:   0.000D+00 0.000D+00 0.100D+01
 Coeff:     -0.600D-01 0.345D+00 0.715D+00
 Gap=     0.506 Goal=   None    Shift=    0.000
 RMSDP=5.35D-05 MaxDP=1.17D-03 DE=-7.08D-05 OVMax= 1.13D-03

 Cycle   4  Pass 1  IDiag  1:
 E= -278.244460923313     Delta-E=       -0.000022190513 Rises=F Damp=F
 DIIS: error= 5.37D-05 at cycle   4 NSaved=   4.
 NSaved= 4 IEnMin= 4 EnMin= -278.244460923313     IErMin= 4 ErrMin= 5.37D-05
 ErrMax= 5.37D-05  0.00D+00 EMaxC= 1.00D-01 BMatC= 5.21D-07 BMatP= 2.28D-05
 IDIUse=1 WtCom= 1.00D+00 WtEn= 0.00D+00
 Coeff-Com: -0.773D-02-0.147D-01 0.837D-01 0.939D+00
 Coeff:     -0.773D-02-0.147D-01 0.837D-01 0.939D+00
 Gap=     0.506 Goal=   None    Shift=    0.000
 RMSDP=1.68D-05 MaxDP=1.63D-04 DE=-2.22D-05 OVMax= 2.87D-04

 Cycle   5  Pass 1  IDiag  1:
 E= -278.244461554116     Delta-E=       -0.000000630803 Rises=F Damp=F
 DIIS: error= 4.42D-05 at cycle   5 NSaved=   5.
 NSaved= 5 IEnMin= 5 EnMin= -278.244461554116     IErMin= 5 ErrMin= 4.42D-05
 ErrMax= 4.42D-05  0.00D+00 EMaxC= 1.00D-01 BMatC= 1.43D-07 BMatP= 5.21D-07
 IDIUse=1 WtCom= 1.00D+00 WtEn= 0.00D+00
 Coeff-Com: -0.201D-03-0.251D-01-0.601D-02 0.399D+00 0.632D+00
 Coeff:     -0.201D-03-0.251D-01-0.601D-02 0.399D+00 0.632D+00
 Gap=     0.506 Goal=   None    Shift=    0.000
 RMSDP=4.37D-06 MaxDP=6.27D-05 DE=-6.31D-07 OVMax= 8.96D-05

 Cycle   6  Pass 1  IDiag  1:
 E= -278.244461666920     Delta-E=       -0.000000112804 Rises=F Damp=F
 DIIS: error= 8.14D-06 at cycle   6 NSaved=   6.
 NSaved= 6 IEnMin= 6 EnMin= -278.244461666920     IErMin= 6 ErrMin= 8.14D-06
 ErrMax= 8.14D-06  0.00D+00 EMaxC= 1.00D-01 BMatC= 9.68D-09 BMatP= 1.43D-07
 IDIUse=1 WtCom= 1.00D+00 WtEn= 0.00D+00
 Coeff-Com:  0.137D-02-0.798D-02-0.169D-01-0.108D-01 0.186D+00 0.848D+00
 Coeff:      0.137D-02-0.798D-02-0.169D-01-0.108D-01 0.186D+00 0.848D+00
 Gap=     0.506 Goal=   None    Shift=    0.000
 RMSDP=2.18D-06 MaxDP=2.96D-05 DE=-1.13D-07 OVMax= 4.60D-05

 Cycle   7  Pass 1  IDiag  1:
 E= -278.244461677254     Delta-E=       -0.000000010333 Rises=F Damp=F
 DIIS: error= 1.74D-06 at cycle   7 NSaved=   7.
 NSaved= 7 IEnMin= 7 EnMin= -278.244461677254     IErMin= 7 ErrMin= 1.74D-06
 ErrMax= 1.74D-06  0.00D+00 EMaxC= 1.00D-01 BMatC= 4.57D-10 BMatP= 9.68D-09
 IDIUse=1 WtCom= 1.00D+00 WtEn= 0.00D+00
 Coeff-Com:  0.299D-03-0.400D-03-0.342D-02-0.249D-01 0.111D-01 0.222D+00
 Coeff-Com:  0.795D+00
 Coeff:      0.299D-03-0.400D-03-0.342D-02-0.249D-01 0.111D-01 0.222D+00
 Coeff:      0.795D+00
 Gap=     0.506 Goal=   None    Shift=    0.000
 RMSDP=4.72D-07 MaxDP=7.23D-06 DE=-1.03D-08 OVMax= 9.60D-06

 Cycle   8  Pass 1  IDiag  1:
 E= -278.244461677750     Delta-E=       -0.000000000497 Rises=F Damp=F
 DIIS: error= 4.14D-07 at cycle   8 NSaved=   8.
 NSaved= 8 IEnMin= 8 EnMin= -278.244461677750     IErMin= 8 ErrMin= 4.14D-07
 ErrMax= 4.14D-07  0.00D+00 EMaxC= 1.00D-01 BMatC= 2.96D-11 BMatP= 4.57D-10
 IDIUse=1 WtCom= 1.00D+00 WtEn= 0.00D+00
 Coeff-Com: -0.374D-04 0.550D-03 0.665D-03-0.438D-02-0.144D-01-0.220D-01
 Coeff-Com:  0.171D+00 0.869D+00
 Coeff:     -0.374D-04 0.550D-03 0.665D-03-0.438D-02-0.144D-01-0.220D-01
 Coeff:      0.171D+00 0.869D+00
 Gap=     0.506 Goal=   None    Shift=    0.000
 RMSDP=1.45D-07 MaxDP=2.07D-06 DE=-4.97D-10 OVMax= 3.43D-06

 Cycle   9  Pass 1  IDiag  1:
 E= -278.244461677794     Delta-E=       -0.000000000044 Rises=F Damp=F
 DIIS: error= 1.04D-07 at cycle   9 NSaved=   9.
 NSaved= 9 IEnMin= 9 EnMin= -278.244461677794     IErMin= 9 ErrMin= 1.04D-07
 ErrMax= 1.04D-07  0.00D+00 EMaxC= 1.00D-01 BMatC= 7.37D-13 BMatP= 2.96D-11
 IDIUse=1 WtCom= 1.00D+00 WtEn= 0.00D+00
 Coeff-Com: -0.185D-04 0.678D-04 0.227D-03 0.788D-03-0.154D-02-0.124D-01
 Coeff-Com: -0.260D-01 0.596D-01 0.979D+00
 Coeff:     -0.185D-04 0.678D-04 0.227D-03 0.788D-03-0.154D-02-0.124D-01
 Coeff:     -0.260D-01 0.596D-01 0.979D+00
 Gap=     0.506 Goal=   None    Shift=    0.000
 RMSDP=3.37D-08 MaxDP=3.82D-07 DE=-4.38D-11 OVMax= 1.01D-06

 Cycle  10  Pass 1  IDiag  1:
 E= -278.244461677794     Delta-E=       -0.000000000000 Rises=F Damp=F
 DIIS: error= 1.67D-08 at cycle  10 NSaved=  10.
 NSaved=10 IEnMin=10 EnMin= -278.244461677794     IErMin=10 ErrMin= 1.67D-08
 ErrMax= 1.67D-08  0.00D+00 EMaxC= 1.00D-01 BMatC= 3.43D-14 BMatP= 7.37D-13
 IDIUse=1 WtCom= 1.00D+00 WtEn= 0.00D+00
 Coeff-Com:  0.202D-05-0.263D-04-0.349D-04 0.149D-03 0.694D-03 0.122D-02
 Coeff-Com: -0.768D-02-0.426D-01-0.755D-02 0.106D+01
 Coeff:      0.202D-05-0.263D-04-0.349D-04 0.149D-03 0.694D-03 0.122D-02
 Coeff:     -0.768D-02-0.426D-01-0.755D-02 0.106D+01
 Gap=     0.506 Goal=   None    Shift=    0.000
 RMSDP=9.02D-09 MaxDP=1.16D-07 DE=-2.84D-13 OVMax= 2.32D-07

 SCF Done:  E(RwB97XD) =  -278.244461678     A.U. after   10 cycles
            NFock= 10  Conv=0.90D-08     -V/T= 2.0079
 KE= 2.760732004847D+02 PE=-9.219073613683D+02 EE= 2.354035215401D+02
 Leave Link  502 at Tue Mar 31 17:52:50 2026, MaxMem=   536870912 cpu:               6.0 elap:               1.6
 (Enter /Users/asuyarger/Applications/G16/g16/l701.exe)
 ... and contract with generalized density number  0.
 Compute integral first derivatives.
 R6Disp: Adding Grimme-D2 dispersion energy 1st derivatives to the gradient.
 Leave Link  701 at Tue Mar 31 17:52:50 2026, MaxMem=   536870912 cpu:               0.3 elap:               0.1
 (Enter /Users/asuyarger/Applications/G16/g16/l702.exe)
 L702 exits ... SP integral derivatives will be done elsewhere.
 Leave Link  702 at Tue Mar 31 17:52:50 2026, MaxMem=   536870912 cpu:               0.1 elap:               0.0
 (Enter /Users/asuyarger/Applications/G16/g16/l703.exe)
 Integral derivatives from FoFJK, PRISM(SPDF).
 Compute integral first derivatives, UseDBF=F ICtDFT=           0.
 Calling FoFJK, ICntrl=      2127 FMM=F ISym2X=1 I1Cent= 0 IOpClX= 0 NMat=1 NMatS=1 NMatT=0.
 FoFJK:  IHMeth= 1 ICntrl=    2127 DoSepK=T KAlg= 0 I1Cent=           0 FoldK=F
 IRaf=         1 NMat=       1 IRICut=       1 DoRegI=T DoRafI=F ISym2E= 1 IDoP0=0 IntGTp=1.
 FoFCou: FMM=F IPFlag=           0 FMFlag=      100000 FMFlg1=         800
         NFxFlg=           0 DoJE=F BraDBF=F KetDBF=F FulRan=T
         wScrn=  0.000000 ICntrl=      2527 IOpCl=  0 I1Cent=           0 NGrid=           0
         NMat0=    1 NMatS0=      1 NMatT0=    0 NMatD0=    1 NMtDS0=    0 NMtDT0=    0
 Petite list used in FoFCou.
 Leave Link  703 at Tue Mar 31 17:52:51 2026, MaxMem=   536870912 cpu:               2.0 elap:               0.5
 (Enter /Users/asuyarger/Applications/G16/g16/l716.exe)
 Dipole        =-1.36169239D-01 9.34889260D-01 2.99760217D-15
 ***** Axes restored to original set *****
 -------------------------------------------------------------------
 Center     Atomic                   Forces (Hartrees/Bohr)
 Number     Number              X              Y              Z
 -------------------------------------------------------------------
      1        6           0.005634732   -0.006797832   -0.005276922
      2        1           0.000106479   -0.000327711    0.000015317
      3        9           0.003260335    0.002463810    0.005646580
      4        9          -0.006858665   -0.001113655   -0.000549996
      5        6          -0.002666314    0.006844716    0.000402431
      6        1           0.000390009   -0.000492665    0.000103524
      7        1           0.000017703   -0.000624290   -0.000124466
      8        1           0.000115721    0.000047627   -0.000216469
 -------------------------------------------------------------------
 Cartesian Forces:  Max     0.006858665 RMS     0.003279282
 Leave Link  716 at Tue Mar 31 17:52:51 2026, MaxMem=   536870912 cpu:               0.1 elap:               0.0
 (Enter /Users/asuyarger/Applications/G16/g16/l103.exe)

 GradGradGradGradGradGradGradGradGradGradGradGradGradGradGradGradGradGrad
 Berny optimization.
 Using GEDIIS/GDIIS optimizer.
 FormGI is forming the generalized inverse of G from B-inverse, IUseBI=4.
 Internal  Forces:  Max     0.006821254 RMS     0.002275994
 Search for a local minimum.
 Step number   2 out of a maximum of   38
 All quantities printed in internal units (Hartrees-Bohrs-Radians)
 RMS Force = .22760D-02 SwitMx=.10000D-02 MixMth= 1
 Mixed Optimization -- RFO/linear search
 Update second derivatives using D2CorX and points    1    2
 DE= -3.31D-03 DEPred=-3.29D-03 R= 1.01D+00
 TightC=F SS=  1.41D+00  RLast= 1.58D-01 DXNew= 5.0454D-01 4.7353D-01
 Trust test= 1.01D+00 RLast= 1.58D-01 DXMaxT set to 4.74D-01
 ITU=  1  0
 Use linear search instead of GDIIS.
     Eigenvalues ---    0.00237   0.05495   0.05707   0.05740   0.07414
     Eigenvalues ---    0.15749   0.16000   0.16000   0.16506   0.23044
     Eigenvalues ---    0.25263   0.25877   0.37219   0.37230   0.37230
     Eigenvalues ---    0.38399   0.53372   0.55021
 RFO step:  Lambda=-3.88547291D-04 EMin= 2.36824132D-03
 Quartic linear search produced a step of  0.05390.
 Iteration  1 RMS(Cart)=  0.00858947 RMS(Int)=  0.00003314
 Iteration  2 RMS(Cart)=  0.00002852 RMS(Int)=  0.00002560
 Iteration  3 RMS(Cart)=  0.00000000 RMS(Int)=  0.00002560
 ITry= 1 IFail=0 DXMaxC= 2.20D-02 DCOld= 1.00D+10 DXMaxT= 4.74D-01 DXLimC= 3.00D+00 Rises=F
 ClnCor:  largest displacement from symmetrization is 6.72D-09 for atom     4.
 Variable       Old X    -DE/DX   Delta X   Delta X   Delta X     New X
                                 (Linear)    (Quad)   (Total)
    R1        2.06791  -0.00015   0.00247   0.00000   0.00248   2.07038
    R2        2.57270   0.00682   0.00116   0.01325   0.01441   2.58711
    R3        2.57270   0.00682   0.00116   0.01325   0.01441   2.58711
    R4        2.86697  -0.00616  -0.00233  -0.02314  -0.02546   2.84151
    R5        2.06555   0.00002   0.00235   0.00047   0.00282   2.06837
    R6        2.06555   0.00002   0.00235   0.00047   0.00282   2.06837
    R7        2.06626  -0.00024   0.00239  -0.00025   0.00213   2.06839
    A1        1.87318   0.00078  -0.00202   0.00289   0.00081   1.87398
    A2        1.87318   0.00078  -0.00202   0.00289   0.00081   1.87398
    A3        1.99043   0.00020   0.00430   0.00017   0.00440   1.99483
    A4        1.86205   0.00207  -0.00262   0.00976   0.00713   1.86917
    A5        1.92967  -0.00178   0.00103  -0.00724  -0.00626   1.92341
    A6        1.92967  -0.00178   0.00103  -0.00724  -0.00626   1.92341
    A7        1.90877   0.00077  -0.00010   0.00511   0.00500   1.91377
    A8        1.90877   0.00077  -0.00010   0.00511   0.00500   1.91377
    A9        1.91341  -0.00017   0.00015  -0.00125  -0.00109   1.91232
   A10        1.91027  -0.00072  -0.00002  -0.00437  -0.00440   1.90586
   A11        1.91129  -0.00032   0.00004  -0.00230  -0.00226   1.90903
   A12        1.91129  -0.00032   0.00004  -0.00230  -0.00226   1.90903
    D1       -1.04584  -0.00002   0.00007  -0.00043  -0.00036  -1.04620
    D2        1.04584   0.00002  -0.00007   0.00043   0.00036   1.04620
    D3       -3.14159   0.00000   0.00000   0.00000  -0.00000   3.14159
    D4        3.12482   0.00015  -0.00090   0.00109   0.00017   3.12498
    D5       -1.06669   0.00020  -0.00105   0.00195   0.00089  -1.06580
    D6        1.02906   0.00017  -0.00098   0.00152   0.00053   1.02959
    D7        1.06669  -0.00020   0.00105  -0.00195  -0.00089   1.06580
    D8       -3.12482  -0.00015   0.00090  -0.00109  -0.00017  -3.12498
    D9       -1.02906  -0.00017   0.00098  -0.00152  -0.00053  -1.02959
         Item               Value     Threshold  Converged?
 Maximum Force            0.006821     0.000450     NO 
 RMS     Force            0.002276     0.000300     NO 
 Maximum Displacement     0.021951     0.001800     NO 
 RMS     Displacement     0.008609     0.001200     NO 
 Predicted change in Energy=-2.020753D-04
 Lowest energy point so far.  Saving SCF results.
 GradGradGradGradGradGradGradGradGradGradGradGradGradGradGradGradGradGrad

 Leave Link  103 at Tue Mar 31 17:52:51 2026, MaxMem=   536870912 cpu:               0.0 elap:               0.0
 (Enter /Users/asuyarger/Applications/G16/g16/l202.exe)
                          Input orientation:                          
 ---------------------------------------------------------------------
 Center     Atomic      Atomic             Coordinates (Angstroms)
 Number     Number       Type             X           Y           Z
 ---------------------------------------------------------------------
      1          6           0        0.761697    0.069837   -0.013635
      2          1           0        1.088444    0.651225   -0.882865
      3          9           0        1.191260    0.731249    1.105419
      4          9           0       -0.606986    0.095497    0.004225
      5          6           0        1.254691   -1.350629    0.001383
      6          1           0        0.892258   -1.875457   -0.888114
      7          1           0        2.349179   -1.360378    0.004061
      8          1           0        0.884772   -1.857592    0.898144
 ---------------------------------------------------------------------
                    Distance matrix (angstroms):
                    1          2          3          4          5
     1  C    0.000000
     2  H    1.095598   0.000000
     3  F    1.369040   1.992548   0.000000
     4  F    1.369040   1.992548   2.202384   0.000000
     5  C    1.503660   2.194755   2.357357   2.357357   0.000000
     6  H    2.136803   2.534292   3.295221   2.632235   1.094534
     7  H    2.136803   2.534292   2.632235   3.295221   1.094534
     8  H    2.135761   3.083446   2.615147   2.615147   1.094547
                    6          7          8
     6  H    0.000000
     7  H    1.784348   0.000000
     8  H    1.786363   1.786363   0.000000
 Stoichiometry    C2H4F2
 Framework group  CS[SG(C2H2),X(H2F2)]
 Deg. of freedom    11
 Full point group                 CS      NOp   2
 RotChk:  IX=2 Diff= 1.05D-02
 Largest Abelian subgroup         CS      NOp   2
 Largest concise Abelian subgroup CS      NOp   2
                         Standard orientation:                         
 ---------------------------------------------------------------------
 Center     Atomic      Atomic             Coordinates (Angstroms)
 Number     Number       Type             X           Y           Z
 ---------------------------------------------------------------------
      1          6           0        0.322395    0.164203    0.000000
      2          1           0        1.269622    0.714745    0.000000
      3          9           0        0.322395   -0.649214   -1.101192
      4          9           0        0.322395   -0.649214    1.101192
      5          6           0       -0.901166    1.038212    0.000000
      6          1           0       -0.900586    1.672271    0.892174
      7          1           0       -0.900586    1.672271   -0.892174
      8          1           0       -1.798933    0.412076   -0.000000
 ---------------------------------------------------------------------
 Rotational constants (GHZ):           9.4205715           8.9561249           5.1494406
 Leave Link  202 at Tue Mar 31 17:52:51 2026, MaxMem=   536870912 cpu:               0.0 elap:               0.0
 (Enter /Users/asuyarger/Applications/G16/g16/l301.exe)
 Standard basis: 6-31+G(d) (6D, 7F)
 Ernie: Thresh=  0.10000D-02 Tol=  0.10000D-05 Strict=F.
 There are    53 symmetry adapted cartesian basis functions of A'  symmetry.
 There are    31 symmetry adapted cartesian basis functions of A"  symmetry.
 There are    53 symmetry adapted basis functions of A'  symmetry.
 There are    31 symmetry adapted basis functions of A"  symmetry.
    84 basis functions,   144 primitive gaussians,    84 cartesian basis functions
    17 alpha electrons       17 beta electrons
       nuclear repulsion energy       132.0365467842 Hartrees.
 IExCor= 4639 DFT=T Ex+Corr=wB97XD ExCW=0 ScaHFX=  1.000000
 ScaDFX=  1.000000  1.000000  1.000000  1.000000 ScalE2=  1.000000  1.000000
 IRadAn=      5 IRanWt=     -1 IRanGd=            0 ICorTp=0 IEmpDi=121
 HFx  wShort=  0.000000 wLong=  0.200000 cFull=  0.222036 cShort=  0.000000 cLong=  0.777964
 DFx  wShort=  0.000000 wLong=  0.200000 cFull=  0.000000 cShort=  0.000000 cLong=  1.000000
 NAtoms=    8 NActive=    8 NUniq=    6 SFac= 1.78D+00 NAtFMM=   60 NAOKFM=F Big=F
 Integral buffers will be    131072 words long.
 Raffenetti 2 integral format.
 Two-electron integral symmetry is turned on.
 R6Disp:  Grimme-D2 Dispersion energy=       -0.0020245106 Hartrees.
 Nuclear repulsion after empirical dispersion term =      132.0345222736 Hartrees.
 Leave Link  301 at Tue Mar 31 17:52:51 2026, MaxMem=   536870912 cpu:               0.1 elap:               0.0
 (Enter /Users/asuyarger/Applications/G16/g16/l302.exe)
 NPDir=0 NMtPBC=     1 NCelOv=     1 NCel=       1 NClECP=     1 NCelD=      1
         NCelK=      1 NCelE2=     1 NClLst=     1 CellRange=     0.0.
 One-electron integrals computed using PRISM.
 One-electron integral symmetry used in STVInt
 NBasis=    84 RedAO= T EigKep=  2.49D-04  NBF=    53    31
 NBsUse=    84 1.00D-06 EigRej= -1.00D+00 NBFU=    53    31
 Precomputing XC quadrature grid using
 IXCGrd= 4 IRadAn=           5 IRanWt=          -1 IRanGd=           0 AccXCQ= 0.00D+00.
 Generated NRdTot=       0 NPtTot=           0 NUsed=           0 NTot=          32
 NSgBfM=    84    84    84    84    84 MxSgAt=     8 MxSgA2=     8.
 Leave Link  302 at Tue Mar 31 17:52:51 2026, MaxMem=   536870912 cpu:               0.4 elap:               0.1
 (Enter /Users/asuyarger/Applications/G16/g16/l303.exe)
 DipDrv:  MaxL=1.
 Leave Link  303 at Tue Mar 31 17:52:51 2026, MaxMem=   536870912 cpu:               0.1 elap:               0.0
 (Enter /Users/asuyarger/Applications/G16/g16/l401.exe)
 Initial guess from the checkpoint file:  "11Difluoroethane_Opt_Freq_DFT_WB97XD_631pd_Gaussian16.chk"
 B after Tr=     0.000000   -0.000000    0.000000
         Rot=    0.999997   -0.000000   -0.000000   -0.002630 Ang=  -0.30 deg.
 Guess basis will be translated and rotated to current coordinates.
 JPrj=2 DoOrth=T DoCkMO=T.
 Initial guess orbital symmetries:
       Occupied  (A') (A") (A') (A') (A') (A") (A') (A') (A') (A")
                 (A') (A") (A') (A") (A') (A") (A')
       Virtual   (A') (A') (A") (A') (A") (A') (A') (A') (A") (A')
                 (A") (A') (A') (A') (A") (A') (A') (A") (A') (A")
                 (A') (A') (A") (A') (A") (A') (A') (A') (A") (A')
                 (A") (A') (A') (A') (A') (A") (A') (A") (A") (A')
                 (A') (A") (A') (A') (A") (A') (A") (A') (A") (A")
                 (A') (A") (A') (A") (A') (A') (A") (A') (A") (A')
                 (A') (A") (A') (A') (A') (A") (A')
 The electronic state of the initial guess is 1-A'.
 Generating alternative initial guess.
 ExpMin= 4.38D-02 ExpMax= 7.00D+03 ExpMxC= 1.05D+03 IAcc=2 IRadAn=         4 AccDes= 0.00D+00
 Harris functional with IExCor= 4639 and IRadAn=       4 diagonalized for initial guess.
 HarFok:  IExCor= 4639 AccDes= 0.00D+00 IRadAn=         4 IDoV= 1 UseB2=F ITyADJ=14
 ICtDFT=  3500011 ScaDFX=  1.000000  1.000000  1.000000  1.000000
 FoFCou: FMM=F IPFlag=           0 FMFlag=      100000 FMFlg1=           0
         NFxFlg=           0 DoJE=T BraDBF=F KetDBF=T FulRan=T
         wScrn=  0.000000 ICntrl=       500 IOpCl=  0 I1Cent=   200000004 NGrid=           0
         NMat0=    1 NMatS0=      1 NMatT0=    0 NMatD0=    1 NMtDS0=    0 NMtDT0=    0
 Petite list used in FoFCou.
 Harris En= -268.381917782753    
 Leave Link  401 at Tue Mar 31 17:52:51 2026, MaxMem=   536870912 cpu:               0.7 elap:               0.2
 (Enter /Users/asuyarger/Applications/G16/g16/l502.exe)
 Keep R1 ints in memory in symmetry-blocked form, NReq=19173689.
 FoFCou: FMM=F IPFlag=           0 FMFlag=           0 FMFlg1=           0
         NFxFlg=           0 DoJE=F BraDBF=F KetDBF=F FulRan=T
         wScrn=  0.000000 ICntrl=       600 IOpCl=  0 I1Cent=           0 NGrid=           0
         NMat0=    1 NMatS0=   3570 NMatT0=    0 NMatD0=    1 NMtDS0=    0 NMtDT0=    0
 Petite list used in FoFCou.
 Closed shell SCF:
 Using DIIS extrapolation, IDIIS=  1040.
 NGot=   536870912 LenX=   533638906 LenY=   533631409
 Requested convergence on RMS density matrix=1.00D-08 within 128 cycles.
 Requested convergence on MAX density matrix=1.00D-06.
 Requested convergence on             energy=1.00D-06.
 No special actions if energy rises.

 Cycle   1  Pass 1  IDiag  1:
 E= -278.244539763432    
 DIIS: error= 9.03D-04 at cycle   1 NSaved=   1.
 NSaved= 1 IEnMin= 1 EnMin= -278.244539763432     IErMin= 1 ErrMin= 9.03D-04
 ErrMax= 9.03D-04  0.00D+00 EMaxC= 1.00D-01 BMatC= 8.43D-05 BMatP= 8.43D-05
 IDIUse=3 WtCom= 9.91D-01 WtEn= 9.03D-03
 Coeff-Com:  0.100D+01
 Coeff-En:   0.100D+01
 Coeff:      0.100D+01
 Gap=     0.508 Goal=   None    Shift=    0.000
 RMSDP=1.70D-04 MaxDP=1.48D-03              OVMax= 2.75D-03

 Cycle   2  Pass 1  IDiag  1:
 E= -278.244656066474     Delta-E=       -0.000116303043 Rises=F Damp=F
 DIIS: error= 1.37D-04 at cycle   2 NSaved=   2.
 NSaved= 2 IEnMin= 2 EnMin= -278.244656066474     IErMin= 2 ErrMin= 1.37D-04
 ErrMax= 1.37D-04  0.00D+00 EMaxC= 1.00D-01 BMatC= 3.61D-06 BMatP= 8.43D-05
 IDIUse=3 WtCom= 9.99D-01 WtEn= 1.37D-03
 Coeff-Com: -0.754D-01 0.108D+01
 Coeff-En:   0.000D+00 0.100D+01
 Coeff:     -0.753D-01 0.108D+01
 Gap=     0.508 Goal=   None    Shift=    0.000
 RMSDP=4.39D-05 MaxDP=3.82D-04 DE=-1.16D-04 OVMax= 7.75D-04

 Cycle   3  Pass 1  IDiag  1:
 E= -278.244660808664     Delta-E=       -0.000004742190 Rises=F Damp=F
 DIIS: error= 1.28D-04 at cycle   3 NSaved=   3.
 NSaved= 3 IEnMin= 3 EnMin= -278.244660808664     IErMin= 3 ErrMin= 1.28D-04
 ErrMax= 1.28D-04  0.00D+00 EMaxC= 1.00D-01 BMatC= 1.62D-06 BMatP= 3.61D-06
 IDIUse=3 WtCom= 9.99D-01 WtEn= 1.28D-03
 Coeff-Com: -0.669D-01 0.441D+00 0.626D+00
 Coeff-En:   0.000D+00 0.000D+00 0.100D+01
 Coeff:     -0.668D-01 0.440D+00 0.627D+00
 Gap=     0.508 Goal=   None    Shift=    0.000
 RMSDP=1.17D-05 MaxDP=2.06D-04 DE=-4.74D-06 OVMax= 2.26D-04

 Cycle   4  Pass 1  IDiag  1:
 E= -278.244661837930     Delta-E=       -0.000001029266 Rises=F Damp=F
 DIIS: error= 3.65D-05 at cycle   4 NSaved=   4.
 NSaved= 4 IEnMin= 4 EnMin= -278.244661837930     IErMin= 4 ErrMin= 3.65D-05
 ErrMax= 3.65D-05  0.00D+00 EMaxC= 1.00D-01 BMatC= 1.27D-07 BMatP= 1.62D-06
 IDIUse=1 WtCom= 1.00D+00 WtEn= 0.00D+00
 Coeff-Com: -0.119D-01 0.133D-01 0.218D+00 0.781D+00
 Coeff:     -0.119D-01 0.133D-01 0.218D+00 0.781D+00
 Gap=     0.508 Goal=   None    Shift=    0.000
 RMSDP=4.80D-06 MaxDP=5.48D-05 DE=-1.03D-06 OVMax= 7.74D-05

 Cycle   5  Pass 1  IDiag  1:
 E= -278.244661934981     Delta-E=       -0.000000097050 Rises=F Damp=F
 DIIS: error= 8.33D-06 at cycle   5 NSaved=   5.
 NSaved= 5 IEnMin= 5 EnMin= -278.244661934981     IErMin= 5 ErrMin= 8.33D-06
 ErrMax= 8.33D-06  0.00D+00 EMaxC= 1.00D-01 BMatC= 4.74D-09 BMatP= 1.27D-07
 IDIUse=1 WtCom= 1.00D+00 WtEn= 0.00D+00
 Coeff-Com:  0.236D-02-0.287D-01 0.672D-02 0.177D+00 0.842D+00
 Coeff:      0.236D-02-0.287D-01 0.672D-02 0.177D+00 0.842D+00
 Gap=     0.508 Goal=   None    Shift=    0.000
 RMSDP=1.51D-06 MaxDP=2.08D-05 DE=-9.71D-08 OVMax= 2.83D-05

 Cycle   6  Pass 1  IDiag  1:
 E= -278.244661940409     Delta-E=       -0.000000005428 Rises=F Damp=F
 DIIS: error= 2.07D-06 at cycle   6 NSaved=   6.
 NSaved= 6 IEnMin= 6 EnMin= -278.244661940409     IErMin= 6 ErrMin= 2.07D-06
 ErrMax= 2.07D-06  0.00D+00 EMaxC= 1.00D-01 BMatC= 4.73D-10 BMatP= 4.74D-09
 IDIUse=1 WtCom= 1.00D+00 WtEn= 0.00D+00
 Coeff-Com:  0.147D-02-0.975D-02-0.153D-01-0.108D-01 0.253D+00 0.782D+00
 Coeff:      0.147D-02-0.975D-02-0.153D-01-0.108D-01 0.253D+00 0.782D+00
 Gap=     0.508 Goal=   None    Shift=    0.000
 RMSDP=3.99D-07 MaxDP=4.89D-06 DE=-5.43D-09 OVMax= 6.26D-06

 Cycle   7  Pass 1  IDiag  1:
 E= -278.244661940940     Delta-E=       -0.000000000531 Rises=F Damp=F
 DIIS: error= 2.31D-07 at cycle   7 NSaved=   7.
 NSaved= 7 IEnMin= 7 EnMin= -278.244661940940     IErMin= 7 ErrMin= 2.31D-07
 ErrMax= 2.31D-07  0.00D+00 EMaxC= 1.00D-01 BMatC= 6.81D-12 BMatP= 4.73D-10
 IDIUse=1 WtCom= 1.00D+00 WtEn= 0.00D+00
 Coeff-Com: -0.379D-04 0.858D-03-0.707D-03-0.673D-02-0.278D-01 0.317D-01
 Coeff-Com:  0.100D+01
 Coeff:     -0.379D-04 0.858D-03-0.707D-03-0.673D-02-0.278D-01 0.317D-01
 Coeff:      0.100D+01
 Gap=     0.508 Goal=   None    Shift=    0.000
 RMSDP=9.17D-08 MaxDP=9.68D-07 DE=-5.31D-10 OVMax= 1.27D-06

 Cycle   8  Pass 1  IDiag  1:
 E= -278.244661940951     Delta-E=       -0.000000000011 Rises=F Damp=F
 DIIS: error= 8.76D-08 at cycle   8 NSaved=   8.
 NSaved= 8 IEnMin= 8 EnMin= -278.244661940951     IErMin= 8 ErrMin= 8.76D-08
 ErrMax= 8.76D-08  0.00D+00 EMaxC= 1.00D-01 BMatC= 6.60D-13 BMatP= 6.81D-12
 IDIUse=1 WtCom= 1.00D+00 WtEn= 0.00D+00
 Coeff-Com: -0.694D-04 0.610D-03 0.474D-03-0.116D-02-0.180D-01-0.236D-01
 Coeff-Com:  0.245D+00 0.797D+00
 Coeff:     -0.694D-04 0.610D-03 0.474D-03-0.116D-02-0.180D-01-0.236D-01
 Coeff:      0.245D+00 0.797D+00
 Gap=     0.508 Goal=   None    Shift=    0.000
 RMSDP=1.71D-08 MaxDP=2.18D-07 DE=-1.11D-11 OVMax= 2.75D-07

 Cycle   9  Pass 1  IDiag  1:
 E= -278.244661940953     Delta-E=       -0.000000000003 Rises=F Damp=F
 DIIS: error= 1.59D-08 at cycle   9 NSaved=   9.
 NSaved= 9 IEnMin= 9 EnMin= -278.244661940953     IErMin= 9 ErrMin= 1.59D-08
 ErrMax= 1.59D-08  0.00D+00 EMaxC= 1.00D-01 BMatC= 4.78D-14 BMatP= 6.60D-13
 IDIUse=1 WtCom= 1.00D+00 WtEn= 0.00D+00
 Coeff-Com: -0.143D-04 0.819D-04 0.186D-03 0.165D-03-0.249D-02-0.803D-02
 Coeff-Com: -0.170D-01 0.188D+00 0.839D+00
 Coeff:     -0.143D-04 0.819D-04 0.186D-03 0.165D-03-0.249D-02-0.803D-02
 Coeff:     -0.170D-01 0.188D+00 0.839D+00
 Gap=     0.508 Goal=   None    Shift=    0.000
 RMSDP=4.89D-09 MaxDP=7.21D-08 DE=-2.50D-12 OVMax= 7.69D-08

 SCF Done:  E(RwB97XD) =  -278.244661941     A.U. after    9 cycles
            NFock=  9  Conv=0.49D-08     -V/T= 2.0079
 KE= 2.760555336332D+02 PE=-9.216042940865D+02 EE= 2.352695762387D+02
 Leave Link  502 at Tue Mar 31 17:52:53 2026, MaxMem=   536870912 cpu:               5.6 elap:               1.7
 (Enter /Users/asuyarger/Applications/G16/g16/l701.exe)
 ... and contract with generalized density number  0.
 Compute integral first derivatives.
 R6Disp: Adding Grimme-D2 dispersion energy 1st derivatives to the gradient.
 Leave Link  701 at Tue Mar 31 17:52:53 2026, MaxMem=   536870912 cpu:               0.3 elap:               0.1
 (Enter /Users/asuyarger/Applications/G16/g16/l702.exe)
 L702 exits ... SP integral derivatives will be done elsewhere.
 Leave Link  702 at Tue Mar 31 17:52:53 2026, MaxMem=   536870912 cpu:               0.1 elap:               0.0
 (Enter /Users/asuyarger/Applications/G16/g16/l703.exe)
 Integral derivatives from FoFJK, PRISM(SPDF).
 Compute integral first derivatives, UseDBF=F ICtDFT=           0.
 Calling FoFJK, ICntrl=      2127 FMM=F ISym2X=1 I1Cent= 0 IOpClX= 0 NMat=1 NMatS=1 NMatT=0.
 FoFJK:  IHMeth= 1 ICntrl=    2127 DoSepK=T KAlg= 0 I1Cent=           0 FoldK=F
 IRaf=         1 NMat=       1 IRICut=       1 DoRegI=T DoRafI=F ISym2E= 1 IDoP0=0 IntGTp=1.
 FoFCou: FMM=F IPFlag=           0 FMFlag=      100000 FMFlg1=         800
         NFxFlg=           0 DoJE=F BraDBF=F KetDBF=F FulRan=T
         wScrn=  0.000000 ICntrl=      2527 IOpCl=  0 I1Cent=           0 NGrid=           0
         NMat0=    1 NMatS0=      1 NMatT0=    0 NMatD0=    1 NMtDS0=    0 NMtDT0=    0
 Petite list used in FoFCou.
 Leave Link  703 at Tue Mar 31 17:52:54 2026, MaxMem=   536870912 cpu:               2.0 elap:               0.5
 (Enter /Users/asuyarger/Applications/G16/g16/l716.exe)
 Dipole        =-1.41007187D-01 9.46861487D-01-1.99840144D-15
 ***** Axes restored to original set *****
 -------------------------------------------------------------------
 Center     Atomic                   Forces (Hartrees/Bohr)
 Number     Number              X              Y              Z
 -------------------------------------------------------------------
      1        6           0.001549505   -0.000076779   -0.002486013
      2        1          -0.000702166   -0.000276975    0.001306541
      3        9          -0.000062855    0.000781360    0.000841944
      4        9          -0.001034821    0.000437732    0.000246741
      5        6           0.000218551   -0.000800533    0.000105277
      6        1           0.000492737    0.000118599    0.000827481
      7        1          -0.000895797   -0.000372302   -0.000022816
      8        1           0.000434844    0.000188898   -0.000819156
 -------------------------------------------------------------------
 Cartesian Forces:  Max     0.002486013 RMS     0.000841360
 Leave Link  716 at Tue Mar 31 17:52:54 2026, MaxMem=   536870912 cpu:               0.1 elap:               0.0
 (Enter /Users/asuyarger/Applications/G16/g16/l103.exe)

 GradGradGradGradGradGradGradGradGradGradGradGradGradGradGradGradGradGrad
 Berny optimization.
 Using GEDIIS/GDIIS optimizer.
 FormGI is forming the generalized inverse of G from B-inverse, IUseBI=4.
 Internal  Forces:  Max     0.001392845 RMS     0.000599129
 Search for a local minimum.
 Step number   3 out of a maximum of   38
 All quantities printed in internal units (Hartrees-Bohrs-Radians)
 RMS Force = .59913D-03 SwitMx=.10000D-02 MixMth= 2
 Mixed Optimization -- En-DIIS/RFO-DIIS
 Update second derivatives using D2CorX and points    1    2    3
 DE= -2.00D-04 DEPred=-2.02D-04 R= 9.91D-01
 TightC=F SS=  1.41D+00  RLast= 3.64D-02 DXNew= 7.9638D-01 1.0914D-01
 Trust test= 9.91D-01 RLast= 3.64D-02 DXMaxT set to 4.74D-01
 ITU=  1  1  0
 Use linear search instead of GDIIS.
     Eigenvalues ---    0.00237   0.05498   0.05691   0.05692   0.07438
     Eigenvalues ---    0.14086   0.16000   0.16014   0.16458   0.23036
     Eigenvalues ---    0.24713   0.32280   0.37189   0.37230   0.37265
     Eigenvalues ---    0.40837   0.46805   0.55021
 RFO step:  Lambda=-3.35434103D-05 EMin= 2.36824132D-03
 Quartic linear search produced a step of -0.01158.
 Iteration  1 RMS(Cart)=  0.00305992 RMS(Int)=  0.00000802
 Iteration  2 RMS(Cart)=  0.00000806 RMS(Int)=  0.00000288
 Iteration  3 RMS(Cart)=  0.00000000 RMS(Int)=  0.00000288
 ITry= 1 IFail=0 DXMaxC= 7.75D-03 DCOld= 1.00D+10 DXMaxT= 4.74D-01 DXLimC= 3.00D+00 Rises=F
 ClnCor:  largest displacement from symmetrization is 9.89D-09 for atom     4.
 Variable       Old X    -DE/DX   Delta X   Delta X   Delta X     New X
                                 (Linear)    (Quad)   (Total)
    R1        2.07038  -0.00139  -0.00003  -0.00331  -0.00334   2.06704
    R2        2.58711   0.00105  -0.00017   0.00322   0.00305   2.59016
    R3        2.58711   0.00105  -0.00017   0.00322   0.00305   2.59016
    R4        2.84151   0.00090   0.00029   0.00071   0.00101   2.84251
    R5        2.06837  -0.00089  -0.00003  -0.00196  -0.00199   2.06638
    R6        2.06837  -0.00089  -0.00003  -0.00196  -0.00199   2.06638
    R7        2.06839  -0.00091  -0.00002  -0.00205  -0.00208   2.06632
    A1        1.87398  -0.00050  -0.00001  -0.00227  -0.00229   1.87169
    A2        1.87398  -0.00050  -0.00001  -0.00227  -0.00229   1.87169
    A3        1.99483   0.00066  -0.00005   0.00569   0.00563   2.00046
    A4        1.86917  -0.00067  -0.00008  -0.00364  -0.00373   1.86545
    A5        1.92341   0.00045   0.00007   0.00089   0.00096   1.92437
    A6        1.92341   0.00045   0.00007   0.00089   0.00096   1.92437
    A7        1.91377   0.00041  -0.00006   0.00301   0.00295   1.91672
    A8        1.91377   0.00041  -0.00006   0.00301   0.00295   1.91672
    A9        1.91232   0.00024   0.00001   0.00132   0.00133   1.91365
   A10        1.90586  -0.00041   0.00005  -0.00283  -0.00278   1.90308
   A11        1.90903  -0.00033   0.00003  -0.00228  -0.00225   1.90678
   A12        1.90903  -0.00033   0.00003  -0.00228  -0.00225   1.90678
    D1       -1.04620  -0.00001   0.00000  -0.00012  -0.00012  -1.04632
    D2        1.04620   0.00001  -0.00000   0.00012   0.00012   1.04632
    D3       -3.14159  -0.00000   0.00000   0.00000  -0.00000   3.14159
    D4        3.12498  -0.00015  -0.00000  -0.00181  -0.00182   3.12316
    D5       -1.06580  -0.00013  -0.00001  -0.00157  -0.00158  -1.06739
    D6        1.02959  -0.00014  -0.00001  -0.00169  -0.00170   1.02789
    D7        1.06580   0.00013   0.00001   0.00157   0.00158   1.06739
    D8       -3.12498   0.00015   0.00000   0.00181   0.00182  -3.12316
    D9       -1.02959   0.00014   0.00001   0.00169   0.00170  -1.02789
         Item               Value     Threshold  Converged?
 Maximum Force            0.001393     0.000450     NO 
 RMS     Force            0.000599     0.000300     NO 
 Maximum Displacement     0.007751     0.001800     NO 
 RMS     Displacement     0.003056     0.001200     NO 
 Predicted change in Energy=-1.680275D-05
 Lowest energy point so far.  Saving SCF results.
 GradGradGradGradGradGradGradGradGradGradGradGradGradGradGradGradGradGrad

 Leave Link  103 at Tue Mar 31 17:52:54 2026, MaxMem=   536870912 cpu:               0.0 elap:               0.0
 (Enter /Users/asuyarger/Applications/G16/g16/l202.exe)
                          Input orientation:                          
 ---------------------------------------------------------------------
 Center     Atomic      Atomic             Coordinates (Angstroms)
 Number     Number       Type             X           Y           Z
 ---------------------------------------------------------------------
      1          6           0        0.762565    0.070090   -0.015199
      2          1           0        1.086179    0.654729   -0.881190
      3          9           0        1.190217    0.733331    1.105481
      4          9           0       -0.607671    0.097706    0.004507
      5          6           0        1.255149   -1.351072    0.000891
      6          1           0        0.894467   -1.878552   -0.886448
      7          1           0        2.348541   -1.364480    0.003984
      8          1           0        0.885866   -1.857998    0.896593
 ---------------------------------------------------------------------
                    Distance matrix (angstroms):
                    1          2          3          4          5
     1  C    0.000000
     2  H    1.093832   0.000000
     3  F    1.370656   1.990945   0.000000
     4  F    1.370656   1.990945   2.201946   0.000000
     5  C    1.504194   2.197693   2.359888   2.359888   0.000000
     6  H    2.138616   2.540530   3.298057   2.637388   1.093479
     7  H    2.138616   2.540530   2.637388   3.298057   1.093479
     8  H    2.136373   3.084547   2.617489   2.617489   1.093447
                    6          7          8
     6  H    0.000000
     7  H    1.780863   0.000000
     8  H    1.783180   1.783180   0.000000
 Stoichiometry    C2H4F2
 Framework group  CS[SG(C2H2),X(H2F2)]
 Deg. of freedom    11
 Full point group                 CS      NOp   2
 RotChk:  IX=2 Diff= 1.25D-03
 Largest Abelian subgroup         CS      NOp   2
 Largest concise Abelian subgroup CS      NOp   2
                         Standard orientation:                         
 ---------------------------------------------------------------------
 Center     Atomic      Atomic             Coordinates (Angstroms)
 Number     Number       Type             X           Y           Z
 ---------------------------------------------------------------------
      1          6           0        0.322612    0.165787   -0.000000
      2          1           0        1.271429    0.710044   -0.000000
      3          9           0        0.322612   -0.650643   -1.100973
      4          9           0        0.322612   -0.650643    1.100973
      5          6           0       -0.901325    1.040188   -0.000000
      6          1           0       -0.903550    1.674871    0.890431
      7          1           0       -0.903550    1.674871   -0.890431
      8          1           0       -1.799065    0.415938    0.000000
 ---------------------------------------------------------------------
 Rotational constants (GHZ):           9.4244286           8.9300424           5.1422349
 Leave Link  202 at Tue Mar 31 17:52:54 2026, MaxMem=   536870912 cpu:               0.0 elap:               0.0
 (Enter /Users/asuyarger/Applications/G16/g16/l301.exe)
 Standard basis: 6-31+G(d) (6D, 7F)
 Ernie: Thresh=  0.10000D-02 Tol=  0.10000D-05 Strict=F.
 There are    53 symmetry adapted cartesian basis functions of A'  symmetry.
 There are    31 symmetry adapted cartesian basis functions of A"  symmetry.
 There are    53 symmetry adapted basis functions of A'  symmetry.
 There are    31 symmetry adapted basis functions of A"  symmetry.
    84 basis functions,   144 primitive gaussians,    84 cartesian basis functions
    17 alpha electrons       17 beta electrons
       nuclear repulsion energy       131.9606074261 Hartrees.
 IExCor= 4639 DFT=T Ex+Corr=wB97XD ExCW=0 ScaHFX=  1.000000
 ScaDFX=  1.000000  1.000000  1.000000  1.000000 ScalE2=  1.000000  1.000000
 IRadAn=      5 IRanWt=     -1 IRanGd=            0 ICorTp=0 IEmpDi=121
 HFx  wShort=  0.000000 wLong=  0.200000 cFull=  0.222036 cShort=  0.000000 cLong=  0.777964
 DFx  wShort=  0.000000 wLong=  0.200000 cFull=  0.000000 cShort=  0.000000 cLong=  1.000000
 NAtoms=    8 NActive=    8 NUniq=    6 SFac= 1.78D+00 NAtFMM=   60 NAOKFM=F Big=F
 Integral buffers will be    131072 words long.
 Raffenetti 2 integral format.
 Two-electron integral symmetry is turned on.
 R6Disp:  Grimme-D2 Dispersion energy=       -0.0020212730 Hartrees.
 Nuclear repulsion after empirical dispersion term =      131.9585861530 Hartrees.
 Leave Link  301 at Tue Mar 31 17:52:54 2026, MaxMem=   536870912 cpu:               0.1 elap:               0.0
 (Enter /Users/asuyarger/Applications/G16/g16/l302.exe)
 NPDir=0 NMtPBC=     1 NCelOv=     1 NCel=       1 NClECP=     1 NCelD=      1
         NCelK=      1 NCelE2=     1 NClLst=     1 CellRange=     0.0.
 One-electron integrals computed using PRISM.
 One-electron integral symmetry used in STVInt
 NBasis=    84 RedAO= T EigKep=  2.49D-04  NBF=    53    31
 NBsUse=    84 1.00D-06 EigRej= -1.00D+00 NBFU=    53    31
 Precomputing XC quadrature grid using
 IXCGrd= 4 IRadAn=           5 IRanWt=          -1 IRanGd=           0 AccXCQ= 0.00D+00.
 Generated NRdTot=       0 NPtTot=           0 NUsed=           0 NTot=          32
 NSgBfM=    84    84    84    84    84 MxSgAt=     8 MxSgA2=     8.
 Leave Link  302 at Tue Mar 31 17:52:54 2026, MaxMem=   536870912 cpu:               0.4 elap:               0.1
 (Enter /Users/asuyarger/Applications/G16/g16/l303.exe)
 DipDrv:  MaxL=1.
 Leave Link  303 at Tue Mar 31 17:52:54 2026, MaxMem=   536870912 cpu:               0.1 elap:               0.0
 (Enter /Users/asuyarger/Applications/G16/g16/l401.exe)
 Initial guess from the checkpoint file:  "11Difluoroethane_Opt_Freq_DFT_WB97XD_631pd_Gaussian16.chk"
 B after Tr=    -0.000000    0.000000    0.000000
         Rot=    1.000000   -0.000000    0.000000    0.000313 Ang=   0.04 deg.
 Guess basis will be translated and rotated to current coordinates.
 JPrj=2 DoOrth=T DoCkMO=T.
 Initial guess orbital symmetries:
       Occupied  (A') (A") (A') (A') (A') (A") (A') (A') (A') (A")
                 (A') (A") (A') (A") (A') (A") (A')
       Virtual   (A') (A') (A") (A') (A") (A') (A') (A') (A") (A')
                 (A") (A') (A') (A') (A") (A') (A') (A") (A') (A")
                 (A') (A') (A") (A') (A") (A') (A') (A') (A") (A')
                 (A") (A') (A') (A') (A') (A") (A') (A") (A") (A')
                 (A') (A") (A') (A') (A") (A') (A") (A') (A") (A")
                 (A') (A") (A") (A') (A') (A') (A") (A') (A") (A')
                 (A') (A") (A') (A') (A') (A") (A')
 The electronic state of the initial guess is 1-A'.
 Leave Link  401 at Tue Mar 31 17:52:54 2026, MaxMem=   536870912 cpu:               0.2 elap:               0.1
 (Enter /Users/asuyarger/Applications/G16/g16/l502.exe)
 Keep R1 ints in memory in symmetry-blocked form, NReq=19173689.
 FoFCou: FMM=F IPFlag=           0 FMFlag=           0 FMFlg1=           0
         NFxFlg=           0 DoJE=F BraDBF=F KetDBF=F FulRan=T
         wScrn=  0.000000 ICntrl=       600 IOpCl=  0 I1Cent=           0 NGrid=           0
         NMat0=    1 NMatS0=   3570 NMatT0=    0 NMatD0=    1 NMtDS0=    0 NMtDT0=    0
 Petite list used in FoFCou.
 Closed shell SCF:
 Using DIIS extrapolation, IDIIS=  1040.
 NGot=   536870912 LenX=   533638906 LenY=   533631409
 Requested convergence on RMS density matrix=1.00D-08 within 128 cycles.
 Requested convergence on MAX density matrix=1.00D-06.
 Requested convergence on             energy=1.00D-06.
 No special actions if energy rises.

 Cycle   1  Pass 1  IDiag  1:
 E= -278.244670564544    
 DIIS: error= 1.92D-04 at cycle   1 NSaved=   1.
 NSaved= 1 IEnMin= 1 EnMin= -278.244670564544     IErMin= 1 ErrMin= 1.92D-04
 ErrMax= 1.92D-04  0.00D+00 EMaxC= 1.00D-01 BMatC= 6.20D-06 BMatP= 6.20D-06
 IDIUse=3 WtCom= 9.98D-01 WtEn= 1.92D-03
 Coeff-Com:  0.100D+01
 Coeff-En:   0.100D+01
 Coeff:      0.100D+01
 Gap=     0.509 Goal=   None    Shift=    0.000
 RMSDP=4.35D-05 MaxDP=4.23D-04              OVMax= 7.28D-04

 Cycle   2  Pass 1  IDiag  1:
 E= -278.244678746117     Delta-E=       -0.000008181572 Rises=F Damp=F
 DIIS: error= 5.42D-05 at cycle   2 NSaved=   2.
 NSaved= 2 IEnMin= 2 EnMin= -278.244678746117     IErMin= 2 ErrMin= 5.42D-05
 ErrMax= 5.42D-05  0.00D+00 EMaxC= 1.00D-01 BMatC= 5.56D-07 BMatP= 6.20D-06
 IDIUse=1 WtCom= 1.00D+00 WtEn= 0.00D+00
 Coeff-Com:  0.482D-01 0.952D+00
 Coeff:      0.482D-01 0.952D+00
 Gap=     0.509 Goal=   None    Shift=    0.000
 RMSDP=1.20D-05 MaxDP=1.65D-04 DE=-8.18D-06 OVMax= 2.51D-04

 Cycle   3  Pass 1  IDiag  1:
 E= -278.244679165821     Delta-E=       -0.000000419704 Rises=F Damp=F
 DIIS: error= 4.82D-05 at cycle   3 NSaved=   3.
 NSaved= 3 IEnMin= 3 EnMin= -278.244679165821     IErMin= 3 ErrMin= 4.82D-05
 ErrMax= 4.82D-05  0.00D+00 EMaxC= 1.00D-01 BMatC= 2.92D-07 BMatP= 5.56D-07
 IDIUse=1 WtCom= 1.00D+00 WtEn= 0.00D+00
 Coeff-Com: -0.609D-01 0.419D+00 0.642D+00
 Coeff:     -0.609D-01 0.419D+00 0.642D+00
 Gap=     0.509 Goal=   None    Shift=    0.000
 RMSDP=4.80D-06 MaxDP=8.63D-05 DE=-4.20D-07 OVMax= 9.71D-05

 Cycle   4  Pass 1  IDiag  1:
 E= -278.244679377416     Delta-E=       -0.000000211595 Rises=F Damp=F
 DIIS: error= 1.13D-05 at cycle   4 NSaved=   4.
 NSaved= 4 IEnMin= 4 EnMin= -278.244679377416     IErMin= 4 ErrMin= 1.13D-05
 ErrMax= 1.13D-05  0.00D+00 EMaxC= 1.00D-01 BMatC= 1.47D-08 BMatP= 2.92D-07
 IDIUse=1 WtCom= 1.00D+00 WtEn= 0.00D+00
 Coeff-Com: -0.218D-01 0.466D-01 0.207D+00 0.768D+00
 Coeff:     -0.218D-01 0.466D-01 0.207D+00 0.768D+00
 Gap=     0.509 Goal=   None    Shift=    0.000
 RMSDP=1.42D-06 MaxDP=2.05D-05 DE=-2.12D-07 OVMax= 2.83D-05

 Cycle   5  Pass 1  IDiag  1:
 E= -278.244679388615     Delta-E=       -0.000000011200 Rises=F Damp=F
 DIIS: error= 3.21D-06 at cycle   5 NSaved=   5.
 NSaved= 5 IEnMin= 5 EnMin= -278.244679388615     IErMin= 5 ErrMin= 3.21D-06
 ErrMax= 3.21D-06  0.00D+00 EMaxC= 1.00D-01 BMatC= 1.22D-09 BMatP= 1.47D-08
 IDIUse=1 WtCom= 1.00D+00 WtEn= 0.00D+00
 Coeff-Com: -0.192D-02-0.210D-01 0.177D-01 0.251D+00 0.754D+00
 Coeff:     -0.192D-02-0.210D-01 0.177D-01 0.251D+00 0.754D+00
 Gap=     0.509 Goal=   None    Shift=    0.000
 RMSDP=5.37D-07 MaxDP=8.15D-06 DE=-1.12D-08 OVMax= 1.26D-05

 Cycle   6  Pass 1  IDiag  1:
 E= -278.244679389953     Delta-E=       -0.000000001338 Rises=F Damp=F
 DIIS: error= 5.72D-07 at cycle   6 NSaved=   6.
 NSaved= 6 IEnMin= 6 EnMin= -278.244679389953     IErMin= 6 ErrMin= 5.72D-07
 ErrMax= 5.72D-07  0.00D+00 EMaxC= 1.00D-01 BMatC= 5.55D-11 BMatP= 1.22D-09
 IDIUse=1 WtCom= 1.00D+00 WtEn= 0.00D+00
 Coeff-Com:  0.189D-02-0.925D-02-0.180D-01-0.402D-01 0.115D+00 0.950D+00
 Coeff:      0.189D-02-0.925D-02-0.180D-01-0.402D-01 0.115D+00 0.950D+00
 Gap=     0.509 Goal=   None    Shift=    0.000
 RMSDP=2.19D-07 MaxDP=2.18D-06 DE=-1.34D-09 OVMax= 3.82D-06

 Cycle   7  Pass 1  IDiag  1:
 E= -278.244679390041     Delta-E=       -0.000000000087 Rises=F Damp=F
 DIIS: error= 6.33D-08 at cycle   7 NSaved=   7.
 NSaved= 7 IEnMin= 7 EnMin= -278.244679390041     IErMin= 7 ErrMin= 6.33D-08
 ErrMax= 6.33D-08  0.00D+00 EMaxC= 1.00D-01 BMatC= 5.16D-13 BMatP= 5.55D-11
 IDIUse=1 WtCom= 1.00D+00 WtEn= 0.00D+00
 Coeff-Com:  0.448D-04 0.522D-03-0.281D-03-0.488D-02-0.175D-01-0.202D-01
 Coeff-Com:  0.104D+01
 Coeff:      0.448D-04 0.522D-03-0.281D-03-0.488D-02-0.175D-01-0.202D-01
 Coeff:      0.104D+01
 Gap=     0.509 Goal=   None    Shift=    0.000
 RMSDP=3.69D-08 MaxDP=4.52D-07 DE=-8.72D-11 OVMax= 6.85D-07

 Cycle   8  Pass 1  IDiag  1:
 E= -278.244679390043     Delta-E=       -0.000000000002 Rises=F Damp=F
 DIIS: error= 1.19D-08 at cycle   8 NSaved=   8.
 NSaved= 8 IEnMin= 8 EnMin= -278.244679390043     IErMin= 8 ErrMin= 1.19D-08
 ErrMax= 1.19D-08  0.00D+00 EMaxC= 1.00D-01 BMatC= 2.19D-14 BMatP= 5.16D-13
 IDIUse=1 WtCom= 1.00D+00 WtEn= 0.00D+00
 Coeff-Com: -0.610D-04 0.310D-03 0.554D-03 0.146D-02-0.425D-02-0.353D-01
 Coeff-Com:  0.779D-02 0.103D+01
 Coeff:     -0.610D-04 0.310D-03 0.554D-03 0.146D-02-0.425D-02-0.353D-01
 Coeff:      0.779D-02 0.103D+01
 Gap=     0.509 Goal=   None    Shift=    0.000
 RMSDP=8.44D-09 MaxDP=1.24D-07 DE=-2.16D-12 OVMax= 1.41D-07

 SCF Done:  E(RwB97XD) =  -278.244679390     A.U. after    8 cycles
            NFock=  8  Conv=0.84D-08     -V/T= 2.0079
 KE= 2.760545096444D+02 PE=-9.214574670565D+02 EE= 2.351996918690D+02
 Leave Link  502 at Tue Mar 31 17:52:56 2026, MaxMem=   536870912 cpu:               5.1 elap:               1.4
 (Enter /Users/asuyarger/Applications/G16/g16/l701.exe)
 ... and contract with generalized density number  0.
 Compute integral first derivatives.
 R6Disp: Adding Grimme-D2 dispersion energy 1st derivatives to the gradient.
 Leave Link  701 at Tue Mar 31 17:52:56 2026, MaxMem=   536870912 cpu:               0.3 elap:               0.1
 (Enter /Users/asuyarger/Applications/G16/g16/l702.exe)
 L702 exits ... SP integral derivatives will be done elsewhere.
 Leave Link  702 at Tue Mar 31 17:52:56 2026, MaxMem=   536870912 cpu:               0.1 elap:               0.0
 (Enter /Users/asuyarger/Applications/G16/g16/l703.exe)
 Integral derivatives from FoFJK, PRISM(SPDF).
 Compute integral first derivatives, UseDBF=F ICtDFT=           0.
 Calling FoFJK, ICntrl=      2127 FMM=F ISym2X=1 I1Cent= 0 IOpClX= 0 NMat=1 NMatS=1 NMatT=0.
 FoFJK:  IHMeth= 1 ICntrl=    2127 DoSepK=T KAlg= 0 I1Cent=           0 FoldK=F
 IRaf=         1 NMat=       1 IRICut=       1 DoRegI=T DoRafI=F ISym2E= 1 IDoP0=0 IntGTp=1.
 FoFCou: FMM=F IPFlag=           0 FMFlag=      100000 FMFlg1=         800
         NFxFlg=           0 DoJE=F BraDBF=F KetDBF=F FulRan=T
         wScrn=  0.000000 ICntrl=      2527 IOpCl=  0 I1Cent=           0 NGrid=           0
         NMat0=    1 NMatS0=      1 NMatT0=    0 NMatD0=    1 NMtDS0=    0 NMtDT0=    0
 Petite list used in FoFCou.
 Leave Link  703 at Tue Mar 31 17:52:56 2026, MaxMem=   536870912 cpu:               2.0 elap:               0.5
 (Enter /Users/asuyarger/Applications/G16/g16/l716.exe)
 Dipole        =-1.43124987D-01 9.54410922D-01-2.99760217D-15
 ***** Axes restored to original set *****
 -------------------------------------------------------------------
 Center     Atomic                   Forces (Hartrees/Bohr)
 Number     Number              X              Y              Z
 -------------------------------------------------------------------
      1        6           0.000107899    0.000396820   -0.000405296
      2        1          -0.000098273   -0.000212292    0.000283042
      3        9           0.000082015   -0.000036787    0.000084752
      4        9          -0.000079198   -0.000093782   -0.000013970
      5        6           0.000082502   -0.000316990    0.000048282
      6        1           0.000032621    0.000109990    0.000125074
      7        1          -0.000164845    0.000040178    0.000004151
      8        1           0.000037279    0.000112861   -0.000126034
 -------------------------------------------------------------------
 Cartesian Forces:  Max     0.000405296 RMS     0.000170291
 Leave Link  716 at Tue Mar 31 17:52:56 2026, MaxMem=   536870912 cpu:               0.1 elap:               0.0
 (Enter /Users/asuyarger/Applications/G16/g16/l103.exe)

 GradGradGradGradGradGradGradGradGradGradGradGradGradGradGradGradGradGrad
 Berny optimization.
 Using GEDIIS/GDIIS optimizer.
 FormGI is forming the generalized inverse of G from B-inverse, IUseBI=4.
 Internal  Forces:  Max     0.000366476 RMS     0.000104977
 Search for a local minimum.
 Step number   4 out of a maximum of   38
 All quantities printed in internal units (Hartrees-Bohrs-Radians)
 RMS Force = .10498D-03 SwitMx=.10000D-02 MixMth= 2
 Mixed Optimization -- En-DIIS/RFO-DIIS
 Swapping is turned off.
 Update second derivatives using D2CorX and points    1    2    3    4
 DE= -1.74D-05 DEPred=-1.68D-05 R= 1.04D+00
 TightC=F SS=  1.41D+00  RLast= 1.25D-02 DXNew= 7.9638D-01 3.7411D-02
 Trust test= 1.04D+00 RLast= 1.25D-02 DXMaxT set to 4.74D-01
 ITU=  1  1  1  0
     Eigenvalues ---    0.00237   0.05456   0.05660   0.05671   0.07333
     Eigenvalues ---    0.14582   0.16000   0.16081   0.16542   0.23006
     Eigenvalues ---    0.25438   0.33622   0.36072   0.37230   0.37230
     Eigenvalues ---    0.37741   0.45541   0.55021
 En-DIIS/RFO-DIIS/Sim-DIIS IScMMF=       -3 using points:     4    3
 RFO step:  Lambda=-9.53795542D-07.
 NNeg= 0 NGDIIS= 2 SimSw=  2.50D-01 Rises=F DC= -1.74D-05 SmlDif=  1.00D-05
 NRisDI= 0 DoIntr=F SqrtH=F CThrHd= 10.0 CDAdj=  3.0
 RMS Error=  0.3504441276D-03 NUsed= 2 OKEnD=T EnDIS=F
 InvSVX:  RCond= 3.89D-05 Info=           0 Equed=N FErr=  1.05D-15 BErr=  9.09D-17
 DidBck=F Rises=F RFO-DIIS coefs:    1.03572   -0.03572
 Iteration  1 RMS(Cart)=  0.00038432 RMS(Int)=  0.00000016
 Iteration  2 RMS(Cart)=  0.00000012 RMS(Int)=  0.00000012
 ITry= 1 IFail=0 DXMaxC= 1.02D-03 DCOld= 1.00D+10 DXMaxT= 4.74D-01 DXLimC= 3.00D+00 Rises=F
 ClnCor:  largest displacement from symmetrization is 5.74D-09 for atom     4.
 Variable       Old X    -DE/DX   Delta X   Delta X   Delta X     New X
                                 (Linear)    (Quad)   (Total)
    R1        2.06704  -0.00037  -0.00012  -0.00092  -0.00104   2.06601
    R2        2.59016   0.00008   0.00011   0.00008   0.00019   2.59035
    R3        2.59016   0.00008   0.00011   0.00008   0.00019   2.59035
    R4        2.84251   0.00005   0.00004   0.00019   0.00023   2.84274
    R5        2.06638  -0.00017  -0.00007  -0.00038  -0.00045   2.06592
    R6        2.06638  -0.00017  -0.00007  -0.00038  -0.00045   2.06592
    R7        2.06632  -0.00017  -0.00007  -0.00038  -0.00046   2.06586
    A1        1.87169   0.00007  -0.00008   0.00036   0.00028   1.87197
    A2        1.87169   0.00007  -0.00008   0.00036   0.00028   1.87197
    A3        2.00046   0.00003   0.00020   0.00019   0.00039   2.00086
    A4        1.86545   0.00013  -0.00013   0.00038   0.00024   1.86569
    A5        1.92437  -0.00014   0.00003  -0.00062  -0.00058   1.92379
    A6        1.92437  -0.00014   0.00003  -0.00062  -0.00058   1.92379
    A7        1.91672  -0.00004   0.00011  -0.00029  -0.00019   1.91653
    A8        1.91672  -0.00004   0.00011  -0.00029  -0.00019   1.91653
    A9        1.91365  -0.00005   0.00005  -0.00033  -0.00028   1.91337
   A10        1.90308   0.00004  -0.00010   0.00037   0.00027   1.90335
   A11        1.90678   0.00004  -0.00008   0.00028   0.00020   1.90697
   A12        1.90678   0.00004  -0.00008   0.00028   0.00020   1.90697
    D1       -1.04632  -0.00000  -0.00000  -0.00005  -0.00005  -1.04637
    D2        1.04632   0.00000   0.00000   0.00005   0.00005   1.04637
    D3        3.14159  -0.00000  -0.00000  -0.00000   0.00000   3.14159
    D4        3.12316  -0.00001  -0.00006  -0.00019  -0.00026   3.12291
    D5       -1.06739  -0.00000  -0.00006  -0.00010  -0.00016  -1.06754
    D6        1.02789  -0.00000  -0.00006  -0.00015  -0.00021   1.02768
    D7        1.06739   0.00000   0.00006   0.00010   0.00016   1.06754
    D8       -3.12316   0.00001   0.00006   0.00019   0.00026  -3.12291
    D9       -1.02789   0.00000   0.00006   0.00015   0.00021  -1.02768
         Item               Value     Threshold  Converged?
 Maximum Force            0.000366     0.000450     YES
 RMS     Force            0.000105     0.000300     YES
 Maximum Displacement     0.001025     0.001800     YES
 RMS     Displacement     0.000384     0.001200     YES
 Predicted change in Energy=-4.768640D-07
 Optimization completed.
    -- Stationary point found.
                           ----------------------------
                           !   Optimized Parameters   !
                           ! (Angstroms and Degrees)  !
 --------------------------                            --------------------------
 ! Name  Definition              Value          Derivative Info.                !
 --------------------------------------------------------------------------------
 ! R1    R(1,2)                  1.0938         -DE/DX =   -0.0004              !
 ! R2    R(1,3)                  1.3707         -DE/DX =    0.0001              !
 ! R3    R(1,4)                  1.3707         -DE/DX =    0.0001              !
 ! R4    R(1,5)                  1.5042         -DE/DX =    0.0                 !
 ! R5    R(5,6)                  1.0935         -DE/DX =   -0.0002              !
 ! R6    R(5,7)                  1.0935         -DE/DX =   -0.0002              !
 ! R7    R(5,8)                  1.0934         -DE/DX =   -0.0002              !
 ! A1    A(2,1,3)              107.2401         -DE/DX =    0.0001              !
 ! A2    A(2,1,4)              107.2401         -DE/DX =    0.0001              !
 ! A3    A(2,1,5)              114.618          -DE/DX =    0.0                 !
 ! A4    A(3,1,4)              106.8822         -DE/DX =    0.0001              !
 ! A5    A(3,1,5)              110.2585         -DE/DX =   -0.0001              !
 ! A6    A(4,1,5)              110.2585         -DE/DX =   -0.0001              !
 ! A7    A(1,5,6)              109.8197         -DE/DX =    0.0                 !
 ! A8    A(1,5,7)              109.8197         -DE/DX =    0.0                 !
 ! A9    A(1,5,8)              109.6442         -DE/DX =    0.0                 !
 ! A10   A(6,5,7)              109.0385         -DE/DX =    0.0                 !
 ! A11   A(6,5,8)              109.2503         -DE/DX =    0.0                 !
 ! A12   A(7,5,8)              109.2503         -DE/DX =    0.0                 !
 ! D1    D(2,1,5,6)            -59.9495         -DE/DX =    0.0                 !
 ! D2    D(2,1,5,7)             59.9495         -DE/DX =    0.0                 !
 ! D3    D(2,1,5,8)            180.0            -DE/DX =    0.0                 !
 ! D4    D(3,1,5,6)            178.9442         -DE/DX =    0.0                 !
 ! D5    D(3,1,5,7)            -61.1568         -DE/DX =    0.0                 !
 ! D6    D(3,1,5,8)             58.8937         -DE/DX =    0.0                 !
 ! D7    D(4,1,5,6)             61.1568         -DE/DX =    0.0                 !
 ! D8    D(4,1,5,7)           -178.9442         -DE/DX =    0.0                 !
 ! D9    D(4,1,5,8)            -58.8937         -DE/DX =    0.0                 !
 --------------------------------------------------------------------------------
 Lowest energy point so far.  Saving SCF results.
 Largest change from initial coordinates is atom    2       0.004 Angstoms.
 GradGradGradGradGradGradGradGradGradGradGradGradGradGradGradGradGradGrad

 Leave Link  103 at Tue Mar 31 17:52:57 2026, MaxMem=   536870912 cpu:               0.1 elap:               0.0
 (Enter /Users/asuyarger/Applications/G16/g16/l202.exe)
                          Input orientation:                          
 ---------------------------------------------------------------------
 Center     Atomic      Atomic             Coordinates (Angstroms)
 Number     Number       Type             X           Y           Z
 ---------------------------------------------------------------------
      1          6           0        0.762565    0.070090   -0.015199
      2          1           0        1.086179    0.654729   -0.881190
      3          9           0        1.190217    0.733331    1.105481
      4          9           0       -0.607671    0.097706    0.004507
      5          6           0        1.255149   -1.351072    0.000891
      6          1           0        0.894467   -1.878552   -0.886448
      7          1           0        2.348541   -1.364480    0.003984
      8          1           0        0.885866   -1.857998    0.896593
 ---------------------------------------------------------------------
                    Distance matrix (angstroms):
                    1          2          3          4          5
     1  C    0.000000
     2  H    1.093832   0.000000
     3  F    1.370656   1.990945   0.000000
     4  F    1.370656   1.990945   2.201946   0.000000
     5  C    1.504194   2.197693   2.359888   2.359888   0.000000
     6  H    2.138616   2.540530   3.298057   2.637388   1.093479
     7  H    2.138616   2.540530   2.637388   3.298057   1.093479
     8  H    2.136373   3.084547   2.617489   2.617489   1.093447
                    6          7          8
     6  H    0.000000
     7  H    1.780863   0.000000
     8  H    1.783180   1.783180   0.000000
 Stoichiometry    C2H4F2
 Framework group  CS[SG(C2H2),X(H2F2)]
 Deg. of freedom    11
 Full point group                 CS      NOp   2
 RotChk:  IX=2 Diff= 6.13D-15
 Largest Abelian subgroup         CS      NOp   2
 Largest concise Abelian subgroup CS      NOp   2
                         Standard orientation:                         
 ---------------------------------------------------------------------
 Center     Atomic      Atomic             Coordinates (Angstroms)
 Number     Number       Type             X           Y           Z
 ---------------------------------------------------------------------
      1          6           0        0.322612    0.165787    0.000000
      2          1           0        1.271429    0.710044    0.000000
      3          9           0        0.322612   -0.650643   -1.100973
      4          9           0        0.322612   -0.650643    1.100973
      5          6           0       -0.901325    1.040188    0.000000
      6          1           0       -0.903550    1.674871    0.890431
      7          1           0       -0.903550    1.674871   -0.890431
      8          1           0       -1.799065    0.415938   -0.000000
 ---------------------------------------------------------------------
 Rotational constants (GHZ):           9.4244286           8.9300424           5.1422349
 Leave Link  202 at Tue Mar 31 17:52:57 2026, MaxMem=   536870912 cpu:               0.0 elap:               0.0
 (Enter /Users/asuyarger/Applications/G16/g16/l601.exe)
 Copying SCF densities to generalized density rwf, IOpCl= 0 IROHF=0.

 **********************************************************************

            Population analysis using the SCF density.

 **********************************************************************

 Orbital symmetries:
       Occupied  (A') (A") (A') (A') (A') (A") (A') (A') (A') (A")
                 (A') (A") (A') (A") (A') (A") (A')
       Virtual   (A') (A') (A") (A') (A") (A') (A') (A') (A") (A')
                 (A") (A') (A') (A') (A") (A') (A') (A") (A') (A")
                 (A') (A') (A") (A') (A") (A') (A') (A') (A") (A')
                 (A") (A') (A') (A') (A') (A") (A') (A") (A") (A')
                 (A') (A") (A') (A') (A") (A') (A") (A') (A") (A")
                 (A') (A") (A") (A') (A') (A') (A") (A') (A") (A')
                 (A') (A") (A') (A') (A') (A") (A')
 The electronic state is 1-A'.
 Alpha  occ. eigenvalues --  -24.84633 -24.84632 -10.46770 -10.31494  -1.35896
 Alpha  occ. eigenvalues --   -1.30090  -0.88252  -0.75277  -0.64987  -0.64006
 Alpha  occ. eigenvalues --   -0.59904  -0.52911  -0.51413  -0.50331  -0.48762
 Alpha  occ. eigenvalues --   -0.48177  -0.43207
 Alpha virt. eigenvalues --    0.07660   0.08745   0.10843   0.10988   0.12717
 Alpha virt. eigenvalues --    0.13402   0.13698   0.19854   0.21807   0.22091
 Alpha virt. eigenvalues --    0.27869   0.28933   0.30556   0.31881   0.33093
 Alpha virt. eigenvalues --    0.36023   0.37059   0.39631   0.40626   0.42774
 Alpha virt. eigenvalues --    0.44228   0.46079   0.48646   0.68816   0.73179
 Alpha virt. eigenvalues --    0.74395   0.79126   0.85893   0.86160   1.02310
 Alpha virt. eigenvalues --    1.03481   1.05830   1.18099   1.23661   1.34753
 Alpha virt. eigenvalues --    1.39861   1.50364   1.64194   1.67533   1.68094
 Alpha virt. eigenvalues --    1.71872   1.73030   1.73996   1.86159   1.87477
 Alpha virt. eigenvalues --    1.88838   1.92493   1.95264   1.95886   2.06557
 Alpha virt. eigenvalues --    2.09534   2.13870   2.25229   2.25811   2.26752
 Alpha virt. eigenvalues --    2.32137   2.32616   2.52512   2.67733   2.70530
 Alpha virt. eigenvalues --    2.82379   3.18795   3.19594   4.32142   4.59933
 Alpha virt. eigenvalues --    5.33659   5.63891
          Condensed to atoms (all electrons):
               1          2          3          4          5          6
     1  C    4.576962   0.424343   0.161596   0.161596   0.310783  -0.037886
     2  H    0.424343   0.559607  -0.058868  -0.058868  -0.056451  -0.001117
     3  F    0.161596  -0.058868   9.322244  -0.040439  -0.078750   0.007280
     4  F    0.161596  -0.058868  -0.040439   9.322244  -0.078750  -0.004633
     5  C    0.310783  -0.056451  -0.078750  -0.078750   5.518624   0.381804
     6  H   -0.037886  -0.001117   0.007280  -0.004633   0.381804   0.466165
     7  H   -0.037886  -0.001117  -0.004633   0.007280   0.381804  -0.024156
     8  H   -0.022907   0.003343  -0.004604  -0.004604   0.379835  -0.021515
               7          8
     1  C   -0.037886  -0.022907
     2  H   -0.001117   0.003343
     3  F   -0.004633  -0.004604
     4  F    0.007280  -0.004604
     5  C    0.381804   0.379835
     6  H   -0.024156  -0.021515
     7  H    0.466165  -0.021515
     8  H   -0.021515   0.446059
 Mulliken charges:
               1
     1  C    0.463400
     2  H    0.189127
     3  F   -0.303825
     4  F   -0.303825
     5  C   -0.758900
     6  H    0.234058
     7  H    0.234058
     8  H    0.245908
 Sum of Mulliken charges =  -0.00000
 Mulliken charges with hydrogens summed into heavy atoms:
               1
     1  C    0.652527
     3  F   -0.303825
     4  F   -0.303825
     5  C   -0.044877
 Electronic spatial extent (au):  <R**2>=            258.6689
 Charge=             -0.0000 electrons
 Dipole moment (field-independent basis, Debye):
    X=             -0.3638    Y=              2.4259    Z=             -0.0000  Tot=              2.4530
 Quadrupole moment (field-independent basis, Debye-Ang):
   XX=            -21.4656   YY=            -23.0160   ZZ=            -25.6824
   XY=              0.5503   XZ=             -0.0000   YZ=              0.0000
 Traceless Quadrupole moment (field-independent basis, Debye-Ang):
   XX=              1.9224   YY=              0.3720   ZZ=             -2.2944
   XY=              0.5503   XZ=             -0.0000   YZ=              0.0000
 Octapole moment (field-independent basis, Debye-Ang**2):
  XXX=              4.6542  YYY=             -6.7082  ZZZ=             -0.0000  XYY=              0.9440
  XXY=             -2.2048  XXZ=              0.0000  XZZ=              0.3464  YZZ=              0.1042
  YYZ=             -0.0000  XYZ=              0.0000
 Hexadecapole moment (field-independent basis, Debye-Ang**3):
 XXXX=            -78.2836 YYYY=           -106.5224 ZZZZ=           -102.2383 XXXY=             28.6917
 XXXZ=             -0.0000 YYYX=             25.9192 YYYZ=              0.0000 ZZZX=             -0.0000
 ZZZY=              0.0000 XXYY=            -31.7761 XXZZ=            -31.2938 YYZZ=            -32.4221
 XXYZ=              0.0000 YYXZ=             -0.0000 ZZXY=              8.4495
 N-N= 1.319585861530D+02 E-N=-9.214574669381D+02  KE= 2.760545096444D+02
 Symmetry A'   KE= 1.731287096944D+02
 Symmetry A"   KE= 1.029257999500D+02
 No NMR shielding tensors so no spin-rotation constants.
 Leave Link  601 at Tue Mar 31 17:52:57 2026, MaxMem=   536870912 cpu:               0.3 elap:               0.1
 (Enter /Users/asuyarger/Applications/G16/g16/l9999.exe)
 1\1\GINC-JEFFSMACSTUDIO\FOpt\RwB97XD\6-31+G(d)\C2H4F2\ROOT\31-Mar-2026
 \0\\#p opt freq=raman wb97xd/6-31+g(d) guess=save geom=connectivity po
 lar\\R152a - 1,1-difluoroethane\\0,1\C,0.7625651872,0.070089773,-0.015
 1990783\H,1.0861794749,0.6547286294,-0.8811899857\F,1.1902174141,0.733
 3308633,1.1054807231\F,-0.6076710621,0.097706378,0.0045070725\C,1.2551
 492429,-1.3510724413,0.0008905928\H,0.8944670354,-1.8785521482,-0.8864
 477021\H,2.348541407,-1.3644795089,0.0039843744\H,0.8858660182,-1.8579
 982142,0.8965927624\\Version=EM64M-G16RevA.03\State=1-A'\HF=-278.24467
 94\RMSD=8.436e-09\RMSF=1.703e-04\Dipole=0.5495196,-0.5267344,-0.593265
 5\Quadrupole=-1.04023,0.6643139,0.3759161,-0.2562691,-0.9389884,-0.949
 8724\PG=CS [SG(C2H2),X(H2F2)]\\@


 Democracy is the recurrent suspicion that more than half of the people
 are right more than half of the time.
 -- E. B. White
 Leave Link 9999 at Tue Mar 31 17:52:57 2026, MaxMem=   536870912 cpu:               0.1 elap:               0.0
 Job cpu time:       0 days  0 hours  0 minutes 39.9 seconds.
 Elapsed time:       0 days  0 hours  0 minutes 10.9 seconds.
 File lengths (MBytes):  RWF=     10 Int=      0 D2E=      0 Chk=      2 Scr=      1
 Normal termination of Gaussian 16 at Tue Mar 31 17:52:57 2026.
 (Enter /Users/asuyarger/Applications/G16/g16/l1.exe)
 Link1:  Proceeding to internal job step number  2.
 ----------------------------------------------------------------------
 #P Geom=AllCheck Guess=TCheck SCRF=Check GenChk RwB97XD/6-31+G(d) Freq
 ----------------------------------------------------------------------
 1/10=4,29=7,30=1,38=1,40=1/1,3;
 2/12=2,40=1/2;
 3/5=1,6=6,7=11,11=2,14=-4,25=1,30=1,70=2,71=2,74=-58,116=1,140=1/1,2,3;
 4/5=101/1;
 5/5=2,38=6,98=1/2;
 8/6=4,10=90,11=11/1;
 10/13=10,15=4/2;
 11/6=3,8=1,9=11,15=111,16=1/1,2,10;
 10/6=1/2;
 6/7=2,8=2,9=2,10=2,28=1/1;
 7/8=1,10=1,25=1/1,2,3,16;
 1/10=4,30=1/3;
 99//99;
 Leave Link    1 at Tue Mar 31 17:52:57 2026, MaxMem=   536870912 cpu:               0.0 elap:               0.0
 (Enter /Users/asuyarger/Applications/G16/g16/l101.exe)
 Structure from the checkpoint file:  "11Difluoroethane_Opt_Freq_DFT_WB97XD_631pd_Gaussian16.chk"
 --------------------------
 R152a - 1,1-difluoroethane
 --------------------------
 Charge =  0 Multiplicity = 1
 Redundant internal coordinates found in file.  (old form).
 C,0,0.7625651872,0.070089773,-0.0151990783
 H,0,1.0861794749,0.6547286294,-0.8811899857
 F,0,1.1902174141,0.7333308633,1.1054807231
 F,0,-0.6076710621,0.097706378,0.0045070725
 C,0,1.2551492429,-1.3510724413,0.0008905928
 H,0,0.8944670354,-1.8785521482,-0.8864477021
 H,0,2.348541407,-1.3644795089,0.0039843744
 H,0,0.8858660182,-1.8579982142,0.8965927624
 Recover connectivity data from disk.
 ITRead=  0  0  0  0  0  0  0  0
 MicOpt= -1 -1 -1 -1 -1 -1 -1 -1
 NAtoms=      8 NQM=        8 NQMF=       0 NMMI=      0 NMMIF=      0
                NMic=       0 NMicF=      0.
                    Isotopes and Nuclear Properties:
 (Nuclear quadrupole moments (NQMom) in fm**2, nuclear magnetic moments (NMagM)
  in nuclear magnetons)

  Atom         1           2           3           4           5           6           7           8
 IAtWgt=          12           1          19          19          12           1           1           1
 AtmWgt=  12.0000000   1.0078250  18.9984033  18.9984033  12.0000000   1.0078250   1.0078250   1.0078250
 NucSpn=           0           1           1           1           0           1           1           1
 AtZEff=   3.6000000   1.0000000   6.7500000   6.7500000   3.6000000   1.0000000   1.0000000   1.0000000
 NQMom=    0.0000000   0.0000000   0.0000000   0.0000000   0.0000000   0.0000000   0.0000000   0.0000000
 NMagM=    0.0000000   2.7928460   2.6288670   2.6288670   0.0000000   2.7928460   2.7928460   2.7928460
 AtZNuc=   6.0000000   1.0000000   9.0000000   9.0000000   6.0000000   1.0000000   1.0000000   1.0000000
 Leave Link  101 at Tue Mar 31 17:52:57 2026, MaxMem=   536870912 cpu:               0.5 elap:               0.1
 (Enter /Users/asuyarger/Applications/G16/g16/l103.exe)

 GradGradGradGradGradGradGradGradGradGradGradGradGradGradGradGradGradGrad
 Berny optimization.
 Initialization pass.
                           ----------------------------
                           !    Initial Parameters    !
                           ! (Angstroms and Degrees)  !
 --------------------------                            --------------------------
 ! Name  Definition              Value          Derivative Info.                !
 --------------------------------------------------------------------------------
 ! R1    R(1,2)                  1.0938         calculate D2E/DX2 analytically  !
 ! R2    R(1,3)                  1.3707         calculate D2E/DX2 analytically  !
 ! R3    R(1,4)                  1.3707         calculate D2E/DX2 analytically  !
 ! R4    R(1,5)                  1.5042         calculate D2E/DX2 analytically  !
 ! R5    R(5,6)                  1.0935         calculate D2E/DX2 analytically  !
 ! R6    R(5,7)                  1.0935         calculate D2E/DX2 analytically  !
 ! R7    R(5,8)                  1.0934         calculate D2E/DX2 analytically  !
 ! A1    A(2,1,3)              107.2401         calculate D2E/DX2 analytically  !
 ! A2    A(2,1,4)              107.2401         calculate D2E/DX2 analytically  !
 ! A3    A(2,1,5)              114.618          calculate D2E/DX2 analytically  !
 ! A4    A(3,1,4)              106.8822         calculate D2E/DX2 analytically  !
 ! A5    A(3,1,5)              110.2585         calculate D2E/DX2 analytically  !
 ! A6    A(4,1,5)              110.2585         calculate D2E/DX2 analytically  !
 ! A7    A(1,5,6)              109.8197         calculate D2E/DX2 analytically  !
 ! A8    A(1,5,7)              109.8197         calculate D2E/DX2 analytically  !
 ! A9    A(1,5,8)              109.6442         calculate D2E/DX2 analytically  !
 ! A10   A(6,5,7)              109.0385         calculate D2E/DX2 analytically  !
 ! A11   A(6,5,8)              109.2503         calculate D2E/DX2 analytically  !
 ! A12   A(7,5,8)              109.2503         calculate D2E/DX2 analytically  !
 ! D1    D(2,1,5,6)            -59.9495         calculate D2E/DX2 analytically  !
 ! D2    D(2,1,5,7)             59.9495         calculate D2E/DX2 analytically  !
 ! D3    D(2,1,5,8)            180.0            calculate D2E/DX2 analytically  !
 ! D4    D(3,1,5,6)            178.9442         calculate D2E/DX2 analytically  !
 ! D5    D(3,1,5,7)            -61.1568         calculate D2E/DX2 analytically  !
 ! D6    D(3,1,5,8)             58.8937         calculate D2E/DX2 analytically  !
 ! D7    D(4,1,5,6)             61.1568         calculate D2E/DX2 analytically  !
 ! D8    D(4,1,5,7)           -178.9442         calculate D2E/DX2 analytically  !
 ! D9    D(4,1,5,8)            -58.8937         calculate D2E/DX2 analytically  !
 --------------------------------------------------------------------------------
 Trust Radius=3.00D-01 FncErr=1.00D-07 GrdErr=1.00D-07 EigMax=2.50D+02 EigMin=1.00D-04
 Number of steps in this run=      2 maximum allowed number of steps=      2.
 GradGradGradGradGradGradGradGradGradGradGradGradGradGradGradGradGradGrad

 Leave Link  103 at Tue Mar 31 17:52:57 2026, MaxMem=   536870912 cpu:               0.0 elap:               0.0
 (Enter /Users/asuyarger/Applications/G16/g16/l202.exe)
                          Input orientation:                          
 ---------------------------------------------------------------------
 Center     Atomic      Atomic             Coordinates (Angstroms)
 Number     Number       Type             X           Y           Z
 ---------------------------------------------------------------------
      1          6           0        0.762565    0.070090   -0.015199
      2          1           0        1.086179    0.654729   -0.881190
      3          9           0        1.190217    0.733331    1.105481
      4          9           0       -0.607671    0.097706    0.004507
      5          6           0        1.255149   -1.351072    0.000891
      6          1           0        0.894467   -1.878552   -0.886448
      7          1           0        2.348541   -1.364480    0.003984
      8          1           0        0.885866   -1.857998    0.896593
 ---------------------------------------------------------------------
                    Distance matrix (angstroms):
                    1          2          3          4          5
     1  C    0.000000
     2  H    1.093832   0.000000
     3  F    1.370656   1.990945   0.000000
     4  F    1.370656   1.990945   2.201946   0.000000
     5  C    1.504194   2.197693   2.359888   2.359888   0.000000
     6  H    2.138616   2.540530   3.298057   2.637388   1.093479
     7  H    2.138616   2.540530   2.637388   3.298057   1.093479
     8  H    2.136373   3.084547   2.617489   2.617489   1.093447
                    6          7          8
     6  H    0.000000
     7  H    1.780863   0.000000
     8  H    1.783180   1.783180   0.000000
 Stoichiometry    C2H4F2
 Framework group  CS[SG(C2H2),X(H2F2)]
 Deg. of freedom    11
 Full point group                 CS      NOp   2
 RotChk:  IX=2 Diff= 2.81D-15
 Largest Abelian subgroup         CS      NOp   2
 Largest concise Abelian subgroup CS      NOp   2
                         Standard orientation:                         
 ---------------------------------------------------------------------
 Center     Atomic      Atomic             Coordinates (Angstroms)
 Number     Number       Type             X           Y           Z
 ---------------------------------------------------------------------
      1          6           0        0.322612    0.165787    0.000000
      2          1           0        1.271429    0.710044    0.000000
      3          9           0        0.322612   -0.650643   -1.100973
      4          9           0        0.322612   -0.650643    1.100973
      5          6           0       -0.901325    1.040188    0.000000
      6          1           0       -0.903550    1.674871    0.890431
      7          1           0       -0.903550    1.674871   -0.890431
      8          1           0       -1.799065    0.415938   -0.000000
 ---------------------------------------------------------------------
 Rotational constants (GHZ):           9.4244286           8.9300424           5.1422349
 Leave Link  202 at Tue Mar 31 17:52:57 2026, MaxMem=   536870912 cpu:               0.0 elap:               0.0
 (Enter /Users/asuyarger/Applications/G16/g16/l301.exe)
 Standard basis: 6-31+G(d) (6D, 7F)
 Ernie: Thresh=  0.10000D-02 Tol=  0.10000D-05 Strict=F.
 There are    53 symmetry adapted cartesian basis functions of A'  symmetry.
 There are    31 symmetry adapted cartesian basis functions of A"  symmetry.
 There are    53 symmetry adapted basis functions of A'  symmetry.
 There are    31 symmetry adapted basis functions of A"  symmetry.
    84 basis functions,   144 primitive gaussians,    84 cartesian basis functions
    17 alpha electrons       17 beta electrons
       nuclear repulsion energy       131.9606074261 Hartrees.
 IExCor= 4639 DFT=T Ex+Corr=wB97XD ExCW=0 ScaHFX=  1.000000
 ScaDFX=  1.000000  1.000000  1.000000  1.000000 ScalE2=  1.000000  1.000000
 IRadAn=      5 IRanWt=     -1 IRanGd=            0 ICorTp=0 IEmpDi=121
 HFx  wShort=  0.000000 wLong=  0.200000 cFull=  0.222036 cShort=  0.000000 cLong=  0.777964
 DFx  wShort=  0.000000 wLong=  0.200000 cFull=  0.000000 cShort=  0.000000 cLong=  1.000000
 NAtoms=    8 NActive=    8 NUniq=    6 SFac= 1.78D+00 NAtFMM=   60 NAOKFM=F Big=F
 Integral buffers will be    131072 words long.
 Raffenetti 2 integral format.
 Two-electron integral symmetry is turned on.
 R6Disp:  Grimme-D2 Dispersion energy=       -0.0020212730 Hartrees.
 Nuclear repulsion after empirical dispersion term =      131.9585861530 Hartrees.
 Leave Link  301 at Tue Mar 31 17:52:57 2026, MaxMem=   536870912 cpu:               0.1 elap:               0.0
 (Enter /Users/asuyarger/Applications/G16/g16/l302.exe)
 NPDir=0 NMtPBC=     1 NCelOv=     1 NCel=       1 NClECP=     1 NCelD=      1
         NCelK=      1 NCelE2=     1 NClLst=     1 CellRange=     0.0.
 One-electron integrals computed using PRISM.
 One-electron integral symmetry used in STVInt
 NBasis=    84 RedAO= T EigKep=  2.49D-04  NBF=    53    31
 NBsUse=    84 1.00D-06 EigRej= -1.00D+00 NBFU=    53    31
 Precomputing XC quadrature grid using
 IXCGrd= 4 IRadAn=           5 IRanWt=          -1 IRanGd=           0 AccXCQ= 0.00D+00.
 Generated NRdTot=       0 NPtTot=           0 NUsed=           0 NTot=          32
 NSgBfM=    84    84    84    84    84 MxSgAt=     8 MxSgA2=     8.
 Leave Link  302 at Tue Mar 31 17:52:57 2026, MaxMem=   536870912 cpu:               0.4 elap:               0.1
 (Enter /Users/asuyarger/Applications/G16/g16/l303.exe)
 DipDrv:  MaxL=1.
 Leave Link  303 at Tue Mar 31 17:52:57 2026, MaxMem=   536870912 cpu:               0.1 elap:               0.0
 (Enter /Users/asuyarger/Applications/G16/g16/l401.exe)
 Initial guess from the checkpoint file:  "11Difluoroethane_Opt_Freq_DFT_WB97XD_631pd_Gaussian16.chk"
 B after Tr=    -0.000000   -0.000000   -0.000000
         Rot=    1.000000   -0.000000    0.000000   -0.000000 Ang=   0.00 deg.
 Guess basis will be translated and rotated to current coordinates.
 JPrj=2 DoOrth=T DoCkMO=T.
 Initial guess orbital symmetries:
       Occupied  (A') (A") (A') (A') (A') (A") (A') (A') (A') (A")
                 (A') (A") (A') (A") (A') (A") (A')
       Virtual   (A') (A') (A") (A') (A") (A') (A') (A') (A") (A')
                 (A") (A') (A') (A') (A") (A') (A') (A") (A') (A")
                 (A') (A') (A") (A') (A") (A') (A') (A') (A") (A')
                 (A") (A') (A') (A') (A') (A") (A') (A") (A") (A')
                 (A') (A") (A') (A') (A") (A') (A") (A') (A") (A")
                 (A') (A") (A") (A') (A') (A') (A") (A') (A") (A')
                 (A') (A") (A') (A') (A') (A") (A')
 The electronic state of the initial guess is 1-A'.
 Leave Link  401 at Tue Mar 31 17:52:57 2026, MaxMem=   536870912 cpu:               0.2 elap:               0.0
 (Enter /Users/asuyarger/Applications/G16/g16/l502.exe)
 Keep R1 ints in memory in symmetry-blocked form, NReq=19173689.
 FoFCou: FMM=F IPFlag=           0 FMFlag=           0 FMFlg1=           0
         NFxFlg=           0 DoJE=F BraDBF=F KetDBF=F FulRan=T
         wScrn=  0.000000 ICntrl=       600 IOpCl=  0 I1Cent=           0 NGrid=           0
         NMat0=    1 NMatS0=   3570 NMatT0=    0 NMatD0=    1 NMtDS0=    0 NMtDT0=    0
 Petite list used in FoFCou.
 Closed shell SCF:
 Using DIIS extrapolation, IDIIS=  1040.
 NGot=   536870912 LenX=   533638906 LenY=   533631409
 Requested convergence on RMS density matrix=1.00D-08 within 128 cycles.
 Requested convergence on MAX density matrix=1.00D-06.
 Requested convergence on             energy=1.00D-06.
 No special actions if energy rises.

 Cycle   1  Pass 1  IDiag  1:
 E= -278.244679390041    
 DIIS: error= 1.84D-09 at cycle   1 NSaved=   1.
 NSaved= 1 IEnMin= 1 EnMin= -278.244679390041     IErMin= 1 ErrMin= 1.84D-09
 ErrMax= 1.84D-09  0.00D+00 EMaxC= 1.00D-01 BMatC= 4.44D-16 BMatP= 4.44D-16
 IDIUse=1 WtCom= 1.00D+00 WtEn= 0.00D+00
 Coeff-Com:  0.100D+01
 Coeff:      0.100D+01
 Gap=     0.509 Goal=   None    Shift=    0.000
 RMSDP=1.01D-09 MaxDP=1.42D-08              OVMax= 1.69D-08

 SCF Done:  E(RwB97XD) =  -278.244679390     A.U. after    1 cycles
            NFock=  1  Conv=0.10D-08     -V/T= 2.0079
 KE= 2.760545096557D+02 PE=-9.214574669494D+02 EE= 2.351996917507D+02
 Leave Link  502 at Tue Mar 31 17:52:58 2026, MaxMem=   536870912 cpu:               1.7 elap:               0.5
 (Enter /Users/asuyarger/Applications/G16/g16/l801.exe)
 DoSCS=F DFT=T ScalE2(SS,OS)=  1.000000  1.000000
 Range of M.O.s used for correlation:     1    84
 NBasis=    84 NAE=    17 NBE=    17 NFC=     0 NFV=     0
 NROrb=     84 NOA=    17 NOB=    17 NVA=    67 NVB=    67

 **** Warning!!: The largest alpha MO coefficient is  0.31145667D+02

 Leave Link  801 at Tue Mar 31 17:52:58 2026, MaxMem=   536870912 cpu:               0.1 elap:               0.0
 (Enter /Users/asuyarger/Applications/G16/g16/l1002.exe)
 Minotr:  Closed shell wavefunction.
          Direct CPHF calculation.
          Differentiating once with respect to electric field.
                with respect to dipole field.
          Electric field/nuclear overlap derivatives assumed to be zero.
          Using symmetry in CPHF.
          Requested convergence is 1.0D-08 RMS, and 1.0D-07 maximum.
          Secondary convergence is 1.0D-12 RMS, and 1.0D-12 maximum.
          NewPWx=F KeepS1=T KeepF1=T KeepIn=T MapXYZ=F SortEE=F KeepMc=T.
         2441 words used for storage of precomputed grid.
 Keep R1 ints in memory in symmetry-blocked form, NReq=19177018.
 FoFCou: FMM=F IPFlag=           0 FMFlag=           0 FMFlg1=           0
         NFxFlg=           0 DoJE=F BraDBF=F KetDBF=F FulRan=T
         wScrn=  0.000000 ICntrl=       600 IOpCl=  0 I1Cent=           0 NGrid=           0
         NMat0=    1 NMatS0=   3570 NMatT0=    0 NMatD0=    1 NMtDS0=    0 NMtDT0=    0
 Petite list used in FoFCou.
 Two-electron integral symmetry used by symmetrizing perturbed Fock matrices.
          MDV=     536870912 using IRadAn=       1.
          Solving linear equations simultaneously, MaxMat=       0.
          There are     3 degrees of freedom in the 1st order CPHF.  IDoFFX=0 NUNeed=     3.
      3 vectors produced by pass  0 Test12= 3.80D-14 3.33D-08 XBig12= 8.37D+00 1.12D+00.
 AX will form     3 AO Fock derivatives at one time.
      3 vectors produced by pass  1 Test12= 3.80D-14 3.33D-08 XBig12= 1.18D+00 2.62D-01.
      3 vectors produced by pass  2 Test12= 3.80D-14 3.33D-08 XBig12= 2.55D-01 1.11D-01.
      3 vectors produced by pass  3 Test12= 3.80D-14 3.33D-08 XBig12= 8.90D-03 2.07D-02.
      3 vectors produced by pass  4 Test12= 3.80D-14 3.33D-08 XBig12= 8.01D-04 4.93D-03.
      3 vectors produced by pass  5 Test12= 3.80D-14 3.33D-08 XBig12= 3.28D-05 1.35D-03.
      3 vectors produced by pass  6 Test12= 3.80D-14 3.33D-08 XBig12= 8.41D-07 1.74D-04.
      3 vectors produced by pass  7 Test12= 3.80D-14 3.33D-08 XBig12= 2.61D-08 3.08D-05.
      3 vectors produced by pass  8 Test12= 3.80D-14 3.33D-08 XBig12= 3.82D-10 4.05D-06.
      3 vectors produced by pass  9 Test12= 3.80D-14 3.33D-08 XBig12= 5.23D-12 5.22D-07.
      1 vectors produced by pass 10 Test12= 3.80D-14 3.33D-08 XBig12= 7.66D-14 4.60D-08.
 InvSVY:  IOpt=1 It=  1 EMax= 8.88D-16
 Solved reduced A of dimension    31 with     3 vectors.
 End of Minotr F.D. properties file   721 does not exist.
 End of Minotr F.D. properties file   722 does not exist.
 End of Minotr F.D. properties file   788 does not exist.
 Leave Link 1002 at Tue Mar 31 17:52:59 2026, MaxMem=   536870912 cpu:               4.1 elap:               1.1
 (Enter /Users/asuyarger/Applications/G16/g16/l1101.exe)
 Using compressed storage, NAtomX=     8.
 Will process      9 centers per pass.
 R6Disp: Adding Grimme-D2 dispersion energy 1st derivatives to the gradient.
 Leave Link 1101 at Tue Mar 31 17:52:59 2026, MaxMem=   536870912 cpu:               0.3 elap:               0.1
 (Enter /Users/asuyarger/Applications/G16/g16/l1102.exe)
 Symmetrizing basis deriv contribution to polar:
 IMax=3 JMax=2 DiffMx= 0.00D+00
 Leave Link 1102 at Tue Mar 31 17:52:59 2026, MaxMem=   536870912 cpu:               0.1 elap:               0.0
 (Enter /Users/asuyarger/Applications/G16/g16/l1110.exe)
 Forming Gx(P) for the SCF density, NAtomX=     8.
 Integral derivatives from FoFJK, PRISM(SPDF).
 Do as many integral derivatives as possible in FoFJK.
 G2DrvN: MDV=     536870200.
 G2DrvN: will do     9 centers at a time, making    1 passes.
 PxScal for G2LodP:  IOpCl= 0 ISclPx=1 IMOff=     1 NMtTot=     4 NTT=    3570 ScalPx= 2.24D+00
 Calling FoFCou, ICntrl=  3107 FMM=F I1Cent=   0 AccDes= 0.00D+00.
 FoFJK:  IHMeth= 1 ICntrl=    3107 DoSepK=T KAlg= 0 I1Cent=           0 FoldK=F
 IRaf=         1 NMat=       1 IRICut=       1 DoRegI=T DoRafI=F ISym2E= 1 IDoP0=0 IntGTp=1.
 FoFCou: FMM=F IPFlag=           0 FMFlag=      100000 FMFlg1=           0
         NFxFlg=           0 DoJE=F BraDBF=F KetDBF=F FulRan=T
         wScrn=  0.000000 ICntrl=      3507 IOpCl=  0 I1Cent=           0 NGrid=           0
         NMat0=    1 NMatS0=      1 NMatT0=    0 NMatD0=    4 NMtDS0=    3 NMtDT0=    0
 Petite list used in FoFCou.
 End of G2Drv F.D. properties file   721 does not exist.
 End of G2Drv F.D. properties file   722 does not exist.
 End of G2Drv F.D. properties file   788 does not exist.
 Leave Link 1110 at Tue Mar 31 17:53:02 2026, MaxMem=   536870912 cpu:              12.7 elap:               3.2
 (Enter /Users/asuyarger/Applications/G16/g16/l1002.exe)
 Minotr:  Closed shell wavefunction.
          IDoAtm=11111111
          Direct CPHF calculation.
          Differentiating once with respect to electric field.
                with respect to dipole field.
          Differentiating once with respect to nuclear coordinates.
          Using symmetry in CPHF.
          Requested convergence is 1.0D-08 RMS, and 1.0D-07 maximum.
          Secondary convergence is 1.0D-12 RMS, and 1.0D-12 maximum.
          NewPWx=T KeepS1=F KeepF1=F KeepIn=T MapXYZ=F SortEE=F KeepMc=T.
         2441 words used for storage of precomputed grid.
 Keep R1 ints in memory in symmetry-blocked form, NReq=19177202.
 FoFCou: FMM=F IPFlag=           0 FMFlag=           0 FMFlg1=           0
         NFxFlg=           0 DoJE=F BraDBF=F KetDBF=F FulRan=T
         wScrn=  0.000000 ICntrl=       600 IOpCl=  0 I1Cent=           0 NGrid=           0
         NMat0=    1 NMatS0=   3570 NMatT0=    0 NMatD0=    1 NMtDS0=    0 NMtDT0=    0
 Petite list used in FoFCou.
          MDV=     536870912 using IRadAn=       1.
          Solving linear equations simultaneously, MaxMat=       0.
          There are    21 degrees of freedom in the 1st order CPHF.  IDoFFX=4 NUNeed=    21.
 Will reuse    3 saved solutions.
     18 vectors produced by pass  0 Test12= 5.42D-15 4.76D-09 XBig12= 8.14D-02 7.64D-02.
 AX will form    18 AO Fock derivatives at one time.
     18 vectors produced by pass  1 Test12= 5.42D-15 4.76D-09 XBig12= 9.77D-03 2.51D-02.
     18 vectors produced by pass  2 Test12= 5.42D-15 4.76D-09 XBig12= 9.19D-04 6.35D-03.
     18 vectors produced by pass  3 Test12= 5.42D-15 4.76D-09 XBig12= 1.15D-05 7.15D-04.
     18 vectors produced by pass  4 Test12= 5.42D-15 4.76D-09 XBig12= 7.42D-08 5.39D-05.
     18 vectors produced by pass  5 Test12= 5.42D-15 4.76D-09 XBig12= 3.26D-10 3.98D-06.
     14 vectors produced by pass  6 Test12= 5.42D-15 4.76D-09 XBig12= 1.75D-12 2.61D-07.
      2 vectors produced by pass  7 Test12= 5.42D-15 4.76D-09 XBig12= 9.35D-15 1.96D-08.
 InvSVY:  IOpt=1 It=  1 EMax= 5.00D-16
 Solved reduced A of dimension   124 with    21 vectors.
 FullF1:  Do perturbations      1 to      21.
 Isotropic polarizability for W=    0.000000       26.32 Bohr**3.
 FullF1:  Do perturbations      1 to       6.
 End of Minotr F.D. properties file   721 does not exist.
 End of Minotr F.D. properties file   722 does not exist.
 End of Minotr F.D. properties file   788 does not exist.
 Leave Link 1002 at Tue Mar 31 17:53:06 2026, MaxMem=   536870912 cpu:              15.8 elap:               4.0
 (Enter /Users/asuyarger/Applications/G16/g16/l601.exe)
 Copying SCF densities to generalized density rwf, IOpCl= 0 IROHF=0.

 **********************************************************************

            Population analysis using the SCF density.

 **********************************************************************

 Orbital symmetries:
       Occupied  (A') (A") (A') (A') (A') (A") (A') (A') (A') (A")
                 (A') (A") (A') (A") (A') (A") (A')
       Virtual   (A') (A') (A") (A') (A") (A') (A') (A') (A") (A')
                 (A") (A') (A') (A') (A") (A') (A') (A") (A') (A")
                 (A') (A') (A") (A') (A") (A') (A') (A') (A") (A')
                 (A") (A') (A') (A') (A') (A") (A') (A") (A") (A')
                 (A') (A") (A') (A') (A") (A') (A") (A') (A") (A")
                 (A') (A") (A") (A') (A') (A') (A") (A') (A") (A')
                 (A') (A") (A') (A') (A') (A") (A')
 The electronic state is 1-A'.
 Alpha  occ. eigenvalues --  -24.84633 -24.84632 -10.46770 -10.31494  -1.35896
 Alpha  occ. eigenvalues --   -1.30090  -0.88252  -0.75277  -0.64987  -0.64006
 Alpha  occ. eigenvalues --   -0.59904  -0.52911  -0.51413  -0.50331  -0.48762
 Alpha  occ. eigenvalues --   -0.48177  -0.43207
 Alpha virt. eigenvalues --    0.07660   0.08745   0.10843   0.10988   0.12717
 Alpha virt. eigenvalues --    0.13402   0.13698   0.19854   0.21807   0.22091
 Alpha virt. eigenvalues --    0.27869   0.28933   0.30556   0.31881   0.33093
 Alpha virt. eigenvalues --    0.36023   0.37059   0.39631   0.40626   0.42774
 Alpha virt. eigenvalues --    0.44228   0.46079   0.48646   0.68816   0.73179
 Alpha virt. eigenvalues --    0.74395   0.79126   0.85893   0.86160   1.02310
 Alpha virt. eigenvalues --    1.03481   1.05830   1.18099   1.23661   1.34753
 Alpha virt. eigenvalues --    1.39861   1.50364   1.64194   1.67533   1.68094
 Alpha virt. eigenvalues --    1.71872   1.73030   1.73996   1.86159   1.87477
 Alpha virt. eigenvalues --    1.88838   1.92493   1.95264   1.95886   2.06557
 Alpha virt. eigenvalues --    2.09534   2.13870   2.25229   2.25811   2.26752
 Alpha virt. eigenvalues --    2.32137   2.32616   2.52512   2.67733   2.70530
 Alpha virt. eigenvalues --    2.82379   3.18795   3.19594   4.32142   4.59933
 Alpha virt. eigenvalues --    5.33659   5.63891
          Condensed to atoms (all electrons):
               1          2          3          4          5          6
     1  C    4.576962   0.424343   0.161596   0.161596   0.310783  -0.037886
     2  H    0.424343   0.559607  -0.058868  -0.058868  -0.056451  -0.001117
     3  F    0.161596  -0.058868   9.322244  -0.040439  -0.078750   0.007280
     4  F    0.161596  -0.058868  -0.040439   9.322244  -0.078750  -0.004633
     5  C    0.310783  -0.056451  -0.078750  -0.078750   5.518624   0.381804
     6  H   -0.037886  -0.001117   0.007280  -0.004633   0.381804   0.466165
     7  H   -0.037886  -0.001117  -0.004633   0.007280   0.381804  -0.024156
     8  H   -0.022907   0.003343  -0.004604  -0.004604   0.379835  -0.021515
               7          8
     1  C   -0.037886  -0.022907
     2  H   -0.001117   0.003343
     3  F   -0.004633  -0.004604
     4  F    0.007280  -0.004604
     5  C    0.381804   0.379835
     6  H   -0.024156  -0.021515
     7  H    0.466165  -0.021515
     8  H   -0.021515   0.446059
 Mulliken charges:
               1
     1  C    0.463400
     2  H    0.189127
     3  F   -0.303825
     4  F   -0.303825
     5  C   -0.758900
     6  H    0.234058
     7  H    0.234058
     8  H    0.245908
 Sum of Mulliken charges =   0.00000
 Mulliken charges with hydrogens summed into heavy atoms:
               1
     1  C    0.652527
     3  F   -0.303825
     4  F   -0.303825
     5  C   -0.044877
 APT charges:
               1
     1  C    1.210906
     2  H   -0.061933
     3  F   -0.575899
     4  F   -0.575899
     5  C   -0.068465
     6  H    0.022772
     7  H    0.022772
     8  H    0.025746
 Sum of APT charges =   0.00000
 APT charges with hydrogens summed into heavy atoms:
               1
     1  C    1.148973
     3  F   -0.575899
     4  F   -0.575899
     5  C    0.002825
 Electronic spatial extent (au):  <R**2>=            258.6689
 Charge=             -0.0000 electrons
 Dipole moment (field-independent basis, Debye):
    X=             -0.3638    Y=              2.4259    Z=              0.0000  Tot=              2.4530
 Quadrupole moment (field-independent basis, Debye-Ang):
   XX=            -21.4656   YY=            -23.0160   ZZ=            -25.6824
   XY=              0.5503   XZ=             -0.0000   YZ=              0.0000
 Traceless Quadrupole moment (field-independent basis, Debye-Ang):
   XX=              1.9224   YY=              0.3720   ZZ=             -2.2944
   XY=              0.5503   XZ=             -0.0000   YZ=              0.0000
 Octapole moment (field-independent basis, Debye-Ang**2):
  XXX=              4.6542  YYY=             -6.7082  ZZZ=              0.0000  XYY=              0.9440
  XXY=             -2.2048  XXZ=              0.0000  XZZ=              0.3464  YZZ=              0.1042
  YYZ=              0.0000  XYZ=             -0.0000
 Hexadecapole moment (field-independent basis, Debye-Ang**3):
 XXXX=            -78.2836 YYYY=           -106.5224 ZZZZ=           -102.2383 XXXY=             28.6917
 XXXZ=              0.0000 YYYX=             25.9192 YYYZ=             -0.0000 ZZZX=              0.0000
 ZZZY=             -0.0000 XXYY=            -31.7761 XXZZ=            -31.2938 YYZZ=            -32.4221
 XXYZ=             -0.0000 YYXZ=             -0.0000 ZZXY=              8.4495
 N-N= 1.319585861530D+02 E-N=-9.214574669965D+02  KE= 2.760545096557D+02
 Symmetry A'   KE= 1.731287096987D+02
 Symmetry A"   KE= 1.029257999570D+02
  Exact polarizability:  25.931  -0.704  26.375  -0.000   0.000  26.662
 Approx polarizability:  24.808   0.483  25.981  -0.000   0.000  27.647
 No NMR shielding tensors so no spin-rotation constants.
 Leave Link  601 at Tue Mar 31 17:53:07 2026, MaxMem=   536870912 cpu:               0.3 elap:               0.1
 (Enter /Users/asuyarger/Applications/G16/g16/l701.exe)
 ... and contract with generalized density number  0.
 Compute integral second derivatives.
 R6Disp: Adding Grimme-D2 dispersion energy 2nd derivatives to the Hessian.
 Leave Link  701 at Tue Mar 31 17:53:07 2026, MaxMem=   536870912 cpu:               0.3 elap:               0.1
 (Enter /Users/asuyarger/Applications/G16/g16/l702.exe)
 L702 exits ... SP integral derivatives will be done elsewhere.
 Leave Link  702 at Tue Mar 31 17:53:07 2026, MaxMem=   536870912 cpu:               0.1 elap:               0.0
 (Enter /Users/asuyarger/Applications/G16/g16/l703.exe)
 Integral derivatives from FoFJK, PRISM(SPDF).
 Compute integral second derivatives, UseDBF=F ICtDFT=           0.
 Calling FoFJK, ICntrl=    100127 FMM=F ISym2X=1 I1Cent= 0 IOpClX= 0 NMat=1 NMatS=1 NMatT=0.
 FoFJK:  IHMeth= 1 ICntrl=  100127 DoSepK=T KAlg= 0 I1Cent=           0 FoldK=F
 IRaf=         1 NMat=       1 IRICut=       1 DoRegI=T DoRafI=F ISym2E= 1 IDoP0=0 IntGTp=1.
 FoFCou: FMM=F IPFlag=           0 FMFlag=      100000 FMFlg1=         800
         NFxFlg=           0 DoJE=F BraDBF=F KetDBF=F FulRan=T
         wScrn=  0.000000 ICntrl=    100527 IOpCl=  0 I1Cent=           0 NGrid=           0
         NMat0=    1 NMatS0=      1 NMatT0=    0 NMatD0=    1 NMtDS0=    0 NMtDT0=    0
 Petite list used in FoFCou.
 Leave Link  703 at Tue Mar 31 17:53:11 2026, MaxMem=   536870912 cpu:              15.3 elap:               3.9
 (Enter /Users/asuyarger/Applications/G16/g16/l716.exe)
 Dipole        =-1.43124950D-01 9.54410944D-01 8.73697389D-16
 Polarizability= 2.59312333D+01-7.04240558D-01 2.63752416D+01
                -1.08389757D-14 3.33173132D-14 2.66619368D+01
 HyperPolar    =-6.32932963D+00 3.94259922D+00-4.14192175D+00
                 3.02141969D+01-1.91718068D-11 3.46121337D-12
                -3.53879991D-11-7.91865657D+00 3.27687510D+01
                -7.79215653D-11
 Full mass-weighted force constant matrix:
 Low frequencies ---  -12.8396   -0.0021   -0.0019   -0.0017    6.2279   11.4626
 Low frequencies ---  240.3131  387.5324  466.8455
 Diagonal vibrational polarizability:
        2.4211649       4.2332881       6.2315217
 Diagonal vibrational hyperpolarizability:
       -3.0463921      17.7062774       0.0000003
 Harmonic frequencies (cm**-1), IR intensities (KM/Mole), Raman scattering
 activities (A**4/AMU), depolarization ratios for plane and unpolarized
 incident light, reduced masses (AMU), force constants (mDyne/A),
 and normal coordinates:
                      1                      2                      3
                     A"                     A"                     A'
 Frequencies --    240.3092               387.5321               466.8455
 Red. masses --      1.0646                 3.1069                 4.7677
 Frc consts  --      0.0362                 0.2749                 0.6122
 IR Inten    --      0.0477                 0.1561                13.7680
 Raman Activ --      0.0023                 0.2971                 1.0630
 Depolar (P) --      0.7500                 0.7500                 0.6399
 Depolar (U) --      0.8571                 0.8571                 0.7804
  Atom  AN      X      Y      Z        X      Y      Z        X      Y      Z
     1   6     0.00  -0.00   0.01     0.00   0.00  -0.14    -0.17   0.07  -0.00
     2   1     0.00  -0.00   0.04     0.00  -0.00  -0.16    -0.28   0.28   0.00
     3   9     0.03   0.02  -0.01     0.14  -0.13  -0.05     0.11  -0.14   0.19
     4   9    -0.03  -0.02  -0.01    -0.14   0.13  -0.05     0.11  -0.14  -0.19
     5   6     0.00   0.00   0.01     0.00  -0.00   0.21    -0.15   0.24   0.00
     6   1     0.28   0.41  -0.28     0.31  -0.27   0.41     0.07   0.27  -0.02
     7   1    -0.28  -0.41  -0.28    -0.31   0.27   0.41     0.07   0.27   0.02
     8   1    -0.00   0.00   0.59     0.00  -0.00   0.39    -0.36   0.55   0.00
                      4                      5                      6
                     A'                     A'                     A"
 Frequencies --    568.5937               884.7321               962.4070
 Red. masses --      4.0362                 2.2473                 2.1761
 Frc consts  --      0.7688                 1.0364                 1.1875
 IR Inten    --      6.6200                 9.8954                85.0615
 Raman Activ --      0.7699                 6.6167                 4.7258
 Depolar (P) --      0.4421                 0.2035                 0.7500
 Depolar (U) --      0.6132                 0.3381                 0.8571
  Atom  AN      X      Y      Z        X      Y      Z        X      Y      Z
     1   6     0.20   0.18  -0.00     0.12   0.06  -0.00     0.00   0.00   0.18
     2   1     0.29   0.05  -0.00     0.28  -0.24   0.00     0.00  -0.00   0.01
     3   9    -0.09  -0.01   0.22     0.01  -0.08  -0.09     0.01  -0.08  -0.09
     4   9    -0.09  -0.01  -0.22     0.01  -0.08   0.09    -0.01   0.08  -0.09
     5   6     0.07  -0.09  -0.00    -0.11   0.20  -0.00    -0.00   0.00   0.16
     6   1    -0.29  -0.12   0.02    -0.55   0.15   0.03    -0.49   0.41  -0.14
     7   1    -0.29  -0.12  -0.02    -0.55   0.15  -0.03     0.49  -0.41  -0.14
     8   1     0.41  -0.59   0.00     0.21  -0.28   0.00     0.00  -0.00  -0.25
                      7                      8                      9
                     A'                     A"                     A'
 Frequencies --   1159.2438              1162.1330              1175.3998
 Red. masses --      2.9784                 2.4130                 2.3023
 Frc consts  --      2.3582                 1.9201                 1.8741
 IR Inten    --    105.3519               162.7310                36.3811
 Raman Activ --      4.5366                 2.1611                 1.7295
 Depolar (P) --      0.7335                 0.7500                 0.0155
 Depolar (U) --      0.8462                 0.8571                 0.0305
  Atom  AN      X      Y      Z        X      Y      Z        X      Y      Z
     1   6    -0.15   0.30  -0.00    -0.00  -0.00   0.28     0.23   0.15   0.00
     2   1    -0.36   0.64  -0.00    -0.00  -0.00   0.52     0.15   0.30   0.00
     3   9    -0.01  -0.09  -0.08    -0.02  -0.05  -0.07    -0.03  -0.04  -0.04
     4   9    -0.01  -0.09   0.08     0.02   0.05  -0.07    -0.03  -0.04   0.04
     5   6     0.14  -0.03   0.00     0.00   0.00  -0.14    -0.14  -0.10  -0.00
     6   1     0.13  -0.10   0.04     0.34  -0.35   0.13     0.32   0.10  -0.13
     7   1     0.13  -0.10  -0.04    -0.34   0.35   0.13     0.32   0.10   0.13
     8   1     0.37  -0.33  -0.00     0.00  -0.00   0.31    -0.53   0.49   0.00
                     10                     11                     12
                     A"                     A'                     A'
 Frequencies --   1404.7272              1409.4161              1465.9071
 Red. masses --      1.1754                 1.2429                 1.4797
 Frc consts  --      1.3665                 1.4547                 1.8734
 IR Inten    --     31.0139                 8.8215                72.0190
 Raman Activ --      6.2614                 1.1505                 1.9732
 Depolar (P) --      0.7500                 0.7290                 0.4612
 Depolar (U) --      0.8571                 0.8432                 0.6313
  Atom  AN      X      Y      Z        X      Y      Z        X      Y      Z
     1   6     0.00  -0.00  -0.11     0.07  -0.10   0.00     0.08  -0.10   0.00
     2   1    -0.00   0.00   0.97    -0.36   0.67  -0.00    -0.22   0.46  -0.00
     3   9    -0.02  -0.02   0.00    -0.01   0.00  -0.00    -0.01   0.01   0.00
     4   9     0.02   0.02   0.00    -0.01   0.00   0.00    -0.01   0.01  -0.00
     5   6     0.00  -0.00   0.04     0.08  -0.00  -0.00    -0.11   0.12   0.00
     6   1     0.02   0.09  -0.03    -0.39   0.08  -0.06     0.35  -0.24   0.25
     7   1    -0.02  -0.09  -0.03    -0.39   0.08   0.06     0.35  -0.24  -0.25
     8   1    -0.00   0.00  -0.17    -0.10   0.25   0.00     0.24  -0.39  -0.00
                     13                     14                     15
                     A"                     A'                     A'
 Frequencies --   1514.1567              1514.6691              3086.4920
 Red. masses --      1.0505                 1.0493                 1.0355
 Frc consts  --      1.4190                 1.4184                 5.8121
 IR Inten    --      1.6662                 6.3658                 3.7379
 Raman Activ --      6.9303                 9.5884               121.2744
 Depolar (P) --      0.7500                 0.7483                 0.0103
 Depolar (U) --      0.8571                 0.8561                 0.0204
  Atom  AN      X      Y      Z        X      Y      Z        X      Y      Z
     1   6     0.00   0.00  -0.04    -0.00  -0.04  -0.00     0.00   0.00   0.00
     2   1     0.00  -0.00   0.14    -0.08   0.10   0.00    -0.03  -0.02   0.00
     3   9    -0.00  -0.00   0.00    -0.00   0.00   0.00     0.00  -0.00  -0.00
     4   9     0.00   0.00   0.00    -0.00   0.00  -0.00     0.00  -0.00   0.00
     5   6     0.00   0.00  -0.05    -0.03  -0.03  -0.00     0.04  -0.03   0.00
     6   1    -0.48  -0.12   0.05     0.15   0.49  -0.36     0.00   0.33   0.47
     7   1     0.48   0.12   0.05     0.15   0.49   0.36     0.00   0.33  -0.47
     8   1    -0.00   0.00   0.70     0.22  -0.38   0.00    -0.47  -0.33   0.00
                     16                     17                     18
                     A'                     A"                     A'
 Frequencies --   3128.2793              3175.0486              3180.4679
 Red. masses --      1.0889                 1.1033                 1.1038
 Frc consts  --      6.2784                 6.5533                 6.5783
 IR Inten    --     35.6712                 9.2826                15.0497
 Raman Activ --    115.3707                57.5767                39.0659
 Depolar (P) --      0.2893                 0.7500                 0.6941
 Depolar (U) --      0.4487                 0.8571                 0.8194
  Atom  AN      X      Y      Z        X      Y      Z        X      Y      Z
     1   6    -0.07  -0.04   0.00    -0.00  -0.00  -0.00    -0.02  -0.01   0.00
     2   1     0.85   0.48   0.00     0.00   0.00   0.00     0.16   0.09  -0.00
     3   9     0.00  -0.00  -0.00    -0.00   0.00   0.00     0.00   0.00  -0.00
     4   9     0.00  -0.00   0.00     0.00  -0.00   0.00     0.00   0.00   0.00
     5   6     0.01   0.01  -0.00    -0.00  -0.00  -0.09    -0.05  -0.08   0.00
     6   1    -0.00  -0.03  -0.05    -0.00   0.42   0.57    -0.01   0.22   0.33
     7   1    -0.00  -0.03   0.05     0.00  -0.42   0.57    -0.01   0.22  -0.33
     8   1    -0.14  -0.10  -0.00     0.00   0.00  -0.02     0.66   0.45   0.00

 -------------------
 - Thermochemistry -
 -------------------
 Temperature   298.150 Kelvin.  Pressure   1.00000 Atm.
 Atom     1 has atomic number  6 and mass  12.00000
 Atom     2 has atomic number  1 and mass   1.00783
 Atom     3 has atomic number  9 and mass  18.99840
 Atom     4 has atomic number  9 and mass  18.99840
 Atom     5 has atomic number  6 and mass  12.00000
 Atom     6 has atomic number  1 and mass   1.00783
 Atom     7 has atomic number  1 and mass   1.00783
 Atom     8 has atomic number  1 and mass   1.00783
 Molecular mass:    66.02811 amu.
 Principal axes and moments of inertia in atomic units:
                           1         2         3
     Eigenvalues --   191.49609 202.09772 350.96436
           X           -0.58701   0.00000   0.80958
           Y            0.80958  -0.00000   0.58701
           Z            0.00000   1.00000  -0.00000
 This molecule is an asymmetric top.
 Rotational symmetry number  1.
 Rotational temperatures (Kelvin)      0.45230     0.42857     0.24679
 Rotational constants (GHZ):           9.42443     8.93004     5.14223
 Zero-point vibrational energy     160816.1 (Joules/Mol)
                                   38.43598 (Kcal/Mol)
 Warning -- explicit consideration of   4 degrees of freedom as
           vibrations may cause significant error
 Vibrational temperatures:    345.75   557.57   671.69   818.08  1272.93
          (Kelvin)           1384.69  1667.89  1672.05  1691.14  2021.09
                             2027.84  2109.11  2178.53  2179.27  4440.77
                             4500.90  4568.19  4575.98
 
 Zero-point correction=                           0.061252 (Hartree/Particle)
 Thermal correction to Energy=                    0.065521
 Thermal correction to Enthalpy=                  0.066465
 Thermal correction to Gibbs Free Energy=         0.034566
 Sum of electronic and zero-point Energies=           -278.183428
 Sum of electronic and thermal Energies=              -278.179159
 Sum of electronic and thermal Enthalpies=            -278.178214
 Sum of electronic and thermal Free Energies=         -278.210113
 
                     E (Thermal)             CV                S
                      KCal/Mol        Cal/Mol-Kelvin    Cal/Mol-Kelvin
 Total                   41.115             13.721             67.137
 Electronic               0.000              0.000              0.000
 Translational            0.889              2.981             38.481
 Rotational               0.889              2.981             24.122
 Vibrational             39.338              7.759              4.534
 Vibration     1          0.657              1.779              1.801
 Vibration     2          0.756              1.497              1.010
 Vibration     3          0.824              1.324              0.746
 Vibration     4          0.925              1.099              0.507
                       Q            Log10(Q)             Ln(Q)
 Total Bot       0.126116D-15        -15.899230        -36.609329
 Total V=0       0.188166D+13         12.274542         28.263178
 Vib (Bot)       0.143346D-27        -27.843615        -64.112292
 Vib (Bot)    1  0.815836D+00         -0.088397         -0.203542
 Vib (Bot)    2  0.464084D+00         -0.333404         -0.767691
 Vib (Bot)    3  0.362264D+00         -0.440974         -1.015381
 Vib (Bot)    4  0.271053D+00         -0.566946         -1.305442
 Vib (V=0)       0.213874D+01          0.330157          0.760215
 Vib (V=0)    1  0.145686D+01          0.163419          0.376286
 Vib (V=0)    2  0.118218D+01          0.072685          0.167363
 Vib (V=0)    3  0.111744D+01          0.048225          0.111043
 Vib (V=0)    4  0.106874D+01          0.028874          0.066484
 Electronic      0.100000D+01          0.000000          0.000000
 Translational   0.210886D+08          7.324047         16.864242
 Rotational      0.417194D+05          4.620338         10.638721
 
                                                      R152a - 1,1-difluoroethane
                                                             IR Spectrum
 
     33 33                                                             11 111       111                                              
     11 10                                                             55 444       111       9  8            5   4  3     2         
     87 28                                                             11 600       765       6  8            6   6  8     4         
     05 86                                                             54 695       529       2  5            9   7  8     0         
 
     XX XX                                                             XX XXX       XXX       X  X            X   X  X               
     X  X                                                                 X X       XXX       X                   X                  
        X                                                                 X X       XXX       X                                      
        X                                                                 X X       XXX       X                                      
                                                                          X          XX       X                                      
                                                                          X          XX       X                                      
                                                                          X          XX       X                                      
                                                                          X          XX       X                                      
                                                                          X          XX       X                                      
                                                                                     XX       X                                      
                                                                                     XX                                              
                                                                                     XX                                              
                                                                                     XX                                              
                                                                                     X                                               
                                                                                     X                                               
                                                                                     X                                               
                                                                                     X                                               
                                                                                     X                                               
                                                                                     X                                               
                                                                                     X                                               
 
 
                                                      R152a - 1,1-difluoroethane
                                                            Raman Spectrum
 
     33 33                                                             11 111       111                                              
     11 10                                                             55 444       111       9  8            5   4  3     2         
     87 28                                                             11 600       765       6  8            6   6  8     4         
     05 86                                                             54 695       529       2  5            9   7  8     0         
 
     XX XX                                                             XX XXX       XXX       X  X            X   X  X               
     XX XX                                                             X                                                             
     XX XX                                                                                                                           
     XX XX                                                                                                                           
     XX XX                                                                                                                           
     XX XX                                                                                                                           
      X XX                                                                                                                           
      X XX                                                                                                                           
      X XX                                                                                                                           
        XX                                                                                                                           
        XX                                                                                                                           
        XX                                                                                                                           
        XX                                                                                                                           
        XX                                                                                                                           
        XX                                                                                                                           
        XX                                                                                                                           
        XX                                                                                                                           
        XX                                                                                                                           
        XX                                                                                                                           
         X                                                                                                                           
 
 ***** Axes restored to original set *****
 -------------------------------------------------------------------
 Center     Atomic                   Forces (Hartrees/Bohr)
 Number     Number              X              Y              Z
 -------------------------------------------------------------------
      1        6           0.000107900    0.000396821   -0.000405297
      2        1          -0.000098274   -0.000212293    0.000283045
      3        9           0.000082017   -0.000036785    0.000084752
      4        9          -0.000079200   -0.000093781   -0.000013972
      5        6           0.000082504   -0.000316992    0.000048279
      6        1           0.000032622    0.000109991    0.000125075
      7        1          -0.000164847    0.000040178    0.000004151
      8        1           0.000037279    0.000112861   -0.000126034
 -------------------------------------------------------------------
 Cartesian Forces:  Max     0.000405297 RMS     0.000170292
 Force constants in Cartesian coordinates: 
                1             2             3             4             5 
      1  0.488864D+00
      2 -0.588629D-03  0.584877D+00
      3 -0.644328D-01 -0.773696D-01  0.599086D+00
      4 -0.699213D-01 -0.352665D-01  0.570113D-01  0.907421D-01
      5 -0.409851D-01 -0.147958D+00  0.124939D+00  0.456311D-01  0.145914D+00
      6  0.603128D-01  0.115601D+00 -0.212708D+00 -0.635225D-01 -0.119512D+00
      7 -0.708346D-01 -0.197007D-01 -0.331027D-01  0.737915D-02  0.145156D-02
      8 -0.117275D-01 -0.118679D+00 -0.717023D-01  0.128172D-02  0.105837D-01
      9 -0.202902D-01 -0.712224D-01 -0.215612D+00 -0.151306D-01 -0.263816D-01
     10 -0.252466D+00  0.152483D-01  0.382888D-01 -0.368516D-01 -0.245277D-03
     11  0.795500D-02 -0.766628D-01  0.491317D-02 -0.201232D-01  0.794471D-02
     12  0.250838D-01  0.554354D-02 -0.759968D-01  0.292550D-01 -0.215279D-02
     13 -0.887443D-01  0.345123D-01  0.397676D-02  0.820002D-02 -0.835125D-02
     14  0.421980D-01 -0.218594D+00  0.145069D-01  0.680509D-02 -0.126634D-01
     15 -0.460426D-03  0.270576D-01 -0.889769D-01 -0.815905D-02  0.241871D-01
     16  0.165672D-02  0.426293D-02  0.102447D-01  0.700382D-04 -0.453648D-03
     17 -0.145888D-01 -0.937894D-02 -0.283431D-01  0.686506D-04  0.737999D-03
     18 -0.478840D-03  0.191719D-02 -0.140595D-02  0.496384D-03 -0.529618D-03
     19 -0.119729D-01 -0.517243D-02 -0.350749D-03  0.597632D-03  0.610039D-03
     20  0.320564D-01  0.547976D-02 -0.574064D-03 -0.128136D-02  0.570830D-03
     21 -0.236912D-03 -0.824441D-03 -0.263506D-02  0.394654D-04 -0.154008D-03
     22  0.341816D-02  0.670474D-02 -0.116354D-01 -0.216015D-03  0.234257D-02
     23 -0.143194D-01 -0.190839D-01  0.336296D-01  0.288456D-02 -0.512894D-02
     24  0.502493D-03 -0.702819D-03 -0.175142D-02  0.996253D-05 -0.396752D-03
                6             7             8             9            10 
      6  0.240705D+00
      7 -0.125843D-02  0.942404D-01
      8  0.297208D-02  0.416518D-01  0.132209D+00
      9 -0.404727D-01  0.766624D-01  0.123307D+00  0.265642D+00
     10  0.380865D-02 -0.398209D-01 -0.203616D-01 -0.364247D-01  0.366687D+00
     11  0.123157D-02 -0.257829D-01  0.494427D-02 -0.741409D-02 -0.707075D-02
     12  0.639702D-02 -0.461760D-01 -0.754172D-02 -0.150829D-02 -0.643750D-02
     13  0.591144D-03  0.659406D-02 -0.130782D-01 -0.641971D-02 -0.385194D-01
     14 -0.563212D-03  0.156709D-02 -0.243554D-01 -0.145393D-01  0.595615D-02
     15  0.496934D-02  0.445193D-02 -0.470237D-01 -0.117010D-01  0.100921D-02
     16 -0.223000D-03  0.937354D-03  0.370622D-02  0.130722D-02  0.108474D-03
     17  0.121268D-02  0.183372D-02 -0.918381D-02 -0.276676D-02  0.103068D-03
     18  0.223564D-03 -0.290029D-03  0.320613D-03  0.236551D-02  0.112494D-02
     19 -0.315709D-04  0.181989D-02  0.223103D-04  0.472865D-03 -0.153667D-03
     20  0.339430D-03 -0.131692D-02  0.982836D-03  0.325366D-03  0.702811D-02
     21 -0.136860D-03 -0.722117D-04 -0.356311D-03 -0.308778D-03 -0.165180D-03
     22  0.322869D-03 -0.315439D-03 -0.149478D-02 -0.177338D-03  0.101669D-02
     23 -0.128182D-02  0.296267D-03  0.349831D-02 -0.130778D-02 -0.658068D-03
     24  0.102268D-02 -0.215000D-03  0.247434D-04  0.159497D-02 -0.120425D-02
               11            12            13            14            15 
     11  0.637057D-01
     12  0.510743D-02  0.616999D-01
     13  0.429406D-01 -0.101620D-02  0.597959D+00
     14  0.263993D-02 -0.174309D-03  0.267638D-01  0.527168D+00
     15 -0.416968D-02  0.641713D-02  0.488248D-03  0.280009D-02  0.605306D+00
     16 -0.167298D-03 -0.372164D-04 -0.790600D-01 -0.443993D-01 -0.754485D-01
     17  0.163173D-02  0.138511D-02 -0.413079D-01 -0.114564D+00 -0.104945D+00
     18  0.321337D-03  0.753744D-03 -0.740599D-01 -0.108014D+00 -0.231593D+00
     19  0.310994D-02 -0.581413D-03 -0.324765D+00  0.460114D-02 -0.253031D-03
     20 -0.742183D-02 -0.173745D-04  0.148562D-03 -0.518731D-01  0.220512D-03
     21  0.235813D-03  0.169454D-02 -0.855843D-03  0.106700D-02 -0.485786D-01
     22 -0.861422D-03 -0.904865D-04 -0.816645D-01 -0.434919D-01  0.783717D-01
     23  0.321833D-02 -0.214988D-02 -0.416279D-01 -0.107758D+00  0.101873D+00
     24 -0.225549D-03  0.542825D-03  0.772955D-01  0.104917D+00 -0.235843D+00
               16            17            18            19            20 
     16  0.808178D-01
     17  0.467359D-01  0.121562D+00
     18  0.817169D-01  0.118054D+00  0.247009D+00
     19 -0.803366D-02  0.536226D-03  0.103507D-02  0.350713D+00
     20 -0.167261D-01  0.339943D-03  0.181292D-02 -0.438047D-02  0.516845D-01
     21 -0.271127D-01  0.243251D-02  0.118673D-02  0.104063D-02 -0.202063D-03
     22  0.350328D-02  0.661902D-02 -0.954457D-02 -0.820519D-02 -0.155282D-01
     23  0.704128D-02  0.885493D-02 -0.138819D-01  0.673231D-03  0.237083D-03
     24  0.955260D-02  0.129708D-01 -0.185400D-01 -0.133180D-02 -0.190472D-02
               21            22            23            24 
     21  0.469917D-01
     22  0.273628D-01  0.824631D-01
     23 -0.219851D-02  0.457100D-01  0.116162D+00
     24  0.178631D-02 -0.846095D-01 -0.114683D+00  0.251188D+00
 FormGI is forming the generalized inverse of G from B-inverse, IUseBI=4.
 Force constants in internal coordinates: 
                1             2             3             4             5 
      1  0.345822D+00
      2  0.140277D-01  0.366974D+00
      3  0.140277D-01  0.515318D-01  0.366974D+00
      4  0.543502D-02  0.243236D-01  0.243236D-01  0.311120D+00
      5  0.534796D-03  0.298415D-03  0.959283D-03  0.198089D-02  0.350784D+00
      6  0.534796D-03  0.959283D-03  0.298415D-03  0.198089D-02  0.151788D-02
      7 -0.751598D-03  0.101688D-02  0.101688D-02  0.349697D-02  0.130515D-02
      8  0.183447D-02  0.165166D-01  0.566164D-02 -0.165809D-01 -0.245856D-02
      9  0.183447D-02  0.566164D-02  0.165166D-01 -0.165809D-01  0.240530D-03
     10  0.531476D-02 -0.278271D-01 -0.278271D-01  0.106736D-01 -0.861699D-03
     11  0.235525D-02  0.128038D-01  0.128038D-01 -0.176688D-01 -0.759242D-03
     12 -0.555437D-02  0.186144D-01 -0.225310D-01  0.182477D-01  0.647839D-02
     13 -0.555436D-02 -0.225310D-01  0.186144D-01  0.182477D-01 -0.278857D-02
     14  0.510982D-04  0.114071D-01 -0.200856D-02  0.120980D-01  0.501383D-02
     15  0.510984D-04 -0.200856D-02  0.114071D-01  0.120980D-01 -0.599747D-02
     16  0.206736D-02 -0.384836D-02 -0.384836D-02  0.147705D-01 -0.616990D-02
     17 -0.306078D-03 -0.371137D-02 -0.371137D-02 -0.132336D-01  0.348214D-02
     18 -0.944530D-03 -0.305835D-02  0.117066D-02 -0.130757D-01  0.346128D-02
     19 -0.944530D-03  0.117066D-02 -0.305835D-02 -0.130757D-01  0.291360D-03
     20  0.156722D-03  0.148747D-01 -0.161571D-01  0.615512D-03  0.105099D-02
     21 -0.156722D-03  0.161571D-01 -0.148747D-01 -0.615513D-03  0.472845D-02
     22  0.000000D+00  0.139540D-01 -0.139540D-01  0.000000D+00 -0.247981D-02
     23 -0.179356D-02 -0.114546D-02  0.132029D-01  0.920140D-03 -0.335615D-04
     24 -0.210700D-02  0.137005D-03  0.144853D-01 -0.310885D-03  0.364390D-02
     25 -0.195028D-02 -0.206608D-02  0.154059D-01  0.304627D-03 -0.356436D-02
     26  0.210700D-02 -0.144853D-01 -0.137005D-03  0.310885D-03 -0.135750D-02
     27  0.179356D-02 -0.132029D-01  0.114546D-02 -0.920140D-03  0.231996D-02
     28  0.195028D-02 -0.154059D-01  0.206608D-02 -0.304627D-03 -0.488830D-02
                6             7             8             9            10 
      6  0.350784D+00
      7  0.130515D-02  0.351153D+00
      8  0.240530D-03  0.296078D-03  0.847964D-01
      9 -0.245856D-02  0.296078D-03  0.213505D-01  0.847964D-01
     10 -0.861698D-03  0.463724D-02 -0.445401D-01 -0.445401D-01  0.112285D+00
     11 -0.759242D-03  0.903293D-03  0.280425D-01  0.280425D-01  0.100730D-01
     12 -0.278857D-02 -0.308376D-02 -0.815133D-01  0.100306D-02 -0.199945D-01
     13  0.647839D-02 -0.308376D-02  0.100306D-02 -0.815133D-01 -0.199945D-01
     14 -0.599747D-02 -0.575683D-02 -0.704603D-02  0.375470D-02 -0.819375D-02
     15  0.501383D-02 -0.575683D-02  0.375470D-02 -0.704603D-02 -0.819375D-02
     16 -0.616990D-02  0.457475D-02 -0.352291D-03 -0.352291D-03  0.198996D-01
     17  0.348214D-02  0.172863D-03  0.173144D-02  0.173144D-02  0.454141D-02
     18  0.291359D-03  0.341566D-02  0.257841D-02 -0.629111D-03 -0.406236D-02
     19  0.346128D-02  0.341566D-02 -0.629111D-03  0.257841D-02 -0.406236D-02
     20 -0.472845D-02  0.347992D-02  0.624560D-02 -0.632841D-02  0.230689D-02
     21 -0.105099D-02 -0.347992D-02  0.632841D-02 -0.624560D-02 -0.230689D-02
     22  0.247981D-02  0.000000D+00  0.766579D-02 -0.766579D-02  0.000000D+00
     23 -0.231996D-02  0.214867D-02 -0.113682D-01 -0.349830D-02 -0.373378D-02
     24  0.135750D-02 -0.481116D-02 -0.112854D-01 -0.341549D-02 -0.834756D-02
     25  0.488830D-02 -0.133124D-02 -0.994798D-02 -0.483568D-02 -0.604067D-02
     26 -0.364390D-02  0.481116D-02  0.341549D-02  0.112854D-01  0.834756D-02
     27  0.335615D-04 -0.214867D-02  0.349830D-02  0.113682D-01  0.373378D-02
     28  0.356436D-02  0.133124D-02  0.483568D-02  0.994798D-02  0.604067D-02
               11            12            13            14            15 
     11  0.110174D+00
     12 -0.814163D-01  0.177968D+00
     13 -0.814163D-01 -0.736459D-02  0.177968D+00
     14 -0.535849D-02  0.248585D-01 -0.844072D-02  0.106356D+00
     15 -0.535849D-02 -0.844072D-02  0.248585D-01 -0.182122D-01  0.106356D+00
     16  0.660594D-02 -0.129082D-01 -0.129082D-01 -0.190203D-01 -0.190203D-01
     17  0.343471D-02 -0.554077D-02 -0.554077D-02 -0.411233D-01 -0.411233D-01
     18  0.353068D-03 -0.427303D-02  0.629213D-02 -0.407000D-01  0.120424D-01
     19  0.353068D-03  0.629213D-02 -0.427304D-02  0.120424D-01 -0.407000D-01
     20  0.122234D-02  0.103137D-01 -0.137151D-01  0.342173D-02 -0.766681D-02
     21 -0.122234D-02  0.137151D-01 -0.103137D-01  0.766680D-02 -0.342173D-02
     22  0.000000D+00  0.817970D-02 -0.817970D-02 -0.664018D-03  0.664017D-03
     23  0.191215D-01 -0.380531D-02  0.470163D-02 -0.404857D-03 -0.383054D-03
     24  0.166768D-01 -0.403926D-03  0.810302D-02  0.384022D-02  0.386202D-02
     25  0.178992D-01 -0.593930D-02  0.102370D-01 -0.449061D-02  0.794777D-02
     26 -0.166768D-01 -0.810302D-02  0.403925D-03 -0.386202D-02 -0.384022D-02
     27 -0.191215D-01 -0.470163D-02  0.380531D-02  0.383054D-03  0.404857D-03
     28 -0.178992D-01 -0.102370D-01  0.593930D-02 -0.794777D-02  0.449061D-02
               16            17            18            19            20 
     16  0.106893D+00
     17  0.122685D-01  0.514039D-01
     18 -0.410074D-01  0.962107D-02  0.511627D-01
     19 -0.410075D-01  0.962107D-02  0.966382D-02  0.511627D-01
     20  0.429147D-02 -0.604759D-02  0.487583D-02  0.112344D-02  0.186770D-01
     21 -0.429147D-02  0.604759D-02 -0.112344D-02 -0.487583D-02  0.858129D-02
     22  0.000000D+00  0.000000D+00 -0.729303D-02  0.729303D-02  0.787711D-02
     23  0.454952D-03 -0.732623D-02  0.761628D-02  0.519629D-04  0.105966D-02
     24 -0.812799D-02  0.476894D-02  0.161701D-02 -0.594731D-02 -0.903601D-02
     25 -0.383652D-02 -0.127864D-02 -0.455258D-02  0.622155D-02 -0.974020D-02
     26  0.812799D-02 -0.476894D-02  0.594731D-02 -0.161701D-02  0.163803D-02
     27 -0.454952D-03  0.732623D-02 -0.519629D-04 -0.761628D-02 -0.845764D-02
     28  0.383652D-02  0.127864D-02 -0.622155D-02  0.455258D-02 -0.916183D-02
               21            22            23            24            25 
     21  0.186770D-01
     22  0.787711D-02  0.172672D-01
     23 -0.845764D-02 -0.834813D-02  0.214539D-01
     24  0.163803D-02 -0.834813D-02  0.119366D-01  0.226106D-01
     25 -0.916183D-02  0.104200D-02  0.120461D-01  0.126244D-01  0.228283D-01
     26 -0.903601D-02 -0.834813D-02 -0.259437D-02 -0.132684D-01 -0.125805D-01
     27  0.105966D-02 -0.834813D-02 -0.121117D-01 -0.259437D-02 -0.120022D-01
     28 -0.974020D-02  0.104200D-02 -0.120022D-01 -0.125805D-01 -0.179833D-02
               26            27            28 
     26  0.226106D-01
     27  0.119366D-01  0.214539D-01
     28  0.126244D-01  0.120461D-01  0.228283D-01
 Leave Link  716 at Tue Mar 31 17:53:11 2026, MaxMem=   536870912 cpu:               0.1 elap:               0.0
 (Enter /Users/asuyarger/Applications/G16/g16/l103.exe)

 GradGradGradGradGradGradGradGradGradGradGradGradGradGradGradGradGradGrad
 Berny optimization.
 Red2BG is reusing G-inverse.
 Internal  Forces:  Max     0.000366479 RMS     0.000104977
 Search for a local minimum.
 Step number   1 out of a maximum of    2
 All quantities printed in internal units (Hartrees-Bohrs-Radians)
 Second derivative matrix not updated -- analytic derivatives used.
 ITU=  0
     Eigenvalues ---    0.00254   0.04476   0.04498   0.06024   0.09826
     Eigenvalues ---    0.13329   0.13637   0.13893   0.16922   0.22703
     Eigenvalues ---    0.26682   0.33952   0.34116   0.34711   0.35279
     Eigenvalues ---    0.35312   0.35558   0.44164
 Angle between quadratic step and forces=  23.80 degrees.
 Linear search not attempted -- first point.
 Iteration  1 RMS(Cart)=  0.00045037 RMS(Int)=  0.00000018
 Iteration  2 RMS(Cart)=  0.00000015 RMS(Int)=  0.00000008
 ITry= 1 IFail=0 DXMaxC= 1.38D-03 DCOld= 1.00D+10 DXMaxT= 3.00D-01 DXLimC= 3.00D+00 Rises=F
 ClnCor:  largest displacement from symmetrization is 4.00D-11 for atom     4.
 Variable       Old X    -DE/DX   Delta X   Delta X   Delta X     New X
                                 (Linear)    (Quad)   (Total)
    R1        2.06704  -0.00037   0.00000  -0.00111  -0.00111   2.06593
    R2        2.59016   0.00008   0.00000   0.00022   0.00022   2.59038
    R3        2.59016   0.00008   0.00000   0.00022   0.00022   2.59038
    R4        2.84251   0.00005   0.00000   0.00034   0.00034   2.84285
    R5        2.06638  -0.00017   0.00000  -0.00048  -0.00048   2.06590
    R6        2.06638  -0.00017   0.00000  -0.00048  -0.00048   2.06590
    R7        2.06632  -0.00017   0.00000  -0.00050  -0.00050   2.06582
    A1        1.87169   0.00007   0.00000   0.00022   0.00022   1.87191
    A2        1.87169   0.00007   0.00000   0.00022   0.00022   1.87191
    A3        2.00046   0.00003   0.00000   0.00041   0.00041   2.00087
    A4        1.86545   0.00013   0.00000   0.00036   0.00036   1.86580
    A5        1.92437  -0.00014   0.00000  -0.00058  -0.00058   1.92379
    A6        1.92437  -0.00014   0.00000  -0.00058  -0.00058   1.92379
    A7        1.91672  -0.00004   0.00000  -0.00020  -0.00020   1.91652
    A8        1.91672  -0.00004   0.00000  -0.00020  -0.00020   1.91652
    A9        1.91365  -0.00005   0.00000  -0.00060  -0.00060   1.91305
   A10        1.90308   0.00004   0.00000   0.00040   0.00040   1.90348
   A11        1.90678   0.00004   0.00000   0.00030   0.00030   1.90708
   A12        1.90678   0.00004   0.00000   0.00030   0.00030   1.90708
    D1       -1.04632  -0.00000   0.00000  -0.00013  -0.00013  -1.04644
    D2        1.04632   0.00000   0.00000   0.00013   0.00013   1.04644
    D3        3.14159  -0.00000   0.00000  -0.00000   0.00000   3.14159
    D4        3.12316  -0.00001   0.00000  -0.00026  -0.00026   3.12290
    D5       -1.06739  -0.00000   0.00000  -0.00001  -0.00001  -1.06740
    D6        1.02789  -0.00000   0.00000  -0.00013  -0.00013   1.02775
    D7        1.06739   0.00000   0.00000   0.00001   0.00001   1.06740
    D8       -3.12316   0.00001   0.00000   0.00026   0.00026  -3.12290
    D9       -1.02789   0.00000   0.00000   0.00013   0.00013  -1.02775
         Item               Value     Threshold  Converged?
 Maximum Force            0.000366     0.000450     YES
 RMS     Force            0.000105     0.000300     YES
 Maximum Displacement     0.001378     0.001800     YES
 RMS     Displacement     0.000450     0.001200     YES
 Predicted change in Energy=-5.207255D-07
 Optimization completed.
    -- Stationary point found.
                           ----------------------------
                           !   Optimized Parameters   !
                           ! (Angstroms and Degrees)  !
 --------------------------                            --------------------------
 ! Name  Definition              Value          Derivative Info.                !
 --------------------------------------------------------------------------------
 ! R1    R(1,2)                  1.0938         -DE/DX =   -0.0004              !
 ! R2    R(1,3)                  1.3707         -DE/DX =    0.0001              !
 ! R3    R(1,4)                  1.3707         -DE/DX =    0.0001              !
 ! R4    R(1,5)                  1.5042         -DE/DX =    0.0                 !
 ! R5    R(5,6)                  1.0935         -DE/DX =   -0.0002              !
 ! R6    R(5,7)                  1.0935         -DE/DX =   -0.0002              !
 ! R7    R(5,8)                  1.0934         -DE/DX =   -0.0002              !
 ! A1    A(2,1,3)              107.2401         -DE/DX =    0.0001              !
 ! A2    A(2,1,4)              107.2401         -DE/DX =    0.0001              !
 ! A3    A(2,1,5)              114.618          -DE/DX =    0.0                 !
 ! A4    A(3,1,4)              106.8822         -DE/DX =    0.0001              !
 ! A5    A(3,1,5)              110.2585         -DE/DX =   -0.0001              !
 ! A6    A(4,1,5)              110.2585         -DE/DX =   -0.0001              !
 ! A7    A(1,5,6)              109.8197         -DE/DX =    0.0                 !
 ! A8    A(1,5,7)              109.8197         -DE/DX =    0.0                 !
 ! A9    A(1,5,8)              109.6442         -DE/DX =    0.0                 !
 ! A10   A(6,5,7)              109.0385         -DE/DX =    0.0                 !
 ! A11   A(6,5,8)              109.2503         -DE/DX =    0.0                 !
 ! A12   A(7,5,8)              109.2503         -DE/DX =    0.0                 !
 ! D1    D(2,1,5,6)            -59.9495         -DE/DX =    0.0                 !
 ! D2    D(2,1,5,7)             59.9495         -DE/DX =    0.0                 !
 ! D3    D(2,1,5,8)            180.0            -DE/DX =    0.0                 !
 ! D4    D(3,1,5,6)            178.9442         -DE/DX =    0.0                 !
 ! D5    D(3,1,5,7)            -61.1568         -DE/DX =    0.0                 !
 ! D6    D(3,1,5,8)             58.8937         -DE/DX =    0.0                 !
 ! D7    D(4,1,5,6)             61.1568         -DE/DX =    0.0                 !
 ! D8    D(4,1,5,7)           -178.9442         -DE/DX =    0.0                 !
 ! D9    D(4,1,5,8)            -58.8937         -DE/DX =    0.0                 !
 --------------------------------------------------------------------------------
 GradGradGradGradGradGradGradGradGradGradGradGradGradGradGradGradGradGrad

 Leave Link  103 at Tue Mar 31 17:53:11 2026, MaxMem=   536870912 cpu:               0.0 elap:               0.0
 (Enter /Users/asuyarger/Applications/G16/g16/l9999.exe)

 ----------------------------------------------------------------------

 Electric dipole moment (input orientation):
 (Debye = 10**-18 statcoulomb cm , SI units = C m)
                  (au)            (Debye)         (10**-30 SI)
   Tot        0.965083D+00      0.245300D+01      0.818231D+01
   x          0.549520D+00      0.139674D+01      0.465902D+01
   y         -0.526734D+00     -0.133883D+01     -0.446584D+01
   z         -0.593266D+00     -0.150793D+01     -0.502992D+01

 Dipole polarizability, Alpha (input orientation).
 (esu units = cm**3 , SI units = C**2 m**2 J**-1)
 Alpha(0;0):
               (au)            (10**-24 esu)      (10**-40 SI)
   iso        0.263228D+02      0.390064D+01      0.434004D+01
   aniso      0.137641D+01      0.203963D+00      0.226939D+00
   xx         0.265582D+02      0.393553D+01      0.437886D+01
   yx        -0.282414D+00     -0.418494D-01     -0.465638D-01
   yy         0.265834D+02      0.393926D+01      0.438301D+01
   zx         0.332378D+00      0.492533D-01      0.548017D-01
   zy         0.506508D+00      0.750568D-01      0.835119D-01
   zz         0.258267D+02      0.382713D+01      0.425825D+01

 First dipole hyperpolarizability, Beta (input orientation).
 ||, _|_  parallel and perpendicular components, (z) with respect to z axis,
 vector components x,y,z.  Values do not include the 1/n! factor of 1/2.
 (esu units = statvolt**-1 cm**4 , SI units = C**3 m**3 J**-2)
 Beta(0;0,0):
               (au)            (10**-30 esu)      (10**-50 SI)
   || (z)    -0.223940D+02     -0.193467D+00     -0.718033D-01
   _|_(z)    -0.746467D+01     -0.644889D-01     -0.239344D-01
   x          0.115352D+03      0.996548D+00      0.369859D+00
   y         -0.132332D+03     -0.114324D+01     -0.424303D+00
   z         -0.111970D+03     -0.967334D+00     -0.359016D+00
   ||         0.416437D+02      0.359769D+00      0.133525D+00
   xxx        0.434464D+02      0.375343D+00      0.139305D+00
   xxy       -0.102843D+02     -0.888486D-01     -0.329753D-01
   yxy       -0.171539D+01     -0.148196D-01     -0.550016D-02
   yyy       -0.170663D+02     -0.147440D+00     -0.547207D-01
   xxz       -0.348788D+01     -0.301326D-01     -0.111834D-01
   yxz       -0.508669D+01     -0.439451D-01     -0.163098D-01
   yyz       -0.112075D+02     -0.968238D-01     -0.359352D-01
   zxz       -0.328053D+01     -0.283412D-01     -0.105186D-01
   zyz       -0.167599D+02     -0.144793D+00     -0.537384D-01
   zzz       -0.226280D+02     -0.195488D+00     -0.725535D-01

 ----------------------------------------------------------------------

 Dipole orientation:
     6          1.16083360         -0.40103779          0.76589592
     1          0.93040214         -2.31290736          1.51711133
     9          3.25380083         -0.42283396         -0.75987171
     9         -0.87737531          0.07508334         -0.75987171
     6          1.40521398          1.62656471          2.74301441
     1         -0.28615392          1.65544895          3.92975252
     1          3.05500846          1.25274945          3.92975252
     1          1.62690603          3.46592417          1.82799084

 Electric dipole moment (dipole orientation):
 (Debye = 10**-18 statcoulomb cm , SI units = C m)
                  (au)            (Debye)         (10**-30 SI)
   Tot        0.965083D+00      0.245300D+01      0.818231D+01
   x          0.000000D+00      0.000000D+00      0.000000D+00
   y          0.000000D+00      0.000000D+00      0.000000D+00
   z          0.965083D+00      0.245300D+01      0.818231D+01

 Dipole polarizability, Alpha (dipole orientation).
 (esu units = cm**3 , SI units = C**2 m**2 J**-1)
 Alpha(0;0):
               (au)            (10**-24 esu)      (10**-40 SI)
   iso        0.263228D+02      0.390064D+01      0.434004D+01
   aniso      0.137641D+01      0.203963D+00      0.226939D+00
   xx         0.266487D+02      0.394892D+01      0.439377D+01
   yx        -0.110189D+00     -0.163283D-01     -0.181677D-01
   yy         0.257477D+02      0.381542D+01      0.424522D+01
   zx         0.727708D-01      0.107835D-01      0.119983D-01
   zy         0.603773D+00      0.894700D-01      0.995488D-01
   zz         0.265720D+02      0.393757D+01      0.438114D+01

 First dipole hyperpolarizability, Beta (dipole orientation).
 ||, _|_  parallel and perpendicular components, (z) with respect to z axis,
 vector components x,y,z.  Values do not include the 1/n! factor of 1/2.
 (esu units = statvolt**-1 cm**4 , SI units = C**3 m**3 J**-2)
 Beta(0;0,0):
               (au)            (10**-30 esu)      (10**-50 SI)
   || (z)     0.413477D+02      0.357212D+00      0.132576D+00
   _|_(z)     0.137826D+02      0.119071D+00      0.441918D-01
   x          0.296565D+01      0.256209D-01      0.950895D-02
   y          0.246057D+02      0.212574D+00      0.788949D-01
   z          0.206738D+03      0.178606D+01      0.662878D+00
   ||         0.416437D+02      0.359769D+00      0.133525D+00
   xxx        0.105924D+01      0.915103D-02      0.339631D-02
   xxy        0.288839D+01      0.249534D-01      0.926121D-02
   yxy       -0.155894D+00     -0.134680D-02     -0.499853D-03
   yyy        0.460662D+01      0.397976D-01      0.147705D-01
   xxz        0.331576D+02      0.286456D+00      0.106315D+00
   yxz       -0.351078D+01     -0.303304D-01     -0.112568D-01
   yyz        0.445209D+01      0.384626D-01      0.142750D-01
   zxz        0.852017D-01      0.736076D-03      0.273188D-03
   zyz        0.706911D+00      0.610716D-02      0.226661D-02
   zzz        0.313031D+02      0.270434D+00      0.100369D+00

 ----------------------------------------------------------------------
 1\1\GINC-JEFFSMACSTUDIO\Freq\RwB97XD\6-31+G(d)\C2H4F2\ROOT\31-Mar-2026
 \0\\#P Geom=AllCheck Guess=TCheck SCRF=Check GenChk RwB97XD/6-31+G(d) 
 Freq\\R152a - 1,1-difluoroethane\\0,1\C,0.7625651872,0.070089773,-0.01
 51990783\H,1.0861794749,0.6547286294,-0.8811899857\F,1.1902174141,0.73
 33308633,1.1054807231\F,-0.6076710621,0.097706378,0.0045070725\C,1.255
 1492429,-1.3510724413,0.0008905928\H,0.8944670354,-1.8785521482,-0.886
 4477021\H,2.348541407,-1.3644795089,0.0039843744\H,0.8858660182,-1.857
 9982142,0.8965927624\\Version=EM64M-G16RevA.03\State=1-A'\HF=-278.2446
 794\RMSD=1.008e-09\RMSF=1.703e-04\ZeroPoint=0.0612516\Thermal=0.065520
 9\Dipole=0.5495196,-0.5267344,-0.5932656\DipoleDeriv=1.4301572,-0.0313
 239,0.1806308,-0.0124463,1.1170938,0.2585322,0.1697322,0.2893593,1.085
 4678,-0.0208952,-0.0011494,0.0185981,-0.0299873,-0.0747412,0.0863967,0
 .0352471,0.0393044,-0.0901627,-0.4007051,-0.0775544,-0.1368319,-0.1159
 894,-0.5773635,-0.298056,-0.2208408,-0.353801,-0.7496289,-1.0512339,0.
 0849391,-0.0712581,0.0828913,-0.3682938,-0.0122468,0.0361227,-0.022610
 4,-0.3081698,-0.0065556,0.0588475,0.0027048,0.0996224,-0.2242154,-0.02
 40543,-0.0208358,0.0425311,0.025376,0.0713831,-0.0283409,-0.0604509,-0
 .0043993,0.0332652,-0.0452441,-0.0502623,-0.073626,-0.0363317,-0.08992
 76,0.0152595,0.0042447,-0.0228262,0.0623273,0.0012676,0.0022219,0.0065
 522,0.095917,0.0677772,-0.0206775,0.0623626,0.0031349,0.0319277,0.0334
 048,0.048615,0.0722904,-0.0224678\Polar=26.5582431,-0.2824139,26.58342
 59,0.3323775,0.5065081,25.8267427\PolarDeriv=3.3435495,-1.1818864,-2.0
 042238,0.7398559,0.7422802,-2.3596379,-0.1760181,-1.5901688,-0.0971895
 ,0.2334615,0.7905753,-2.883013,0.0154922,0.45245,0.963429,-2.1538463,-
 4.5856797,2.5094246,1.2083271,1.2456473,1.0507984,-1.7057259,-0.672581
 5,1.1381966,0.7846216,0.9749378,3.3755575,-0.4096456,-2.461204,2.03507
 35,-1.0342131,-0.485478,-2.3457301,1.2346197,2.8790357,-5.7445805,1.21
 64496,1.4117793,0.2425507,1.876218,0.5810061,0.3744532,0.3536806,0.973
 295,3.1187214,0.2895677,2.3825398,0.8093948,0.7659835,0.3366806,1.5390
 394,1.402126,3.0595433,3.7282335,-7.4770182,1.3041136,-0.2490999,-0.79
 13334,-0.5250003,0.170394,0.0948684,-1.9741215,0.5359558,-0.1229794,-0
 .2118805,0.3315281,0.1184904,-0.2402871,0.2921541,-1.8454425,0.4863195
 ,-0.1270424,-5.6996317,0.58948,2.4021759,-0.1482774,-0.1702835,3.06561
 78,-0.1669031,1.9678152,-1.4147181,0.1068249,-0.1438568,3.4397439,0.07
 46378,0.0049108,-0.4525161,2.7747304,4.5862355,-0.3162803,-0.6638367,-
 1.1466329,-1.1112064,-1.4592619,-0.4828789,-1.4432747,-0.335693,-1.010
 891,-3.00412,-0.319281,-2.4658603,-1.8262611,-1.0089775,-0.366109,-2.2
 933916,-1.3594739,-2.8865661,-5.1560233,8.7958338,-1.1669602,1.0663963
 ,-0.0106677,-0.0084459,0.5520949,-0.2091564,1.664794,0.0649471,-0.0423
 358,-0.0417166,-0.202188,-0.0295847,-0.015082,-0.1012557,1.2828872,-0.
 7108003,0.0206747,-0.7236735,-1.0555407,-1.3973916,1.4991925,0.5359038
 ,-1.497844,-0.3453998,-1.0056606,-2.5791548,0.2643879,2.1514032,-1.704
 2783,1.0981712,0.3129148,2.3982708,-1.3356006,-2.8280878,5.0855937\Hyp
 erPolar=43.4464491,-10.2843353,-1.7153886,-17.0663022,-3.4878795,-5.08
 6694,-11.2074647,-3.2805279,-16.7599372,-22.6279906\Quadrupole=-1.0402
 3,0.6643138,0.3759162,-0.2562691,-0.9389884,-0.9498725\PG=CS [SG(C2H2)
 ,X(H2F2)]\NImag=0\\0.48886447,-0.00058863,0.58487743,-0.06443281,-0.07
 736956,0.59908603,-0.06992127,-0.03526653,0.05701132,0.09074207,-0.040
 98510,-0.14795843,0.12493930,0.04563110,0.14591352,0.06031282,0.115600
 89,-0.21270789,-0.06352248,-0.11951162,0.24070489,-0.07083459,-0.01970
 066,-0.03310266,0.00737915,0.00145156,-0.00125843,0.09424045,-0.011727
 48,-0.11867939,-0.07170226,0.00128172,0.01058369,0.00297208,0.04165179
 ,0.13220947,-0.02029017,-0.07122243,-0.21561201,-0.01513058,-0.0263815
 8,-0.04047274,0.07666241,0.12330659,0.26564237,-0.25246632,0.01524832,
 0.03828883,-0.03685162,-0.00024528,0.00380865,-0.03982088,-0.02036156,
 -0.03642470,0.36668674,0.00795500,-0.07666284,0.00491317,-0.02012322,0
 .00794471,0.00123157,-0.02578285,0.00494427,-0.00741409,-0.00707075,0.
 06370569,0.02508384,0.00554354,-0.07599682,0.02925498,-0.00215279,0.00
 639702,-0.04617601,-0.00754172,-0.00150829,-0.00643750,0.00510743,0.06
 169985,-0.08874429,0.03451225,0.00397676,0.00820002,-0.00835125,0.0005
 9114,0.00659406,-0.01307822,-0.00641971,-0.03851940,0.04294060,-0.0010
 1620,0.59795919,0.04219796,-0.21859371,0.01450687,0.00680509,-0.012663
 39,-0.00056321,0.00156709,-0.02435537,-0.01453932,0.00595615,0.0026399
 3,-0.00017431,0.02676379,0.52716774,-0.00046043,0.02705762,-0.08897688
 ,-0.00815905,0.02418706,0.00496934,0.00445193,-0.04702374,-0.01170103,
 0.00100921,-0.00416968,0.00641713,0.00048825,0.00280009,0.60530635,0.0
 0165672,0.00426293,0.01024467,0.00007004,-0.00045365,-0.00022300,0.000
 93735,0.00370622,0.00130722,0.00010847,-0.00016730,-0.00003722,-0.0790
 5999,-0.04439933,-0.07544853,0.08081779,-0.01458876,-0.00937894,-0.028
 34306,0.00006865,0.00073800,0.00121268,0.00183372,-0.00918381,-0.00276
 676,0.00010307,0.00163173,0.00138511,-0.04130787,-0.11456389,-0.104945
 18,0.04673595,0.12156204,-0.00047884,0.00191719,-0.00140595,0.00049638
 ,-0.00052962,0.00022356,-0.00029003,0.00032061,0.00236551,0.00112494,0
 .00032134,0.00075374,-0.07405990,-0.10801438,-0.23159288,0.08171694,0.
 11805388,0.24700929,-0.01197288,-0.00517243,-0.00035075,0.00059763,0.0
 0061004,-0.00003157,0.00181989,0.00002231,0.00047287,-0.00015367,0.003
 10994,-0.00058141,-0.32476505,0.00460114,-0.00025303,-0.00803366,0.000
 53623,0.00103507,0.35071293,0.03205642,0.00547976,-0.00057406,-0.00128
 136,0.00057083,0.00033943,-0.00131692,0.00098284,0.00032537,0.00702811
 ,-0.00742183,-0.00001737,0.00014856,-0.05187310,0.00022051,-0.01672611
 ,0.00033994,0.00181292,-0.00438047,0.05168447,-0.00023691,-0.00082444,
 -0.00263506,0.00003947,-0.00015401,-0.00013686,-0.00007221,-0.00035631
 ,-0.00030878,-0.00016518,0.00023581,0.00169454,-0.00085584,0.00106700,
 -0.04857861,-0.02711270,0.00243251,0.00118673,0.00104063,-0.00020206,0
 .04699172,0.00341816,0.00670474,-0.01163537,-0.00021602,0.00234257,0.0
 0032287,-0.00031544,-0.00149478,-0.00017734,0.00101669,-0.00086142,-0.
 00009049,-0.08166453,-0.04349191,0.07837166,0.00350328,0.00661902,-0.0
 0954457,-0.00820519,-0.01552825,0.02736275,0.08246306,-0.01431941,-0.0
 1908388,0.03362960,0.00288456,-0.00512894,-0.00128182,0.00029627,0.003
 49831,-0.00130778,-0.00065807,0.00321833,-0.00214988,-0.04162788,-0.10
 775821,0.10187331,0.00704128,0.00885493,-0.01388194,0.00067323,0.00023
 708,-0.00219851,0.04571002,0.11616236,0.00050249,-0.00070282,-0.001751
 42,0.00000996,-0.00039675,0.00102268,-0.00021500,0.00002474,0.00159497
 ,-0.00120425,-0.00022555,0.00054282,0.07729550,0.10491727,-0.23584342,
 0.00955260,0.01297082,-0.01854001,-0.00133180,-0.00190472,0.00178631,-
 0.08460951,-0.11468299,0.25118807\\-0.00010790,-0.00039682,0.00040530,
 0.00009827,0.00021229,-0.00028304,-0.00008202,0.00003678,-0.00008475,0
 .00007920,0.00009378,0.00001397,-0.00008250,0.00031699,-0.00004828,-0.
 00003262,-0.00010999,-0.00012508,0.00016485,-0.00004018,-0.00000415,-0
 .00003728,-0.00011286,0.00012603\\\@


 ONE THORN OF EXPERIENCE IS WORTH A WHOLE WILDERNESS OF
 WARNING....  LOWELL - AMONG MY BOOKS
 Job cpu time:       0 days  0 hours  0 minutes 52.7 seconds.
 Elapsed time:       0 days  0 hours  0 minutes 13.5 seconds.
 File lengths (MBytes):  RWF=     10 Int=      0 D2E=      0 Chk=      2 Scr=      1
 Normal termination of Gaussian 16 at Tue Mar 31 17:53:11 2026.
