 Entering Gaussian System, Link 0=g16
 Input=/Users/asuyarger/Downloads/11Difluoroethane_Opt_Freq_HF_631pd_Gaussian16.gjf
 Output=/Users/asuyarger/Downloads/11Difluoroethane_Opt_Freq_HF_631pd_Gaussian16.log
 Initial command:
 /Users/asuyarger/Applications/G16/g16/l1.exe "/Users/asuyarger/Applications/G16/scratch/Gau-28896.inp" -scrdir="/Users/asuyarger/Applications/G16/scratch/"
 Entering Link 1 = /Users/asuyarger/Applications/G16/g16/l1.exe PID=     28897.
  
 Copyright (c) 1988,1990,1992,1993,1995,1998,2003,2009,2016,
            Gaussian, Inc.  All Rights Reserved.
  
 This is part of the Gaussian(R) 16 program.  It is based on
 the Gaussian(R) 09 system (copyright 2009, Gaussian, Inc.),
 the Gaussian(R) 03 system (copyright 2003, Gaussian, Inc.),
 the Gaussian(R) 98 system (copyright 1998, Gaussian, Inc.),
 the Gaussian(R) 94 system (copyright 1995, Gaussian, Inc.),
 the Gaussian 92(TM) system (copyright 1992, Gaussian, Inc.),
 the Gaussian 90(TM) system (copyright 1990, Gaussian, Inc.),
 the Gaussian 88(TM) system (copyright 1988, Gaussian, Inc.),
 the Gaussian 86(TM) system (copyright 1986, Carnegie Mellon
 University), and the Gaussian 82(TM) system (copyright 1983,
 Carnegie Mellon University). Gaussian is a federally registered
 trademark of Gaussian, Inc.
  
 This software contains proprietary and confidential information,
 including trade secrets, belonging to Gaussian, Inc.
  
 This software is provided under written license and may be
 used, copied, transmitted, or stored only in accord with that
 written license.
  
 The following legend is applicable only to US Government
 contracts under FAR:
  
                    RESTRICTED RIGHTS LEGEND
  
 Use, reproduction and disclosure by the US Government is
 subject to restrictions as set forth in subparagraphs (a)
 and (c) of the Commercial Computer Software - Restricted
 Rights clause in FAR 52.227-19.
  
 Gaussian, Inc.
 340 Quinnipiac St., Bldg. 40, Wallingford CT 06492
  
  
 ---------------------------------------------------------------
 Warning -- This program may not be used in any manner that
 competes with the business of Gaussian, Inc. or will provide
 assistance to any competitor of Gaussian, Inc.  The licensee
 of this program is prohibited from giving any competitor of
 Gaussian, Inc. access to this program.  By using this program,
 the user acknowledges that Gaussian, Inc. is engaged in the
 business of creating and licensing software in the field of
 computational chemistry and represents and warrants to the
 licensee that it is not a competitor of Gaussian, Inc. and that
 it will not use this program in any manner prohibited above.
 ---------------------------------------------------------------
  

 Cite this work as:
 Gaussian 16, Revision A.03,
 M. J. Frisch, G. W. Trucks, H. B. Schlegel, G. E. Scuseria, 
 M. A. Robb, J. R. Cheeseman, G. Scalmani, V. Barone, 
 G. A. Petersson, H. Nakatsuji, X. Li, M. Caricato, A. V. Marenich, 
 J. Bloino, B. G. Janesko, R. Gomperts, B. Mennucci, H. P. Hratchian, 
 J. V. Ortiz, A. F. Izmaylov, J. L. Sonnenberg, D. Williams-Young, 
 F. Ding, F. Lipparini, F. Egidi, J. Goings, B. Peng, A. Petrone, 
 T. Henderson, D. Ranasinghe, V. G. Zakrzewski, J. Gao, N. Rega, 
 G. Zheng, W. Liang, M. Hada, M. Ehara, K. Toyota, R. Fukuda, 
 J. Hasegawa, M. Ishida, T. Nakajima, Y. Honda, O. Kitao, H. Nakai, 
 T. Vreven, K. Throssell, J. A. Montgomery, Jr., J. E. Peralta, 
 F. Ogliaro, M. J. Bearpark, J. J. Heyd, E. N. Brothers, K. N. Kudin, 
 V. N. Staroverov, T. A. Keith, R. Kobayashi, J. Normand, 
 K. Raghavachari, A. P. Rendell, J. C. Burant, S. S. Iyengar, 
 J. Tomasi, M. Cossi, J. M. Millam, M. Klene, C. Adamo, R. Cammi, 
 J. W. Ochterski, R. L. Martin, K. Morokuma, O. Farkas, 
 J. B. Foresman, and D. J. Fox, Gaussian, Inc., Wallingford CT, 2016.
 
 ******************************************
 Gaussian 16:  EM64M-G16RevA.03 25-Dec-2016
                31-Mar-2026 
 ******************************************
 %nprocshared=4
 Will use up to    4 processors via shared memory.
 %mem=4GB
 %chk=11Difluoroethane_Opt_Freq_HF_631pd_Gaussian16.chk
 -----------------------------------------------------------------
 #p opt freq=raman hf/6-31+g(d) guess=save geom=connectivity polar
 -----------------------------------------------------------------
 1/18=20,19=15,38=1,57=2/1,3;
 2/9=110,12=2,17=6,18=5,40=1/2;
 3/5=1,6=6,7=11,11=9,25=1,30=1,71=1/1,2,3;
 4//1;
 5/5=2,38=5,98=1/2;
 6/7=2,8=2,9=2,10=2,28=1/1;
 7//1,2,3,16;
 1/18=20,19=15/3(2);
 2/9=110/2;
 99//99;
 2/9=110/2;
 3/5=1,6=6,7=11,11=9,25=1,30=1,71=1/1,2,3;
 4/5=5,16=3,69=1/1;
 5/5=2,38=5,98=1/2;
 7//1,2,3,16;
 1/18=20,19=15/3(-5);
 2/9=110/2;
 6/7=2,8=2,9=2,10=2,19=2,28=1/1;
 99/9=1/99;
 Leave Link    1 at Tue Mar 31 17:51:09 2026, MaxMem=   536870912 cpu:               0.1 elap:               0.0
 (Enter /Users/asuyarger/Applications/G16/g16/l101.exe)
 --------------------------
 R152a - 1,1-difluoroethane
 --------------------------
 Symbolic Z-matrix:
 Charge =  0 Multiplicity = 1
 C                     0.74359   0.09744   0. 
 H                     1.10026   0.60183  -0.87365 
 F                     1.1936    0.73383   1.10227 
 F                    -0.60641   0.09745  0. 
 C                     1.25691  -1.3545   0. 
 H                     0.90023  -1.85889  -0.87365 
 H                     2.32691  -1.35451   0. 
 H                     0.90023  -1.8589    0.87365 
 
 ITRead=  0  0  0  0  0  0  0  0
 MicOpt= -1 -1 -1 -1 -1 -1 -1 -1
 NAtoms=      8 NQM=        8 NQMF=       0 NMMI=      0 NMMIF=      0
                NMic=       0 NMicF=      0.
                    Isotopes and Nuclear Properties:
 (Nuclear quadrupole moments (NQMom) in fm**2, nuclear magnetic moments (NMagM)
  in nuclear magnetons)

  Atom         1           2           3           4           5           6           7           8
 IAtWgt=          12           1          19          19          12           1           1           1
 AtmWgt=  12.0000000   1.0078250  18.9984033  18.9984033  12.0000000   1.0078250   1.0078250   1.0078250
 NucSpn=           0           1           1           1           0           1           1           1
 AtZEff=  -0.0000000  -0.0000000  -0.0000000  -0.0000000  -0.0000000  -0.0000000  -0.0000000  -0.0000000
 NQMom=    0.0000000   0.0000000   0.0000000   0.0000000   0.0000000   0.0000000   0.0000000   0.0000000
 NMagM=    0.0000000   2.7928460   2.6288670   2.6288670   0.0000000   2.7928460   2.7928460   2.7928460
 AtZNuc=   6.0000000   1.0000000   9.0000000   9.0000000   6.0000000   1.0000000   1.0000000   1.0000000
 Leave Link  101 at Tue Mar 31 17:51:09 2026, MaxMem=   536870912 cpu:               0.5 elap:               0.1
 (Enter /Users/asuyarger/Applications/G16/g16/l103.exe)

 GradGradGradGradGradGradGradGradGradGradGradGradGradGradGradGradGradGrad
 Berny optimization.
 Initialization pass.
                           ----------------------------
                           !    Initial Parameters    !
                           ! (Angstroms and Degrees)  !
 --------------------------                            --------------------------
 ! Name  Definition              Value          Derivative Info.                !
 --------------------------------------------------------------------------------
 ! R1    R(1,2)                  1.07           estimate D2E/DX2                !
 ! R2    R(1,3)                  1.35           estimate D2E/DX2                !
 ! R3    R(1,4)                  1.35           estimate D2E/DX2                !
 ! R4    R(1,5)                  1.54           estimate D2E/DX2                !
 ! R5    R(5,6)                  1.07           estimate D2E/DX2                !
 ! R6    R(5,7)                  1.07           estimate D2E/DX2                !
 ! R7    R(5,8)                  1.07           estimate D2E/DX2                !
 ! A1    A(2,1,3)              109.4712         estimate D2E/DX2                !
 ! A2    A(2,1,4)              109.4712         estimate D2E/DX2                !
 ! A3    A(2,1,5)              109.4712         estimate D2E/DX2                !
 ! A4    A(3,1,4)              109.4712         estimate D2E/DX2                !
 ! A5    A(3,1,5)              109.4712         estimate D2E/DX2                !
 ! A6    A(4,1,5)              109.4712         estimate D2E/DX2                !
 ! A7    A(1,5,6)              109.4712         estimate D2E/DX2                !
 ! A8    A(1,5,7)              109.4712         estimate D2E/DX2                !
 ! A9    A(1,5,8)              109.4712         estimate D2E/DX2                !
 ! A10   A(6,5,7)              109.4712         estimate D2E/DX2                !
 ! A11   A(6,5,8)              109.4712         estimate D2E/DX2                !
 ! A12   A(7,5,8)              109.4712         estimate D2E/DX2                !
 ! D1    D(2,1,5,6)            -60.0            estimate D2E/DX2                !
 ! D2    D(2,1,5,7)             60.0            estimate D2E/DX2                !
 ! D3    D(2,1,5,8)            180.0            estimate D2E/DX2                !
 ! D4    D(3,1,5,6)            180.0            estimate D2E/DX2                !
 ! D5    D(3,1,5,7)            -60.0            estimate D2E/DX2                !
 ! D6    D(3,1,5,8)             60.0            estimate D2E/DX2                !
 ! D7    D(4,1,5,6)             60.0            estimate D2E/DX2                !
 ! D8    D(4,1,5,7)            180.0            estimate D2E/DX2                !
 ! D9    D(4,1,5,8)            -60.0            estimate D2E/DX2                !
 --------------------------------------------------------------------------------
 Trust Radius=3.00D-01 FncErr=1.00D-07 GrdErr=1.00D-07 EigMax=2.50D+02 EigMin=1.00D-04
 Number of steps in this run=     38 maximum allowed number of steps=    100.
 GradGradGradGradGradGradGradGradGradGradGradGradGradGradGradGradGradGrad

 Leave Link  103 at Tue Mar 31 17:51:09 2026, MaxMem=   536870912 cpu:               0.0 elap:               0.0
 (Enter /Users/asuyarger/Applications/G16/g16/l202.exe)
                          Input orientation:                          
 ---------------------------------------------------------------------
 Center     Atomic      Atomic             Coordinates (Angstroms)
 Number     Number       Type             X           Y           Z
 ---------------------------------------------------------------------
      1          6           0        0.743590    0.097436    0.000000
      2          1           0        1.100263    0.601835   -0.873651
      3          9           0        1.193597    0.733826    1.102271
      4          9           0       -0.606410    0.097453   -0.000000
      5          6           0        1.256905   -1.354496   -0.000000
      6          1           0        0.900233   -1.858895   -0.873652
      7          1           0        2.326905   -1.354510    0.000000
      8          1           0        0.900232   -1.858895    0.873651
 ---------------------------------------------------------------------
                    Distance matrix (angstroms):
                    1          2          3          4          5
     1  C    0.000000
     2  H    1.070000   0.000000
     3  F    1.350000   1.982524   0.000000
     4  F    1.350000   1.982524   2.204541   0.000000
     5  C    1.540000   2.148263   2.362224   2.362224   0.000000
     6  H    2.148263   2.468846   3.273001   2.619262   1.070000
     7  H    2.148263   2.468846   2.619262   3.273001   1.070000
     8  H    2.148263   3.024610   2.619262   2.619262   1.070000
                    6          7          8
     6  H    0.000000
     7  H    1.747303   0.000000
     8  H    1.747303   1.747303   0.000000
 Stoichiometry    C2H4F2
 Framework group  CS[SG(C2H2),X(H2F2)]
 Deg. of freedom    11
 Full point group                 CS      NOp   2
 Largest Abelian subgroup         CS      NOp   2
 Largest concise Abelian subgroup CS      NOp   2
                         Standard orientation:                         
 ---------------------------------------------------------------------
 Center     Atomic      Atomic             Coordinates (Angstroms)
 Number     Number       Type             X           Y           Z
 ---------------------------------------------------------------------
      1          6           0        0.332842    0.140941    0.000000
      2          1           0        1.206494    0.758706    0.000000
      3          9           0        0.332842   -0.638481   -1.102270
      4          9           0        0.332842   -0.638481    1.102270
      5          6           0       -0.924562    1.030061    0.000000
      6          1           0       -0.924562    1.647826    0.873651
      7          1           0       -0.924562    1.647826   -0.873651
      8          1           0       -1.798214    0.412296    0.000000
 ---------------------------------------------------------------------
 Rotational constants (GHZ):           9.4549941           8.9776407           5.1437408
 Leave Link  202 at Tue Mar 31 17:51:09 2026, MaxMem=   536870912 cpu:               0.0 elap:               0.0
 (Enter /Users/asuyarger/Applications/G16/g16/l301.exe)
 Standard basis: 6-31+G(d) (6D, 7F)
 Ernie: Thresh=  0.10000D-02 Tol=  0.10000D-05 Strict=F.
 There are    53 symmetry adapted cartesian basis functions of A'  symmetry.
 There are    31 symmetry adapted cartesian basis functions of A"  symmetry.
 There are    53 symmetry adapted basis functions of A'  symmetry.
 There are    31 symmetry adapted basis functions of A"  symmetry.
    84 basis functions,   144 primitive gaussians,    84 cartesian basis functions
    17 alpha electrons       17 beta electrons
       nuclear repulsion energy       132.6230194170 Hartrees.
 IExCor=    0 DFT=F Ex=HF Corr=None ExCW=0 ScaHFX=  1.000000
 ScaDFX=  1.000000  1.000000  1.000000  1.000000 ScalE2=  1.000000  1.000000
 IRadAn=      5 IRanWt=     -1 IRanGd=            0 ICorTp=0 IEmpDi=  4
 NAtoms=    8 NActive=    8 NUniq=    6 SFac= 1.78D+00 NAtFMM=   60 NAOKFM=F Big=F
 Integral buffers will be    131072 words long.
 Raffenetti 1 integral format.
 Two-electron integral symmetry is turned on.
 Leave Link  301 at Tue Mar 31 17:51:09 2026, MaxMem=   536870912 cpu:               0.1 elap:               0.0
 (Enter /Users/asuyarger/Applications/G16/g16/l302.exe)
 NPDir=0 NMtPBC=     1 NCelOv=     1 NCel=       1 NClECP=     1 NCelD=      1
         NCelK=      1 NCelE2=     1 NClLst=     1 CellRange=     0.0.
 One-electron integrals computed using PRISM.
 One-electron integral symmetry used in STVInt
 NBasis=    84 RedAO= T EigKep=  2.83D-04  NBF=    53    31
 NBsUse=    84 1.00D-06 EigRej= -1.00D+00 NBFU=    53    31
 Leave Link  302 at Tue Mar 31 17:51:09 2026, MaxMem=   536870912 cpu:               0.3 elap:               0.1
 (Enter /Users/asuyarger/Applications/G16/g16/l303.exe)
 DipDrv:  MaxL=1.
 Leave Link  303 at Tue Mar 31 17:51:09 2026, MaxMem=   536870912 cpu:               0.1 elap:               0.0
 (Enter /Users/asuyarger/Applications/G16/g16/l401.exe)
 ExpMin= 4.38D-02 ExpMax= 7.00D+03 ExpMxC= 1.05D+03 IAcc=3 IRadAn=         5 AccDes= 0.00D+00
 Harris functional with IExCor=  205 and IRadAn=       5 diagonalized for initial guess.
 HarFok:  IExCor=  205 AccDes= 0.00D+00 IRadAn=         5 IDoV= 1 UseB2=F ITyADJ=14
 ICtDFT=  3500011 ScaDFX=  1.000000  1.000000  1.000000  1.000000
 FoFCou: FMM=F IPFlag=           0 FMFlag=      100000 FMFlg1=           0
         NFxFlg=           0 DoJE=T BraDBF=F KetDBF=T FulRan=T
         wScrn=  0.000000 ICntrl=       500 IOpCl=  0 I1Cent=   200000004 NGrid=           0
         NMat0=    1 NMatS0=      1 NMatT0=    0 NMatD0=    1 NMtDS0=    0 NMtDT0=    0
 Petite list used in FoFCou.
 Harris En= -277.065554418770    
 JPrj=0 DoOrth=F DoCkMO=F.
 Initial guess orbital symmetries:
       Occupied  (A') (A") (A') (A') (A') (A") (A') (A') (A') (A")
                 (A') (A") (A') (A") (A') (A") (A')
       Virtual   (A') (A') (A") (A') (A") (A') (A') (A') (A") (A')
                 (A") (A') (A') (A') (A") (A') (A') (A") (A') (A')
                 (A") (A') (A") (A') (A') (A") (A') (A') (A") (A")
                 (A') (A') (A') (A') (A') (A") (A') (A") (A") (A')
                 (A') (A") (A') (A') (A") (A') (A") (A') (A") (A')
                 (A") (A") (A') (A") (A') (A') (A") (A') (A") (A')
                 (A') (A") (A') (A') (A') (A") (A')
 The electronic state of the initial guess is 1-A'.
 Leave Link  401 at Tue Mar 31 17:51:10 2026, MaxMem=   536870912 cpu:               0.6 elap:               0.2
 (Enter /Users/asuyarger/Applications/G16/g16/l502.exe)
 Keep R1 ints in memory in symmetry-blocked form, NReq=9591280.
 FoFCou: FMM=F IPFlag=           0 FMFlag=           0 FMFlg1=           0
         NFxFlg=           0 DoJE=F BraDBF=F KetDBF=F FulRan=T
         wScrn=  0.000000 ICntrl=       600 IOpCl=  0 I1Cent=           0 NGrid=           0
         NMat0=    1 NMatS0=   3570 NMatT0=    0 NMatD0=    1 NMtDS0=    0 NMtDT0=    0
 Petite list used in FoFCou.
 Closed shell SCF:
 Using DIIS extrapolation, IDIIS=  1040.
 NGot=   536870912 LenX=   533638906 LenY=   533631409
 Requested convergence on RMS density matrix=1.00D-08 within 128 cycles.
 Requested convergence on MAX density matrix=1.00D-06.
 Requested convergence on             energy=1.00D-06.
 No special actions if energy rises.

 Cycle   1  Pass 1  IDiag  1:
 E= -276.819707004036    
 DIIS: error= 4.60D-02 at cycle   1 NSaved=   1.
 NSaved= 1 IEnMin= 1 EnMin= -276.819707004036     IErMin= 1 ErrMin= 4.60D-02
 ErrMax= 4.60D-02  0.00D+00 EMaxC= 1.00D-01 BMatC= 2.54D-01 BMatP= 2.54D-01
 IDIUse=3 WtCom= 5.40D-01 WtEn= 4.60D-01
 Coeff-Com:  0.100D+01
 Coeff-En:   0.100D+01
 Coeff:      0.100D+01
 Gap=     0.625 Goal=   None    Shift=    0.000
 GapD=    0.625 DampG=2.000 DampE=0.500 DampFc=1.0000 IDamp=-1.
 RMSDP=5.53D-03 MaxDP=1.17D-01              OVMax= 1.22D-01

 Cycle   2  Pass 1  IDiag  1:
 E= -276.939162408818     Delta-E=       -0.119455404781 Rises=F Damp=F
 DIIS: error= 1.36D-02 at cycle   2 NSaved=   2.
 NSaved= 2 IEnMin= 2 EnMin= -276.939162408818     IErMin= 2 ErrMin= 1.36D-02
 ErrMax= 1.36D-02  0.00D+00 EMaxC= 1.00D-01 BMatC= 1.79D-02 BMatP= 2.54D-01
 IDIUse=3 WtCom= 8.64D-01 WtEn= 1.36D-01
 Coeff-Com:  0.121D+00 0.879D+00
 Coeff-En:   0.000D+00 0.100D+01
 Coeff:      0.105D+00 0.895D+00
 Gap=     0.616 Goal=   None    Shift=    0.000
 RMSDP=1.53D-03 MaxDP=3.61D-02 DE=-1.19D-01 OVMax= 3.77D-02

 Cycle   3  Pass 1  IDiag  1:
 E= -276.953765746610     Delta-E=       -0.014603337793 Rises=F Damp=F
 DIIS: error= 3.54D-03 at cycle   3 NSaved=   3.
 NSaved= 3 IEnMin= 3 EnMin= -276.953765746610     IErMin= 3 ErrMin= 3.54D-03
 ErrMax= 3.54D-03  0.00D+00 EMaxC= 1.00D-01 BMatC= 1.10D-03 BMatP= 1.79D-02
 IDIUse=3 WtCom= 9.65D-01 WtEn= 3.54D-02
 Coeff-Com: -0.247D-01 0.154D+00 0.870D+00
 Coeff-En:   0.000D+00 0.000D+00 0.100D+01
 Coeff:     -0.238D-01 0.149D+00 0.875D+00
 Gap=     0.589 Goal=   None    Shift=    0.000
 RMSDP=3.69D-04 MaxDP=8.39D-03 DE=-1.46D-02 OVMax= 9.01D-03

 Cycle   4  Pass 1  IDiag  1:
 E= -276.954878562560     Delta-E=       -0.001112815950 Rises=F Damp=F
 DIIS: error= 2.81D-04 at cycle   4 NSaved=   4.
 NSaved= 4 IEnMin= 4 EnMin= -276.954878562560     IErMin= 4 ErrMin= 2.81D-04
 ErrMax= 2.81D-04  0.00D+00 EMaxC= 1.00D-01 BMatC= 1.21D-05 BMatP= 1.10D-03
 IDIUse=3 WtCom= 9.97D-01 WtEn= 2.81D-03
 Coeff-Com:  0.342D-02-0.414D-01-0.155D+00 0.119D+01
 Coeff-En:   0.000D+00 0.000D+00 0.000D+00 0.100D+01
 Coeff:      0.341D-02-0.413D-01-0.154D+00 0.119D+01
 Gap=     0.588 Goal=   None    Shift=    0.000
 RMSDP=9.91D-05 MaxDP=1.39D-03 DE=-1.11D-03 OVMax= 1.61D-03

 Cycle   5  Pass 1  IDiag  1:
 E= -276.954902290943     Delta-E=       -0.000023728383 Rises=F Damp=F
 DIIS: error= 7.32D-05 at cycle   5 NSaved=   5.
 NSaved= 5 IEnMin= 5 EnMin= -276.954902290943     IErMin= 5 ErrMin= 7.32D-05
 ErrMax= 7.32D-05  0.00D+00 EMaxC= 1.00D-01 BMatC= 7.09D-07 BMatP= 1.21D-05
 IDIUse=1 WtCom= 1.00D+00 WtEn= 0.00D+00
 Coeff-Com:  0.115D-02-0.103D-01-0.455D-01 0.903D-01 0.964D+00
 Coeff:      0.115D-02-0.103D-01-0.455D-01 0.903D-01 0.964D+00
 Gap=     0.588 Goal=   None    Shift=    0.000
 RMSDP=2.13D-05 MaxDP=3.50D-04 DE=-2.37D-05 OVMax= 4.98D-04

 Cycle   6  Pass 1  IDiag  1:
 E= -276.954903606450     Delta-E=       -0.000001315508 Rises=F Damp=F
 DIIS: error= 2.33D-05 at cycle   6 NSaved=   6.
 NSaved= 6 IEnMin= 6 EnMin= -276.954903606450     IErMin= 6 ErrMin= 2.33D-05
 ErrMax= 2.33D-05  0.00D+00 EMaxC= 1.00D-01 BMatC= 6.03D-08 BMatP= 7.09D-07
 IDIUse=1 WtCom= 1.00D+00 WtEn= 0.00D+00
 Coeff-Com: -0.196D-03 0.290D-02 0.115D-01-0.921D-01-0.395D-02 0.108D+01
 Coeff:     -0.196D-03 0.290D-02 0.115D-01-0.921D-01-0.395D-02 0.108D+01
 Gap=     0.588 Goal=   None    Shift=    0.000
 RMSDP=7.14D-06 MaxDP=1.16D-04 DE=-1.32D-06 OVMax= 1.54D-04

 Cycle   7  Pass 1  IDiag  1:
 E= -276.954903726811     Delta-E=       -0.000000120361 Rises=F Damp=F
 DIIS: error= 4.16D-06 at cycle   7 NSaved=   7.
 NSaved= 7 IEnMin= 7 EnMin= -276.954903726811     IErMin= 7 ErrMin= 4.16D-06
 ErrMax= 4.16D-06  0.00D+00 EMaxC= 1.00D-01 BMatC= 2.88D-09 BMatP= 6.03D-08
 IDIUse=1 WtCom= 1.00D+00 WtEn= 0.00D+00
 Coeff-Com: -0.502D-04 0.368D-03 0.187D-02 0.304D-02-0.558D-01-0.926D-01
 Coeff-Com:  0.114D+01
 Coeff:     -0.502D-04 0.368D-03 0.187D-02 0.304D-02-0.558D-01-0.926D-01
 Coeff:      0.114D+01
 Gap=     0.588 Goal=   None    Shift=    0.000
 RMSDP=2.00D-06 MaxDP=2.77D-05 DE=-1.20D-07 OVMax= 3.79D-05

 Cycle   8  Pass 1  IDiag  1:
 E= -276.954903732777     Delta-E=       -0.000000005965 Rises=F Damp=F
 DIIS: error= 1.33D-06 at cycle   8 NSaved=   8.
 NSaved= 8 IEnMin= 8 EnMin= -276.954903732777     IErMin= 8 ErrMin= 1.33D-06
 ErrMax= 1.33D-06  0.00D+00 EMaxC= 1.00D-01 BMatC= 2.47D-10 BMatP= 2.88D-09
 IDIUse=1 WtCom= 1.00D+00 WtEn= 0.00D+00
 Coeff-Com:  0.363D-05-0.995D-04-0.403D-03 0.435D-02-0.544D-02-0.610D-01
 Coeff-Com:  0.158D+00 0.905D+00
 Coeff:      0.363D-05-0.995D-04-0.403D-03 0.435D-02-0.544D-02-0.610D-01
 Coeff:      0.158D+00 0.905D+00
 Gap=     0.588 Goal=   None    Shift=    0.000
 RMSDP=3.30D-07 MaxDP=4.56D-06 DE=-5.97D-09 OVMax= 5.62D-06

 Cycle   9  Pass 1  IDiag  1:
 E= -276.954903733100     Delta-E=       -0.000000000323 Rises=F Damp=F
 DIIS: error= 4.47D-07 at cycle   9 NSaved=   9.
 NSaved= 9 IEnMin= 9 EnMin= -276.954903733100     IErMin= 9 ErrMin= 4.47D-07
 ErrMax= 4.47D-07  0.00D+00 EMaxC= 1.00D-01 BMatC= 3.38D-11 BMatP= 2.47D-10
 IDIUse=1 WtCom= 1.00D+00 WtEn= 0.00D+00
 Coeff-Com:  0.606D-05-0.596D-04-0.290D-03 0.825D-03 0.513D-02-0.347D-02
 Coeff-Com: -0.113D+00 0.166D+00 0.944D+00
 Coeff:      0.606D-05-0.596D-04-0.290D-03 0.825D-03 0.513D-02-0.347D-02
 Coeff:     -0.113D+00 0.166D+00 0.944D+00
 Gap=     0.588 Goal=   None    Shift=    0.000
 RMSDP=1.47D-07 MaxDP=2.18D-06 DE=-3.23D-10 OVMax= 2.75D-06

 Cycle  10  Pass 1  IDiag  1:
 E= -276.954903733145     Delta-E=       -0.000000000045 Rises=F Damp=F
 DIIS: error= 9.03D-08 at cycle  10 NSaved=  10.
 NSaved=10 IEnMin=10 EnMin= -276.954903733145     IErMin=10 ErrMin= 9.03D-08
 ErrMax= 9.03D-08  0.00D+00 EMaxC= 1.00D-01 BMatC= 1.01D-12 BMatP= 3.38D-11
 IDIUse=1 WtCom= 1.00D+00 WtEn= 0.00D+00
 Coeff-Com: -0.668D-06 0.106D-04 0.396D-04-0.332D-03-0.192D-04 0.437D-02
 Coeff-Com: -0.258D-02-0.676D-01-0.498D-01 0.112D+01
 Coeff:     -0.668D-06 0.106D-04 0.396D-04-0.332D-03-0.192D-04 0.437D-02
 Coeff:     -0.258D-02-0.676D-01-0.498D-01 0.112D+01
 Gap=     0.588 Goal=   None    Shift=    0.000
 RMSDP=2.74D-08 MaxDP=3.85D-07 DE=-4.45D-11 OVMax= 4.25D-07

 Cycle  11  Pass 1  IDiag  1:
 E= -276.954903733147     Delta-E=       -0.000000000002 Rises=F Damp=F
 DIIS: error= 1.59D-08 at cycle  11 NSaved=  11.
 NSaved=11 IEnMin=11 EnMin= -276.954903733147     IErMin=11 ErrMin= 1.59D-08
 ErrMax= 1.59D-08  0.00D+00 EMaxC= 1.00D-01 BMatC= 3.53D-14 BMatP= 1.01D-12
 IDIUse=1 WtCom= 1.00D+00 WtEn= 0.00D+00
 Coeff-Com: -0.112D-07-0.622D-06-0.779D-06 0.645D-04-0.223D-03-0.106D-02
 Coeff-Com:  0.520D-02 0.106D-01-0.212D-01-0.284D+00 0.129D+01
 Coeff:     -0.112D-07-0.622D-06-0.779D-06 0.645D-04-0.223D-03-0.106D-02
 Coeff:      0.520D-02 0.106D-01-0.212D-01-0.284D+00 0.129D+01
 Gap=     0.588 Goal=   None    Shift=    0.000
 RMSDP=7.07D-09 MaxDP=7.31D-08 DE=-1.93D-12 OVMax= 9.34D-08

 SCF Done:  E(RHF) =  -276.954903733     A.U. after   11 cycles
            NFock= 11  Conv=0.71D-08     -V/T= 2.0022
 KE= 2.763528511772D+02 PE=-9.227448066640D+02 EE= 2.368140323366D+02
 Leave Link  502 at Tue Mar 31 17:51:10 2026, MaxMem=   536870912 cpu:               0.8 elap:               0.2
 (Enter /Users/asuyarger/Applications/G16/g16/l601.exe)
 Copying SCF densities to generalized density rwf, IOpCl= 0 IROHF=0.

 **********************************************************************

            Population analysis using the SCF density.

 **********************************************************************

 Orbital symmetries:
       Occupied  (A") (A') (A') (A') (A') (A") (A') (A') (A') (A")
                 (A') (A") (A") (A') (A") (A') (A')
       Virtual   (A') (A') (A") (A') (A") (A') (A') (A') (A') (A")
                 (A') (A") (A") (A') (A') (A') (A") (A') (A') (A")
                 (A') (A') (A") (A') (A') (A") (A') (A') (A") (A')
                 (A") (A') (A') (A') (A') (A") (A') (A") (A') (A")
                 (A') (A") (A') (A') (A") (A') (A") (A") (A') (A")
                 (A') (A") (A') (A') (A") (A') (A") (A') (A") (A')
                 (A') (A") (A') (A') (A') (A") (A')
 The electronic state is 1-A'.
 Alpha  occ. eigenvalues --  -26.32468 -26.32466 -11.41009 -11.23632  -1.66680
 Alpha  occ. eigenvalues --   -1.60606  -1.04878  -0.90183  -0.78457  -0.76474
 Alpha  occ. eigenvalues --   -0.73280  -0.67011  -0.63497  -0.62216  -0.57715
 Alpha  occ. eigenvalues --   -0.56953  -0.50671
 Alpha virt. eigenvalues --    0.08154   0.08958   0.10999   0.11130   0.13465
 Alpha virt. eigenvalues --    0.13762   0.14068   0.20555   0.29913   0.30181
 Alpha virt. eigenvalues --    0.34936   0.35654   0.39046   0.39403   0.40213
 Alpha virt. eigenvalues --    0.41975   0.42583   0.43526   0.44343   0.45676
 Alpha virt. eigenvalues --    0.50195   0.52755   0.53748   0.83431   0.87498
 Alpha virt. eigenvalues --    0.87718   0.93596   0.98108   0.99589   1.20514
 Alpha virt. eigenvalues --    1.22458   1.23480   1.35671   1.39637   1.55983
 Alpha virt. eigenvalues --    1.59660   1.65260   1.86355   1.90008   1.90341
 Alpha virt. eigenvalues --    1.94261   1.95146   1.95203   2.06080   2.07579
 Alpha virt. eigenvalues --    2.09175   2.12855   2.16198   2.17614   2.25814
 Alpha virt. eigenvalues --    2.32269   2.35407   2.45681   2.49938   2.54967
 Alpha virt. eigenvalues --    2.60363   2.62307   2.76282   2.94637   2.97900
 Alpha virt. eigenvalues --    3.10516   3.46330   3.52652   4.65889   4.93043
 Alpha virt. eigenvalues --    5.65340   5.94026
          Condensed to atoms (all electrons):
               1          2          3          4          5          6
     1  C    4.410024   0.431361   0.127636   0.127636   0.375923  -0.042196
     2  H    0.431361   0.540919  -0.051750  -0.051750  -0.048267  -0.000817
     3  F    0.127636  -0.051750   9.398483  -0.021721  -0.070708   0.008460
     4  F    0.127636  -0.051750  -0.021721   9.398483  -0.070708  -0.004738
     5  C    0.375923  -0.048267  -0.070708  -0.070708   5.332130   0.396845
     6  H   -0.042196  -0.000817   0.008460  -0.004738   0.396845   0.476418
     7  H   -0.042196  -0.000817  -0.004738   0.008460   0.396845  -0.025048
     8  H   -0.020303   0.003412  -0.003488  -0.003488   0.385339  -0.022297
               7          8
     1  C   -0.042196  -0.020303
     2  H   -0.000817   0.003412
     3  F   -0.004738  -0.003488
     4  F    0.008460  -0.003488
     5  C    0.396845   0.385339
     6  H   -0.025048  -0.022297
     7  H    0.476418  -0.022297
     8  H   -0.022297   0.457940
 Mulliken charges:
               1
     1  C    0.632114
     2  H    0.177709
     3  F   -0.382175
     4  F   -0.382175
     5  C   -0.697400
     6  H    0.213373
     7  H    0.213373
     8  H    0.225181
 Sum of Mulliken charges =  -0.00000
 Mulliken charges with hydrogens summed into heavy atoms:
               1
     1  C    0.809822
     3  F   -0.382175
     4  F   -0.382175
     5  C   -0.045473
 Electronic spatial extent (au):  <R**2>=            258.0900
 Charge=             -0.0000 electrons
 Dipole moment (field-independent basis, Debye):
    X=             -0.2718    Y=              2.4003    Z=              0.0000  Tot=              2.4157
 Quadrupole moment (field-independent basis, Debye-Ang):
   XX=            -21.6057   YY=            -23.0741   ZZ=            -25.8794
   XY=              0.7305   XZ=             -0.0000   YZ=              0.0000
 Traceless Quadrupole moment (field-independent basis, Debye-Ang):
   XX=              1.9140   YY=              0.4457   ZZ=             -2.3596
   XY=              0.7305   XZ=             -0.0000   YZ=              0.0000
 Octapole moment (field-independent basis, Debye-Ang**2):
  XXX=              5.1992  YYY=             -7.1477  ZZZ=              0.0000  XYY=              1.3242
  XXY=             -2.3942  XXZ=              0.0000  XZZ=              0.4445  YZZ=              0.1199
  YYZ=              0.0000  XYZ=             -0.0000
 Hexadecapole moment (field-independent basis, Debye-Ang**3):
 XXXX=            -80.2530 YYYY=           -103.9004 ZZZZ=           -100.6626 XXXY=             28.9405
 XXXZ=              0.0000 YYYX=             26.9618 YYYZ=             -0.0000 ZZZX=              0.0000
 ZZZY=             -0.0000 XXYY=            -31.2169 XXZZ=            -31.0858 YYZZ=            -32.3692
 XXYZ=             -0.0000 YYXZ=              0.0000 ZZXY=              9.0083
 N-N= 1.326230194170D+02 E-N=-9.227448065829D+02  KE= 2.763528511772D+02
 Symmetry A'   KE= 1.735166017089D+02
 Symmetry A"   KE= 1.028362494683D+02
 No NMR shielding tensors so no spin-rotation constants.
 Leave Link  601 at Tue Mar 31 17:51:10 2026, MaxMem=   536870912 cpu:               0.3 elap:               0.1
 (Enter /Users/asuyarger/Applications/G16/g16/l701.exe)
 ... and contract with generalized density number  0.
 Compute integral first derivatives.
 Leave Link  701 at Tue Mar 31 17:51:10 2026, MaxMem=   536870912 cpu:               0.3 elap:               0.1
 (Enter /Users/asuyarger/Applications/G16/g16/l702.exe)
 L702 exits ... SP integral derivatives will be done elsewhere.
 Leave Link  702 at Tue Mar 31 17:51:10 2026, MaxMem=   536870912 cpu:               0.1 elap:               0.0
 (Enter /Users/asuyarger/Applications/G16/g16/l703.exe)
 Integral derivatives from FoFJK, PRISM(SPDF).
 Compute integral first derivatives, UseDBF=F ICtDFT=           0.
 Calling FoFJK, ICntrl=      2127 FMM=F ISym2X=1 I1Cent= 0 IOpClX= 0 NMat=1 NMatS=1 NMatT=0.
 FoFJK:  IHMeth= 1 ICntrl=    2127 DoSepK=F KAlg= 0 I1Cent=           0 FoldK=F
 IRaf=         0 NMat=       1 IRICut=       1 DoRegI=T DoRafI=F ISym2E= 1 IDoP0=0 IntGTp=1.
 FoFCou: FMM=F IPFlag=           0 FMFlag=      100000 FMFlg1=         800
         NFxFlg=           0 DoJE=F BraDBF=F KetDBF=F FulRan=T
         wScrn=  0.000000 ICntrl=      2127 IOpCl=  0 I1Cent=           0 NGrid=           0
         NMat0=    1 NMatS0=      1 NMatT0=    0 NMatD0=    1 NMtDS0=    0 NMtDT0=    0
 Petite list used in FoFCou.
 Leave Link  703 at Tue Mar 31 17:51:10 2026, MaxMem=   536870912 cpu:               0.6 elap:               0.2
 (Enter /Users/asuyarger/Applications/G16/g16/l716.exe)
 Dipole        =-1.06933321D-01 9.44362585D-01 4.66293670D-15
 ***** Axes restored to original set *****
 -------------------------------------------------------------------
 Center     Atomic                   Forces (Hartrees/Bohr)
 Number     Number              X              Y              Z
 -------------------------------------------------------------------
      1        6           0.013966105   -0.037332318   -0.001253585
      2        1          -0.003429512    0.012618755   -0.001684790
      3        9          -0.008197386    0.001541691   -0.004966883
      4        9           0.006061277    0.006582691    0.003764700
      5        6          -0.011865338    0.026139086    0.004285217
      6        1          -0.003454095   -0.004534317   -0.008261959
      7        1           0.010034728    0.000234514   -0.000001803
      8        1          -0.003115781   -0.005250102    0.008119104
 -------------------------------------------------------------------
 Cartesian Forces:  Max     0.037332318 RMS     0.011364676
 Leave Link  716 at Tue Mar 31 17:51:10 2026, MaxMem=   536870912 cpu:               0.1 elap:               0.0
 (Enter /Users/asuyarger/Applications/G16/g16/l103.exe)

 GradGradGradGradGradGradGradGradGradGradGradGradGradGradGradGradGradGrad
 Berny optimization.
 FormGI is forming the generalized inverse of G from B-inverse, IUseBI=4.
 Internal  Forces:  Max     0.018440563 RMS     0.007023069
 Search for a local minimum.
 Step number   1 out of a maximum of   38
 All quantities printed in internal units (Hartrees-Bohrs-Radians)
 RMS Force = .70231D-02 SwitMx=.10000D-02 MixMth= 1
 Mixed Optimization -- RFO/linear search
 Second derivative matrix not updated -- first step.
 ITU=  0
     Eigenvalues ---    0.00237   0.05720   0.05720   0.06082   0.07530
     Eigenvalues ---    0.16000   0.16000   0.16000   0.16000   0.23463
     Eigenvalues ---    0.24168   0.28519   0.37230   0.37230   0.37230
     Eigenvalues ---    0.37230   0.55021   0.55021
 RFO step:  Lambda=-5.82283539D-03 EMin= 2.36824132D-03
 Linear search not attempted -- first point.
 Iteration  1 RMS(Cart)=  0.03058646 RMS(Int)=  0.00170926
 Iteration  2 RMS(Cart)=  0.00146525 RMS(Int)=  0.00083849
 Iteration  3 RMS(Cart)=  0.00000046 RMS(Int)=  0.00083849
 ITry= 1 IFail=0 DXMaxC= 9.43D-02 DCOld= 1.00D+10 DXMaxT= 3.00D-01 DXLimC= 3.00D+00 Rises=F
 ClnCor:  largest displacement from symmetrization is 1.81D-12 for atom     7.
 Variable       Old X    -DE/DX   Delta X   Delta X   Delta X     New X
                                 (Linear)    (Quad)   (Total)
    R1        2.02201   0.00618   0.00000   0.01635   0.01635   2.03835
    R2        2.55113  -0.00606   0.00000  -0.01090  -0.01090   2.54023
    R3        2.55113  -0.00606   0.00000  -0.01090  -0.01090   2.54023
    R4        2.91018  -0.01844   0.00000  -0.06337  -0.06337   2.84681
    R5        2.02201   0.01003   0.00000   0.02654   0.02654   2.04855
    R6        2.02201   0.01003   0.00000   0.02654   0.02654   2.04855
    R7        2.02201   0.01014   0.00000   0.02682   0.02682   2.04883
    A1        1.91063  -0.00882   0.00000  -0.03905  -0.04120   1.86944
    A2        1.91063  -0.00882   0.00000  -0.03905  -0.04120   1.86944
    A3        1.91063   0.01472   0.00000   0.10296   0.10059   2.01122
    A4        1.91063  -0.01092   0.00000  -0.06541  -0.06512   1.84551
    A5        1.91063   0.00692   0.00000   0.02028   0.01916   1.92979
    A6        1.91063   0.00692   0.00000   0.02028   0.01916   1.92979
    A7        1.91063  -0.00044   0.00000  -0.00300  -0.00300   1.90763
    A8        1.91063  -0.00044   0.00000  -0.00300  -0.00300   1.90763
    A9        1.91063   0.00097   0.00000   0.00657   0.00657   1.91720
   A10        1.91063   0.00025   0.00000   0.00001   0.00000   1.91064
   A11        1.91063  -0.00017   0.00000  -0.00029  -0.00029   1.91034
   A12        1.91063  -0.00017   0.00000  -0.00029  -0.00029   1.91034
    D1       -1.04720   0.00012   0.00000   0.00183   0.00182  -1.04537
    D2        1.04720  -0.00012   0.00000  -0.00183  -0.00182   1.04537
    D3        3.14159   0.00000   0.00000  -0.00000   0.00000   3.14159
    D4        3.14159  -0.00233   0.00000  -0.02581  -0.02643   3.11516
    D5       -1.04720  -0.00256   0.00000  -0.02947  -0.03008  -1.07728
    D6        1.04720  -0.00245   0.00000  -0.02764  -0.02826   1.01894
    D7        1.04720   0.00256   0.00000   0.02947   0.03008   1.07728
    D8        3.14159   0.00233   0.00000   0.02581   0.02643  -3.11516
    D9       -1.04720   0.00245   0.00000   0.02764   0.02826  -1.01894
         Item               Value     Threshold  Converged?
 Maximum Force            0.018441     0.000450     NO 
 RMS     Force            0.007023     0.000300     NO 
 Maximum Displacement     0.094271     0.001800     NO 
 RMS     Displacement     0.030501     0.001200     NO 
 Predicted change in Energy=-3.018862D-03
 Lowest energy point so far.  Saving SCF results.
 GradGradGradGradGradGradGradGradGradGradGradGradGradGradGradGradGradGrad

 Leave Link  103 at Tue Mar 31 17:51:10 2026, MaxMem=   536870912 cpu:               0.0 elap:               0.0
 (Enter /Users/asuyarger/Applications/G16/g16/l202.exe)
                          Input orientation:                          
 ---------------------------------------------------------------------
 Center     Atomic      Atomic             Coordinates (Angstroms)
 Number     Number       Type             X           Y           Z
 ---------------------------------------------------------------------
      1          6           0        0.764469    0.068612   -0.017454
      2          1           0        1.079462    0.651721   -0.868483
      3          9           0        1.171162    0.724036    1.083444
      4          9           0       -0.578945    0.105304    0.011731
      5          6           0        1.255605   -1.355406    0.002648
      6          1           0        0.894233   -1.871515   -0.879504
      7          1           0        2.339632   -1.360509    0.005616
      8          1           0        0.889697   -1.858490    0.890621
 ---------------------------------------------------------------------
                    Distance matrix (angstroms):
                    1          2          3          4          5
     1  C    0.000000
     2  H    1.078650   0.000000
     3  F    1.344232   1.955418   0.000000
     4  F    1.344232   1.955418   2.143426   0.000000
     5  C    1.506468   2.195097   2.345065   2.345065   0.000000
     6  H    2.126983   2.530049   3.265997   2.621520   1.084043
     7  H    2.126983   2.530049   2.621520   3.265997   1.084043
     8  H    2.134012   3.071094   2.604966   2.604966   1.084195
                    6          7          8
     6  H    0.000000
     7  H    1.770238   0.000000
     8  H    1.770178   1.770178   0.000000
 Stoichiometry    C2H4F2
 Framework group  CS[SG(C2H2),X(H2F2)]
 Deg. of freedom    11
 Full point group                 CS      NOp   2
 RotChk:  IX=2 Diff= 2.99D-02
 Largest Abelian subgroup         CS      NOp   2
 Largest concise Abelian subgroup CS      NOp   2
                         Standard orientation:                         
 ---------------------------------------------------------------------
 Center     Atomic      Atomic             Coordinates (Angstroms)
 Number     Number       Type             X           Y           Z
 ---------------------------------------------------------------------
      1          6           0        0.322393    0.163283   -0.000000
      2          1           0        1.264234    0.689042   -0.000000
      3          9           0        0.322393   -0.648129   -1.071713
      4          9           0        0.322393   -0.648129    1.071713
      5          6           0       -0.902609    1.040103   -0.000000
      6          1           0       -0.895257    1.665931    0.885119
      7          1           0       -0.895257    1.665931   -0.885119
      8          1           0       -1.795497    0.425100   -0.000000
 ---------------------------------------------------------------------
 Rotational constants (GHZ):           9.8908034           8.9699160           5.2815383
 Leave Link  202 at Tue Mar 31 17:51:10 2026, MaxMem=   536870912 cpu:               0.0 elap:               0.0
 (Enter /Users/asuyarger/Applications/G16/g16/l301.exe)
 Standard basis: 6-31+G(d) (6D, 7F)
 Ernie: Thresh=  0.10000D-02 Tol=  0.10000D-05 Strict=F.
 There are    53 symmetry adapted cartesian basis functions of A'  symmetry.
 There are    31 symmetry adapted cartesian basis functions of A"  symmetry.
 There are    53 symmetry adapted basis functions of A'  symmetry.
 There are    31 symmetry adapted basis functions of A"  symmetry.
    84 basis functions,   144 primitive gaussians,    84 cartesian basis functions
    17 alpha electrons       17 beta electrons
       nuclear repulsion energy       133.7447199151 Hartrees.
 IExCor=    0 DFT=F Ex=HF Corr=None ExCW=0 ScaHFX=  1.000000
 ScaDFX=  1.000000  1.000000  1.000000  1.000000 ScalE2=  1.000000  1.000000
 IRadAn=      5 IRanWt=     -1 IRanGd=            0 ICorTp=0 IEmpDi=  4
 NAtoms=    8 NActive=    8 NUniq=    6 SFac= 1.78D+00 NAtFMM=   60 NAOKFM=F Big=F
 Integral buffers will be    131072 words long.
 Raffenetti 1 integral format.
 Two-electron integral symmetry is turned on.
 Leave Link  301 at Tue Mar 31 17:51:10 2026, MaxMem=   536870912 cpu:               0.1 elap:               0.0
 (Enter /Users/asuyarger/Applications/G16/g16/l302.exe)
 NPDir=0 NMtPBC=     1 NCelOv=     1 NCel=       1 NClECP=     1 NCelD=      1
         NCelK=      1 NCelE2=     1 NClLst=     1 CellRange=     0.0.
 One-electron integrals computed using PRISM.
 One-electron integral symmetry used in STVInt
 NBasis=    84 RedAO= T EigKep=  2.52D-04  NBF=    53    31
 NBsUse=    84 1.00D-06 EigRej= -1.00D+00 NBFU=    53    31
 Leave Link  302 at Tue Mar 31 17:51:11 2026, MaxMem=   536870912 cpu:               0.3 elap:               0.1
 (Enter /Users/asuyarger/Applications/G16/g16/l303.exe)
 DipDrv:  MaxL=1.
 Leave Link  303 at Tue Mar 31 17:51:11 2026, MaxMem=   536870912 cpu:               0.1 elap:               0.0
 (Enter /Users/asuyarger/Applications/G16/g16/l401.exe)
 Initial guess from the checkpoint file:  "11Difluoroethane_Opt_Freq_HF_631pd_Gaussian16.chk"
 B after Tr=    -0.000000    0.000000    0.000000
         Rot=    0.999962    0.000000   -0.000000    0.008741 Ang=   1.00 deg.
 Guess basis will be translated and rotated to current coordinates.
 JPrj=2 DoOrth=T DoCkMO=T.
 Initial guess orbital symmetries:
       Occupied  (A") (A') (A') (A') (A') (A") (A') (A') (A') (A")
                 (A') (A") (A") (A') (A") (A') (A')
       Virtual   (A') (A') (A") (A') (A") (A') (A') (A') (A') (A")
                 (A') (A") (A") (A') (A') (A') (A") (A') (A') (A")
                 (A') (A') (A") (A') (A') (A") (A') (A') (A") (A')
                 (A") (A') (A') (A') (A') (A") (A') (A") (A') (A")
                 (A') (A") (A') (A') (A") (A') (A") (A") (A') (A")
                 (A') (A") (A') (A') (A") (A') (A") (A') (A") (A')
                 (A') (A") (A') (A') (A') (A") (A')
 The electronic state of the initial guess is 1-A'.
 Generating alternative initial guess.
 ExpMin= 4.38D-02 ExpMax= 7.00D+03 ExpMxC= 1.05D+03 IAcc=2 IRadAn=         4 AccDes= 0.00D+00
 Harris functional with IExCor=  205 and IRadAn=       4 diagonalized for initial guess.
 HarFok:  IExCor=  205 AccDes= 0.00D+00 IRadAn=         4 IDoV= 1 UseB2=F ITyADJ=14
 ICtDFT=  3500011 ScaDFX=  1.000000  1.000000  1.000000  1.000000
 FoFCou: FMM=F IPFlag=           0 FMFlag=      100000 FMFlg1=           0
         NFxFlg=           0 DoJE=T BraDBF=F KetDBF=T FulRan=T
         wScrn=  0.000000 ICntrl=       500 IOpCl=  0 I1Cent=   200000004 NGrid=           0
         NMat0=    1 NMatS0=      1 NMatT0=    0 NMatD0=    1 NMtDS0=    0 NMtDT0=    0
 Petite list used in FoFCou.
 Harris En= -277.064304699659    
 Leave Link  401 at Tue Mar 31 17:51:11 2026, MaxMem=   536870912 cpu:               0.6 elap:               0.2
 (Enter /Users/asuyarger/Applications/G16/g16/l502.exe)
 Keep R1 ints in memory in symmetry-blocked form, NReq=9591280.
 FoFCou: FMM=F IPFlag=           0 FMFlag=           0 FMFlg1=           0
         NFxFlg=           0 DoJE=F BraDBF=F KetDBF=F FulRan=T
         wScrn=  0.000000 ICntrl=       600 IOpCl=  0 I1Cent=           0 NGrid=           0
         NMat0=    1 NMatS0=   3570 NMatT0=    0 NMatD0=    1 NMtDS0=    0 NMtDT0=    0
 Petite list used in FoFCou.
 Closed shell SCF:
 Using DIIS extrapolation, IDIIS=  1040.
 NGot=   536870912 LenX=   533638906 LenY=   533631409
 Requested convergence on RMS density matrix=1.00D-08 within 128 cycles.
 Requested convergence on MAX density matrix=1.00D-06.
 Requested convergence on             energy=1.00D-06.
 No special actions if energy rises.

 Cycle   1  Pass 1  IDiag  1:
 E= -276.955440244452    
 DIIS: error= 2.76D-03 at cycle   1 NSaved=   1.
 NSaved= 1 IEnMin= 1 EnMin= -276.955440244452     IErMin= 1 ErrMin= 2.76D-03
 ErrMax= 2.76D-03  0.00D+00 EMaxC= 1.00D-01 BMatC= 1.30D-03 BMatP= 1.30D-03
 IDIUse=3 WtCom= 9.72D-01 WtEn= 2.76D-02
 Coeff-Com:  0.100D+01
 Coeff-En:   0.100D+01
 Coeff:      0.100D+01
 Gap=     0.602 Goal=   None    Shift=    0.000
 GapD=    0.602 DampG=2.000 DampE=1.000 DampFc=2.0000 IDamp=-1.
 RMSDP=5.81D-04 MaxDP=6.40D-03              OVMax= 8.80D-03

 Cycle   2  Pass 1  IDiag  1:
 E= -276.957000317100     Delta-E=       -0.001560072648 Rises=F Damp=F
 DIIS: error= 8.16D-04 at cycle   2 NSaved=   2.
 NSaved= 2 IEnMin= 2 EnMin= -276.957000317100     IErMin= 2 ErrMin= 8.16D-04
 ErrMax= 8.16D-04  0.00D+00 EMaxC= 1.00D-01 BMatC= 8.81D-05 BMatP= 1.30D-03
 IDIUse=3 WtCom= 9.92D-01 WtEn= 8.16D-03
 Coeff-Com: -0.164D+00 0.116D+01
 Coeff-En:   0.000D+00 0.100D+01
 Coeff:     -0.163D+00 0.116D+01
 Gap=     0.597 Goal=   None    Shift=    0.000
 RMSDP=1.75D-04 MaxDP=1.86D-03 DE=-1.56D-03 OVMax= 3.67D-03

 Cycle   3  Pass 1  IDiag  1:
 E= -276.957157437302     Delta-E=       -0.000157120202 Rises=F Damp=F
 DIIS: error= 2.73D-04 at cycle   3 NSaved=   3.
 NSaved= 3 IEnMin= 3 EnMin= -276.957157437302     IErMin= 3 ErrMin= 2.73D-04
 ErrMax= 2.73D-04  0.00D+00 EMaxC= 1.00D-01 BMatC= 1.16D-05 BMatP= 8.81D-05
 IDIUse=3 WtCom= 9.97D-01 WtEn= 2.73D-03
 Coeff-Com: -0.678D-01 0.147D+00 0.920D+00
 Coeff-En:   0.000D+00 0.000D+00 0.100D+01
 Coeff:     -0.676D-01 0.147D+00 0.921D+00
 Gap=     0.598 Goal=   None    Shift=    0.000
 RMSDP=5.29D-05 MaxDP=6.85D-04 DE=-1.57D-04 OVMax= 1.16D-03

 Cycle   4  Pass 1  IDiag  1:
 E= -276.957174862967     Delta-E=       -0.000017425665 Rises=F Damp=F
 DIIS: error= 1.30D-04 at cycle   4 NSaved=   4.
 NSaved= 4 IEnMin= 4 EnMin= -276.957174862967     IErMin= 4 ErrMin= 1.30D-04
 ErrMax= 1.30D-04  0.00D+00 EMaxC= 1.00D-01 BMatC= 1.50D-06 BMatP= 1.16D-05
 IDIUse=3 WtCom= 9.99D-01 WtEn= 1.30D-03
 Coeff-Com:  0.218D-01-0.158D+00 0.581D-02 0.113D+01
 Coeff-En:   0.000D+00 0.000D+00 0.000D+00 0.100D+01
 Coeff:      0.218D-01-0.157D+00 0.580D-02 0.113D+01
 Gap=     0.598 Goal=   None    Shift=    0.000
 RMSDP=2.75D-05 MaxDP=4.26D-04 DE=-1.74D-05 OVMax= 6.36D-04

 Cycle   5  Pass 1  IDiag  1:
 E= -276.957177700052     Delta-E=       -0.000002837085 Rises=F Damp=F
 DIIS: error= 3.42D-05 at cycle   5 NSaved=   5.
 NSaved= 5 IEnMin= 5 EnMin= -276.957177700052     IErMin= 5 ErrMin= 3.42D-05
 ErrMax= 3.42D-05  0.00D+00 EMaxC= 1.00D-01 BMatC= 1.20D-07 BMatP= 1.50D-06
 IDIUse=1 WtCom= 1.00D+00 WtEn= 0.00D+00
 Coeff-Com:  0.810D-02-0.378D-01-0.608D-01 0.208D+00 0.882D+00
 Coeff:      0.810D-02-0.378D-01-0.608D-01 0.208D+00 0.882D+00
 Gap=     0.598 Goal=   None    Shift=    0.000
 RMSDP=6.13D-06 MaxDP=1.02D-04 DE=-2.84D-06 OVMax= 1.02D-04

 Cycle   6  Pass 1  IDiag  1:
 E= -276.957177853505     Delta-E=       -0.000000153454 Rises=F Damp=F
 DIIS: error= 8.04D-06 at cycle   6 NSaved=   6.
 NSaved= 6 IEnMin= 6 EnMin= -276.957177853505     IErMin= 6 ErrMin= 8.04D-06
 ErrMax= 8.04D-06  0.00D+00 EMaxC= 1.00D-01 BMatC= 8.96D-09 BMatP= 1.20D-07
 IDIUse=1 WtCom= 1.00D+00 WtEn= 0.00D+00
 Coeff-Com: -0.193D-02 0.161D-01-0.531D-02-0.121D+00 0.473D-01 0.107D+01
 Coeff:     -0.193D-02 0.161D-01-0.531D-02-0.121D+00 0.473D-01 0.107D+01
 Gap=     0.598 Goal=   None    Shift=    0.000
 RMSDP=2.50D-06 MaxDP=2.62D-05 DE=-1.53D-07 OVMax= 4.83D-05

 Cycle   7  Pass 1  IDiag  1:
 E= -276.957177868549     Delta-E=       -0.000000015044 Rises=F Damp=F
 DIIS: error= 1.22D-06 at cycle   7 NSaved=   7.
 NSaved= 7 IEnMin= 7 EnMin= -276.957177868549     IErMin= 7 ErrMin= 1.22D-06
 ErrMax= 1.22D-06  0.00D+00 EMaxC= 1.00D-01 BMatC= 2.00D-10 BMatP= 8.96D-09
 IDIUse=1 WtCom= 1.00D+00 WtEn= 0.00D+00
 Coeff-Com:  0.901D-04-0.162D-02 0.317D-02 0.138D-01-0.363D-01-0.193D+00
 Coeff-Com:  0.121D+01
 Coeff:      0.901D-04-0.162D-02 0.317D-02 0.138D-01-0.363D-01-0.193D+00
 Coeff:      0.121D+01
 Gap=     0.598 Goal=   None    Shift=    0.000
 RMSDP=4.88D-07 MaxDP=7.28D-06 DE=-1.50D-08 OVMax= 7.89D-06

 Cycle   8  Pass 1  IDiag  1:
 E= -276.957177868989     Delta-E=       -0.000000000440 Rises=F Damp=F
 DIIS: error= 3.76D-07 at cycle   8 NSaved=   8.
 NSaved= 8 IEnMin= 8 EnMin= -276.957177868989     IErMin= 8 ErrMin= 3.76D-07
 ErrMax= 3.76D-07  0.00D+00 EMaxC= 1.00D-01 BMatC= 9.41D-12 BMatP= 2.00D-10
 IDIUse=1 WtCom= 1.00D+00 WtEn= 0.00D+00
 Coeff-Com:  0.777D-04-0.572D-03 0.418D-04 0.415D-02 0.384D-03-0.311D-01
 Coeff-Com: -0.569D-01 0.108D+01
 Coeff:      0.777D-04-0.572D-03 0.418D-04 0.415D-02 0.384D-03-0.311D-01
 Coeff:     -0.569D-01 0.108D+01
 Gap=     0.598 Goal=   None    Shift=    0.000
 RMSDP=1.13D-07 MaxDP=2.20D-06 DE=-4.40D-10 OVMax= 1.27D-06

 Cycle   9  Pass 1  IDiag  1:
 E= -276.957177869005     Delta-E=       -0.000000000015 Rises=F Damp=F
 DIIS: error= 1.06D-07 at cycle   9 NSaved=   9.
 NSaved= 9 IEnMin= 9 EnMin= -276.957177869005     IErMin= 9 ErrMin= 1.06D-07
 ErrMax= 1.06D-07  0.00D+00 EMaxC= 1.00D-01 BMatC= 9.14D-13 BMatP= 9.41D-12
 IDIUse=1 WtCom= 1.00D+00 WtEn= 0.00D+00
 Coeff-Com: -0.462D-05 0.975D-04-0.223D-03-0.830D-03 0.250D-02 0.130D-01
 Coeff-Com: -0.891D-01 0.769D-02 0.107D+01
 Coeff:     -0.462D-05 0.975D-04-0.223D-03-0.830D-03 0.250D-02 0.130D-01
 Coeff:     -0.891D-01 0.769D-02 0.107D+01
 Gap=     0.598 Goal=   None    Shift=    0.000
 RMSDP=2.50D-08 MaxDP=3.44D-07 DE=-1.52D-11 OVMax= 4.60D-07

 Cycle  10  Pass 1  IDiag  1:
 E= -276.957177869008     Delta-E=       -0.000000000003 Rises=F Damp=F
 DIIS: error= 2.91D-08 at cycle  10 NSaved=  10.
 NSaved=10 IEnMin=10 EnMin= -276.957177869008     IErMin=10 ErrMin= 2.91D-08
 ErrMax= 2.91D-08  0.00D+00 EMaxC= 1.00D-01 BMatC= 6.48D-14 BMatP= 9.14D-13
 IDIUse=1 WtCom= 1.00D+00 WtEn= 0.00D+00
 Coeff-Com: -0.434D-05 0.321D-04 0.226D-05-0.241D-03-0.588D-04 0.159D-02
 Coeff-Com:  0.737D-02-0.826D-01-0.434D-01 0.112D+01
 Coeff:     -0.434D-05 0.321D-04 0.226D-05-0.241D-03-0.588D-04 0.159D-02
 Coeff:      0.737D-02-0.826D-01-0.434D-01 0.112D+01
 Gap=     0.598 Goal=   None    Shift=    0.000
 RMSDP=7.17D-09 MaxDP=8.93D-08 DE=-3.41D-12 OVMax= 1.31D-07

 SCF Done:  E(RHF) =  -276.957177869     A.U. after   10 cycles
            NFock= 10  Conv=0.72D-08     -V/T= 2.0020
 KE= 2.763938067017D+02 PE=-9.250680801649D+02 EE= 2.379723756790D+02
 Leave Link  502 at Tue Mar 31 17:51:11 2026, MaxMem=   536870912 cpu:               0.8 elap:               0.2
 (Enter /Users/asuyarger/Applications/G16/g16/l701.exe)
 ... and contract with generalized density number  0.
 Compute integral first derivatives.
 Leave Link  701 at Tue Mar 31 17:51:11 2026, MaxMem=   536870912 cpu:               0.3 elap:               0.1
 (Enter /Users/asuyarger/Applications/G16/g16/l702.exe)
 L702 exits ... SP integral derivatives will be done elsewhere.
 Leave Link  702 at Tue Mar 31 17:51:11 2026, MaxMem=   536870912 cpu:               0.1 elap:               0.0
 (Enter /Users/asuyarger/Applications/G16/g16/l703.exe)
 Integral derivatives from FoFJK, PRISM(SPDF).
 Compute integral first derivatives, UseDBF=F ICtDFT=           0.
 Calling FoFJK, ICntrl=      2127 FMM=F ISym2X=1 I1Cent= 0 IOpClX= 0 NMat=1 NMatS=1 NMatT=0.
 FoFJK:  IHMeth= 1 ICntrl=    2127 DoSepK=F KAlg= 0 I1Cent=           0 FoldK=F
 IRaf=         0 NMat=       1 IRICut=       1 DoRegI=T DoRafI=F ISym2E= 1 IDoP0=0 IntGTp=1.
 FoFCou: FMM=F IPFlag=           0 FMFlag=      100000 FMFlg1=         800
         NFxFlg=           0 DoJE=F BraDBF=F KetDBF=F FulRan=T
         wScrn=  0.000000 ICntrl=      2127 IOpCl=  0 I1Cent=           0 NGrid=           0
         NMat0=    1 NMatS0=      1 NMatT0=    0 NMatD0=    1 NMtDS0=    0 NMtDT0=    0
 Petite list used in FoFCou.
 Leave Link  703 at Tue Mar 31 17:51:11 2026, MaxMem=   536870912 cpu:               0.6 elap:               0.2
 (Enter /Users/asuyarger/Applications/G16/g16/l716.exe)
 Dipole        =-1.25911667D-01 9.89602172D-01 1.55431223D-15
 ***** Axes restored to original set *****
 -------------------------------------------------------------------
 Center     Atomic                   Forces (Hartrees/Bohr)
 Number     Number              X              Y              Z
 -------------------------------------------------------------------
      1        6          -0.000198612    0.000652550   -0.000052404
      2        1           0.001602640   -0.002479174   -0.001185809
      3        9           0.005461830    0.001591554    0.005252598
      4        9          -0.006859661   -0.002764579   -0.002292718
      5        6          -0.000620447    0.004210209   -0.001417489
      6        1           0.000835076   -0.000763680    0.000613760
      7        1          -0.000419513   -0.001207226   -0.000154513
      8        1           0.000198687    0.000760346   -0.000763426
 -------------------------------------------------------------------
 Cartesian Forces:  Max     0.006859661 RMS     0.002542413
 Leave Link  716 at Tue Mar 31 17:51:12 2026, MaxMem=   536870912 cpu:               0.1 elap:               0.0
 (Enter /Users/asuyarger/Applications/G16/g16/l103.exe)

 GradGradGradGradGradGradGradGradGradGradGradGradGradGradGradGradGradGrad
 Berny optimization.
 Using GEDIIS/GDIIS optimizer.
 FormGI is forming the generalized inverse of G from B-inverse, IUseBI=4.
 Internal  Forces:  Max     0.006730248 RMS     0.002620912
 Search for a local minimum.
 Step number   2 out of a maximum of   38
 All quantities printed in internal units (Hartrees-Bohrs-Radians)
 RMS Force = .26209D-02 SwitMx=.10000D-02 MixMth= 1
 Mixed Optimization -- RFO/linear search
 Update second derivatives using D2CorX and points    1    2
 DE= -2.27D-03 DEPred=-3.02D-03 R= 7.53D-01
 TightC=F SS=  1.41D+00  RLast= 1.73D-01 DXNew= 5.0454D-01 5.1968D-01
 Trust test= 7.53D-01 RLast= 1.73D-01 DXMaxT set to 5.05D-01
 ITU=  1  0
 Use linear search instead of GDIIS.
     Eigenvalues ---    0.00237   0.05338   0.05687   0.05750   0.07860
     Eigenvalues ---    0.15698   0.16000   0.16000   0.17731   0.22931
     Eigenvalues ---    0.25853   0.27219   0.36812   0.37230   0.37230
     Eigenvalues ---    0.37308   0.55021   0.59428
 RFO step:  Lambda=-3.04616597D-04 EMin= 2.36824132D-03
 Quartic linear search produced a step of -0.17964.
 Iteration  1 RMS(Cart)=  0.00998253 RMS(Int)=  0.00012296
 Iteration  2 RMS(Cart)=  0.00008280 RMS(Int)=  0.00009666
 Iteration  3 RMS(Cart)=  0.00000001 RMS(Int)=  0.00009666
 ITry= 1 IFail=0 DXMaxC= 2.48D-02 DCOld= 1.00D+10 DXMaxT= 5.05D-01 DXLimC= 3.00D+00 Rises=F
 ClnCor:  largest displacement from symmetrization is 4.02D-09 for atom     4.
 Variable       Old X    -DE/DX   Delta X   Delta X   Delta X     New X
                                 (Linear)    (Quad)   (Total)
    R1        2.03835   0.00006  -0.00294   0.00404   0.00110   2.03945
    R2        2.54023   0.00673   0.00196   0.00743   0.00939   2.54962
    R3        2.54023   0.00673   0.00196   0.00743   0.00939   2.54962
    R4        2.84681  -0.00286   0.01138  -0.02337  -0.01199   2.83482
    R5        2.04855  -0.00041  -0.00477   0.00541   0.00065   2.04919
    R6        2.04855  -0.00041  -0.00477   0.00541   0.00065   2.04919
    R7        2.04883  -0.00105  -0.00482   0.00409  -0.00072   2.04811
    A1        1.86944   0.00278   0.00740  -0.00233   0.00532   1.87476
    A2        1.86944   0.00278   0.00740  -0.00233   0.00532   1.87476
    A3        2.01122  -0.00342  -0.01807  -0.00003  -0.01784   1.99339
    A4        1.84551   0.00519   0.01170   0.01154   0.02321   1.86872
    A5        1.92979  -0.00314  -0.00344  -0.00286  -0.00618   1.92361
    A6        1.92979  -0.00314  -0.00344  -0.00286  -0.00618   1.92361
    A7        1.90763   0.00161   0.00054   0.00792   0.00844   1.91607
    A8        1.90763   0.00161   0.00054   0.00792   0.00844   1.91607
    A9        1.91720  -0.00107  -0.00118  -0.00476  -0.00593   1.91128
   A10        1.91064  -0.00134  -0.00000  -0.00510  -0.00516   1.90548
   A11        1.91034  -0.00040   0.00005  -0.00298  -0.00291   1.90743
   A12        1.91034  -0.00040   0.00005  -0.00298  -0.00291   1.90743
    D1       -1.04537  -0.00015  -0.00033  -0.00167  -0.00202  -1.04739
    D2        1.04537   0.00015   0.00033   0.00167   0.00202   1.04739
    D3        3.14159  -0.00000   0.00000  -0.00000   0.00000   3.14159
    D4        3.11516   0.00113   0.00475   0.00368   0.00848   3.12364
    D5       -1.07728   0.00143   0.00540   0.00702   0.01251  -1.06476
    D6        1.01894   0.00128   0.00508   0.00535   0.01050   1.02944
    D7        1.07728  -0.00143  -0.00540  -0.00702  -0.01251   1.06476
    D8       -3.11516  -0.00113  -0.00475  -0.00368  -0.00848  -3.12364
    D9       -1.01894  -0.00128  -0.00508  -0.00535  -0.01050  -1.02944
         Item               Value     Threshold  Converged?
 Maximum Force            0.006730     0.000450     NO 
 RMS     Force            0.002621     0.000300     NO 
 Maximum Displacement     0.024754     0.001800     NO 
 RMS     Displacement     0.010014     0.001200     NO 
 Predicted change in Energy=-2.687152D-04
 Lowest energy point so far.  Saving SCF results.
 GradGradGradGradGradGradGradGradGradGradGradGradGradGradGradGradGradGrad

 Leave Link  103 at Tue Mar 31 17:51:12 2026, MaxMem=   536870912 cpu:               0.0 elap:               0.0
 (Enter /Users/asuyarger/Applications/G16/g16/l202.exe)
                          Input orientation:                          
 ---------------------------------------------------------------------
 Center     Atomic      Atomic             Coordinates (Angstroms)
 Number     Number       Type             X           Y           Z
 ---------------------------------------------------------------------
      1          6           0        0.761216    0.069774   -0.012814
      2          1           0        1.083320    0.642093   -0.869226
      3          9           0        1.184261    0.721088    1.090438
      4          9           0       -0.587632    0.094654    0.005383
      5          6           0        1.253760   -1.347117    0.000875
      6          1           0        0.894864   -1.868953   -0.879337
      7          1           0        2.338078   -1.358720    0.004445
      8          1           0        0.887447   -1.849066    0.888855
 ---------------------------------------------------------------------
                    Distance matrix (angstroms):
                    1          2          3          4          5
     1  C    0.000000
     2  H    1.079231   0.000000
     3  F    1.349200   1.963851   0.000000
     4  F    1.349200   1.963851   2.170108   0.000000
     5  C    1.500123   2.177862   2.338685   2.338685   0.000000
     6  H    2.127765   2.518128   3.266814   2.614627   1.084385
     7  H    2.127765   2.518128   2.614627   3.266814   1.084385
     8  H    2.123886   3.055338   2.595078   2.595078   1.083811
                    6          7          8
     6  H    0.000000
     7  H    1.767562   0.000000
     8  H    1.768319   1.768319   0.000000
 Stoichiometry    C2H4F2
 Framework group  CS[SG(C2H2),X(H2F2)]
 Deg. of freedom    11
 Full point group                 CS      NOp   2
 RotChk:  IX=2 Diff= 8.00D-03
 Largest Abelian subgroup         CS      NOp   2
 Largest concise Abelian subgroup CS      NOp   2
                         Standard orientation:                         
 ---------------------------------------------------------------------
 Center     Atomic      Atomic             Coordinates (Angstroms)
 Number     Number       Type             X           Y           Z
 ---------------------------------------------------------------------
      1          6           0        0.321910    0.158963   -0.000000
      2          1           0        1.254301    0.702459   -0.000000
      3          9           0        0.321910   -0.642909   -1.085054
      4          9           0        0.321910   -0.642909    1.085054
      5          6           0       -0.898617    1.031134    0.000000
      6          1           0       -0.900696    1.659480    0.883781
      7          1           0       -0.900696    1.659480   -0.883781
      8          1           0       -1.787043    0.410372    0.000000
 ---------------------------------------------------------------------
 Rotational constants (GHZ):           9.6932850           9.0774127           5.2557932
 Leave Link  202 at Tue Mar 31 17:51:12 2026, MaxMem=   536870912 cpu:               0.0 elap:               0.0
 (Enter /Users/asuyarger/Applications/G16/g16/l301.exe)
 Standard basis: 6-31+G(d) (6D, 7F)
 Ernie: Thresh=  0.10000D-02 Tol=  0.10000D-05 Strict=F.
 There are    53 symmetry adapted cartesian basis functions of A'  symmetry.
 There are    31 symmetry adapted cartesian basis functions of A"  symmetry.
 There are    53 symmetry adapted basis functions of A'  symmetry.
 There are    31 symmetry adapted basis functions of A"  symmetry.
    84 basis functions,   144 primitive gaussians,    84 cartesian basis functions
    17 alpha electrons       17 beta electrons
       nuclear repulsion energy       133.4830860418 Hartrees.
 IExCor=    0 DFT=F Ex=HF Corr=None ExCW=0 ScaHFX=  1.000000
 ScaDFX=  1.000000  1.000000  1.000000  1.000000 ScalE2=  1.000000  1.000000
 IRadAn=      5 IRanWt=     -1 IRanGd=            0 ICorTp=0 IEmpDi=  4
 NAtoms=    8 NActive=    8 NUniq=    6 SFac= 1.78D+00 NAtFMM=   60 NAOKFM=F Big=F
 Integral buffers will be    131072 words long.
 Raffenetti 1 integral format.
 Two-electron integral symmetry is turned on.
 Leave Link  301 at Tue Mar 31 17:51:12 2026, MaxMem=   536870912 cpu:               0.1 elap:               0.0
 (Enter /Users/asuyarger/Applications/G16/g16/l302.exe)
 NPDir=0 NMtPBC=     1 NCelOv=     1 NCel=       1 NClECP=     1 NCelD=      1
         NCelK=      1 NCelE2=     1 NClLst=     1 CellRange=     0.0.
 One-electron integrals computed using PRISM.
 One-electron integral symmetry used in STVInt
 NBasis=    84 RedAO= T EigKep=  2.46D-04  NBF=    53    31
 NBsUse=    84 1.00D-06 EigRej= -1.00D+00 NBFU=    53    31
 Leave Link  302 at Tue Mar 31 17:51:12 2026, MaxMem=   536870912 cpu:               0.3 elap:               0.1
 (Enter /Users/asuyarger/Applications/G16/g16/l303.exe)
 DipDrv:  MaxL=1.
 Leave Link  303 at Tue Mar 31 17:51:12 2026, MaxMem=   536870912 cpu:               0.1 elap:               0.0
 (Enter /Users/asuyarger/Applications/G16/g16/l401.exe)
 Initial guess from the checkpoint file:  "11Difluoroethane_Opt_Freq_HF_631pd_Gaussian16.chk"
 B after Tr=     0.000000    0.000000    0.000000
         Rot=    0.999999    0.000000    0.000000   -0.001715 Ang=  -0.20 deg.
 Guess basis will be translated and rotated to current coordinates.
 JPrj=2 DoOrth=T DoCkMO=T.
 Initial guess orbital symmetries:
       Occupied  (A") (A') (A') (A') (A') (A") (A') (A') (A') (A")
                 (A') (A") (A") (A') (A") (A') (A')
       Virtual   (A') (A') (A") (A') (A") (A') (A') (A') (A') (A")
                 (A') (A") (A") (A') (A') (A') (A") (A') (A') (A")
                 (A') (A') (A") (A') (A") (A') (A') (A") (A') (A')
                 (A") (A') (A') (A') (A') (A") (A') (A") (A') (A")
                 (A') (A') (A") (A') (A') (A") (A") (A') (A") (A")
                 (A') (A") (A') (A") (A') (A') (A") (A') (A") (A')
                 (A') (A") (A') (A') (A') (A") (A')
 The electronic state of the initial guess is 1-A'.
 Generating alternative initial guess.
 ExpMin= 4.38D-02 ExpMax= 7.00D+03 ExpMxC= 1.05D+03 IAcc=2 IRadAn=         4 AccDes= 0.00D+00
 Harris functional with IExCor=  205 and IRadAn=       4 diagonalized for initial guess.
 HarFok:  IExCor=  205 AccDes= 0.00D+00 IRadAn=         4 IDoV= 1 UseB2=F ITyADJ=14
 ICtDFT=  3500011 ScaDFX=  1.000000  1.000000  1.000000  1.000000
 FoFCou: FMM=F IPFlag=           0 FMFlag=      100000 FMFlg1=           0
         NFxFlg=           0 DoJE=T BraDBF=F KetDBF=T FulRan=T
         wScrn=  0.000000 ICntrl=       500 IOpCl=  0 I1Cent=   200000004 NGrid=           0
         NMat0=    1 NMatS0=      1 NMatT0=    0 NMatD0=    1 NMtDS0=    0 NMtDT0=    0
 Petite list used in FoFCou.
 Harris En= -277.065451429178    
 Leave Link  401 at Tue Mar 31 17:51:12 2026, MaxMem=   536870912 cpu:               0.6 elap:               0.2
 (Enter /Users/asuyarger/Applications/G16/g16/l502.exe)
 Keep R1 ints in memory in symmetry-blocked form, NReq=9591280.
 FoFCou: FMM=F IPFlag=           0 FMFlag=           0 FMFlg1=           0
         NFxFlg=           0 DoJE=F BraDBF=F KetDBF=F FulRan=T
         wScrn=  0.000000 ICntrl=       600 IOpCl=  0 I1Cent=           0 NGrid=           0
         NMat0=    1 NMatS0=   3570 NMatT0=    0 NMatD0=    1 NMtDS0=    0 NMtDT0=    0
 Petite list used in FoFCou.
 Closed shell SCF:
 Using DIIS extrapolation, IDIIS=  1040.
 NGot=   536870912 LenX=   533638906 LenY=   533631409
 Requested convergence on RMS density matrix=1.00D-08 within 128 cycles.
 Requested convergence on MAX density matrix=1.00D-06.
 Requested convergence on             energy=1.00D-06.
 No special actions if energy rises.

 Cycle   1  Pass 1  IDiag  1:
 E= -276.957259022285    
 DIIS: error= 8.24D-04 at cycle   1 NSaved=   1.
 NSaved= 1 IEnMin= 1 EnMin= -276.957259022285     IErMin= 1 ErrMin= 8.24D-04
 ErrMax= 8.24D-04  0.00D+00 EMaxC= 1.00D-01 BMatC= 1.26D-04 BMatP= 1.26D-04
 IDIUse=3 WtCom= 9.92D-01 WtEn= 8.24D-03
 Coeff-Com:  0.100D+01
 Coeff-En:   0.100D+01
 Coeff:      0.100D+01
 Gap=     0.598 Goal=   None    Shift=    0.000
 RMSDP=1.53D-04 MaxDP=1.40D-03              OVMax= 2.60D-03

 Cycle   2  Pass 1  IDiag  1:
 E= -276.957400781413     Delta-E=       -0.000141759127 Rises=F Damp=F
 DIIS: error= 2.70D-04 at cycle   2 NSaved=   2.
 NSaved= 2 IEnMin= 2 EnMin= -276.957400781413     IErMin= 2 ErrMin= 2.70D-04
 ErrMax= 2.70D-04  0.00D+00 EMaxC= 1.00D-01 BMatC= 7.79D-06 BMatP= 1.26D-04
 IDIUse=3 WtCom= 9.97D-01 WtEn= 2.70D-03
 Coeff-Com: -0.191D+00 0.119D+01
 Coeff-En:   0.000D+00 0.100D+01
 Coeff:     -0.191D+00 0.119D+01
 Gap=     0.599 Goal=   None    Shift=    0.000
 RMSDP=4.99D-05 MaxDP=5.82D-04 DE=-1.42D-04 OVMax= 1.29D-03

 Cycle   3  Pass 1  IDiag  1:
 E= -276.957416198498     Delta-E=       -0.000015417085 Rises=F Damp=F
 DIIS: error= 8.51D-05 at cycle   3 NSaved=   3.
 NSaved= 3 IEnMin= 3 EnMin= -276.957416198498     IErMin= 3 ErrMin= 8.51D-05
 ErrMax= 8.51D-05  0.00D+00 EMaxC= 1.00D-01 BMatC= 7.19D-07 BMatP= 7.79D-06
 IDIUse=1 WtCom= 1.00D+00 WtEn= 0.00D+00
 Coeff-Com: -0.153D-01-0.141D+00 0.116D+01
 Coeff:     -0.153D-01-0.141D+00 0.116D+01
 Gap=     0.598 Goal=   None    Shift=    0.000
 RMSDP=1.74D-05 MaxDP=2.40D-04 DE=-1.54D-05 OVMax= 4.77D-04

 Cycle   4  Pass 1  IDiag  1:
 E= -276.957417718447     Delta-E=       -0.000001519949 Rises=F Damp=F
 DIIS: error= 2.94D-05 at cycle   4 NSaved=   4.
 NSaved= 4 IEnMin= 4 EnMin= -276.957417718447     IErMin= 4 ErrMin= 2.94D-05
 ErrMax= 2.94D-05  0.00D+00 EMaxC= 1.00D-01 BMatC= 7.95D-08 BMatP= 7.19D-07
 IDIUse=1 WtCom= 1.00D+00 WtEn= 0.00D+00
 Coeff-Com:  0.205D-01-0.142D+00 0.739D-01 0.105D+01
 Coeff:      0.205D-01-0.142D+00 0.739D-01 0.105D+01
 Gap=     0.598 Goal=   None    Shift=    0.000
 RMSDP=6.23D-06 MaxDP=8.96D-05 DE=-1.52D-06 OVMax= 1.57D-04

 Cycle   5  Pass 1  IDiag  1:
 E= -276.957417870263     Delta-E=       -0.000000151815 Rises=F Damp=F
 DIIS: error= 4.87D-06 at cycle   5 NSaved=   5.
 NSaved= 5 IEnMin= 5 EnMin= -276.957417870263     IErMin= 5 ErrMin= 4.87D-06
 ErrMax= 4.87D-06  0.00D+00 EMaxC= 1.00D-01 BMatC= 2.89D-09 BMatP= 7.95D-08
 IDIUse=1 WtCom= 1.00D+00 WtEn= 0.00D+00
 Coeff-Com: -0.128D-02 0.224D-01-0.748D-01-0.987D-01 0.115D+01
 Coeff:     -0.128D-02 0.224D-01-0.748D-01-0.987D-01 0.115D+01
 Gap=     0.598 Goal=   None    Shift=    0.000
 RMSDP=1.36D-06 MaxDP=2.04D-05 DE=-1.52D-07 OVMax= 2.75D-05

 Cycle   6  Pass 1  IDiag  1:
 E= -276.957417876194     Delta-E=       -0.000000005931 Rises=F Damp=F
 DIIS: error= 1.13D-06 at cycle   6 NSaved=   6.
 NSaved= 6 IEnMin= 6 EnMin= -276.957417876194     IErMin= 6 ErrMin= 1.13D-06
 ErrMax= 1.13D-06  0.00D+00 EMaxC= 1.00D-01 BMatC= 1.28D-10 BMatP= 2.89D-09
 IDIUse=1 WtCom= 1.00D+00 WtEn= 0.00D+00
 Coeff-Com: -0.590D-03 0.402D-02 0.115D-02-0.357D-01-0.511D-01 0.108D+01
 Coeff:     -0.590D-03 0.402D-02 0.115D-02-0.357D-01-0.511D-01 0.108D+01
 Gap=     0.598 Goal=   None    Shift=    0.000
 RMSDP=2.52D-07 MaxDP=2.82D-06 DE=-5.93D-09 OVMax= 4.03D-06

 Cycle   7  Pass 1  IDiag  1:
 E= -276.957417876407     Delta-E=       -0.000000000213 Rises=F Damp=F
 DIIS: error= 3.91D-07 at cycle   7 NSaved=   7.
 NSaved= 7 IEnMin= 7 EnMin= -276.957417876407     IErMin= 7 ErrMin= 3.91D-07
 ErrMax= 3.91D-07  0.00D+00 EMaxC= 1.00D-01 BMatC= 1.68D-11 BMatP= 1.28D-10
 IDIUse=1 WtCom= 1.00D+00 WtEn= 0.00D+00
 Coeff-Com: -0.241D-04-0.792D-03 0.569D-02-0.118D-02-0.923D-01 0.248D+00
 Coeff-Com:  0.841D+00
 Coeff:     -0.241D-04-0.792D-03 0.569D-02-0.118D-02-0.923D-01 0.248D+00
 Coeff:      0.841D+00
 Gap=     0.598 Goal=   None    Shift=    0.000
 RMSDP=5.72D-08 MaxDP=1.11D-06 DE=-2.13D-10 OVMax= 1.32D-06

 Cycle   8  Pass 1  IDiag  1:
 E= -276.957417876426     Delta-E=       -0.000000000019 Rises=F Damp=F
 DIIS: error= 1.13D-07 at cycle   8 NSaved=   8.
 NSaved= 8 IEnMin= 8 EnMin= -276.957417876426     IErMin= 8 ErrMin= 1.13D-07
 ErrMax= 1.13D-07  0.00D+00 EMaxC= 1.00D-01 BMatC= 9.62D-13 BMatP= 1.68D-11
 IDIUse=1 WtCom= 1.00D+00 WtEn= 0.00D+00
 Coeff-Com:  0.661D-04-0.534D-03 0.505D-03 0.365D-02-0.534D-02-0.753D-01
 Coeff-Com:  0.730D-01 0.100D+01
 Coeff:      0.661D-04-0.534D-03 0.505D-03 0.365D-02-0.534D-02-0.753D-01
 Coeff:      0.730D-01 0.100D+01
 Gap=     0.598 Goal=   None    Shift=    0.000
 RMSDP=2.41D-08 MaxDP=3.33D-07 DE=-1.89D-11 OVMax= 3.46D-07

 Cycle   9  Pass 1  IDiag  1:
 E= -276.957417876425     Delta-E=        0.000000000001 Rises=F Damp=F
 DIIS: error= 2.46D-08 at cycle   9 NSaved=   9.
 NSaved= 9 IEnMin= 8 EnMin= -276.957417876426     IErMin= 9 ErrMin= 2.46D-08
 ErrMax= 2.46D-08  0.00D+00 EMaxC= 1.00D-01 BMatC= 4.52D-14 BMatP= 9.62D-13
 IDIUse=1 WtCom= 1.00D+00 WtEn= 0.00D+00
 Coeff-Com:  0.443D-05 0.669D-05-0.199D-03 0.204D-03 0.363D-02-0.113D-01
 Coeff-Com: -0.400D-01 0.976D-02 0.104D+01
 Coeff:      0.443D-05 0.669D-05-0.199D-03 0.204D-03 0.363D-02-0.113D-01
 Coeff:     -0.400D-01 0.976D-02 0.104D+01
 Gap=     0.598 Goal=   None    Shift=    0.000
 RMSDP=5.62D-09 MaxDP=7.93D-08 DE= 1.14D-12 OVMax= 1.00D-07

 SCF Done:  E(RHF) =  -276.957417876     A.U. after    9 cycles
            NFock=  9  Conv=0.56D-08     -V/T= 2.0021
 KE= 2.763717129483D+02 PE=-9.245189085224D+02 EE= 2.377066916559D+02
 Leave Link  502 at Tue Mar 31 17:51:12 2026, MaxMem=   536870912 cpu:               0.7 elap:               0.2
 (Enter /Users/asuyarger/Applications/G16/g16/l701.exe)
 ... and contract with generalized density number  0.
 Compute integral first derivatives.
 Leave Link  701 at Tue Mar 31 17:51:12 2026, MaxMem=   536870912 cpu:               0.3 elap:               0.1
 (Enter /Users/asuyarger/Applications/G16/g16/l702.exe)
 L702 exits ... SP integral derivatives will be done elsewhere.
 Leave Link  702 at Tue Mar 31 17:51:12 2026, MaxMem=   536870912 cpu:               0.1 elap:               0.0
 (Enter /Users/asuyarger/Applications/G16/g16/l703.exe)
 Integral derivatives from FoFJK, PRISM(SPDF).
 Compute integral first derivatives, UseDBF=F ICtDFT=           0.
 Calling FoFJK, ICntrl=      2127 FMM=F ISym2X=1 I1Cent= 0 IOpClX= 0 NMat=1 NMatS=1 NMatT=0.
 FoFJK:  IHMeth= 1 ICntrl=    2127 DoSepK=F KAlg= 0 I1Cent=           0 FoldK=F
 IRaf=         0 NMat=       1 IRICut=       1 DoRegI=T DoRafI=F ISym2E= 1 IDoP0=0 IntGTp=1.
 FoFCou: FMM=F IPFlag=           0 FMFlag=      100000 FMFlg1=         800
         NFxFlg=           0 DoJE=F BraDBF=F KetDBF=F FulRan=T
         wScrn=  0.000000 ICntrl=      2127 IOpCl=  0 I1Cent=           0 NGrid=           0
         NMat0=    1 NMatS0=      1 NMatT0=    0 NMatD0=    1 NMtDS0=    0 NMtDT0=    0
 Petite list used in FoFCou.
 Leave Link  703 at Tue Mar 31 17:51:13 2026, MaxMem=   536870912 cpu:               0.6 elap:               0.2
 (Enter /Users/asuyarger/Applications/G16/g16/l716.exe)
 Dipole        =-1.24699525D-01 9.82370432D-01-4.44089210D-16
 ***** Axes restored to original set *****
 -------------------------------------------------------------------
 Center     Atomic                   Forces (Hartrees/Bohr)
 Number     Number              X              Y              Z
 -------------------------------------------------------------------
      1        6           0.000840000    0.001290746   -0.002116905
      2        1          -0.000225213   -0.000201574    0.000484147
      3        9          -0.000545620    0.000182948    0.000618845
      4        9          -0.000409648    0.000231020    0.000702111
      5        6           0.000340633   -0.001205186    0.000139536
      6        1           0.000353067    0.000098196    0.000646423
      7        1          -0.000691786   -0.000271201    0.000006586
      8        1           0.000338567   -0.000124948   -0.000480743
 -------------------------------------------------------------------
 Cartesian Forces:  Max     0.002116905 RMS     0.000697035
 Leave Link  716 at Tue Mar 31 17:51:13 2026, MaxMem=   536870912 cpu:               0.1 elap:               0.0
 (Enter /Users/asuyarger/Applications/G16/g16/l103.exe)

 GradGradGradGradGradGradGradGradGradGradGradGradGradGradGradGradGradGrad
 Berny optimization.
 Using GEDIIS/GDIIS optimizer.
 FormGI is forming the generalized inverse of G from B-inverse, IUseBI=4.
 Internal  Forces:  Max     0.001534378 RMS     0.000473378
 Search for a local minimum.
 Step number   3 out of a maximum of   38
 All quantities printed in internal units (Hartrees-Bohrs-Radians)
 RMS Force = .47338D-03 SwitMx=.10000D-02 MixMth= 2
 Mixed Optimization -- En-DIIS/RFO-DIIS
 Update second derivatives using D2CorX and points    1    2    3
 DE= -2.40D-04 DEPred=-2.69D-04 R= 8.93D-01
 TightC=F SS=  1.41D+00  RLast= 4.71D-02 DXNew= 8.4853D-01 1.4132D-01
 Trust test= 8.93D-01 RLast= 4.71D-02 DXMaxT set to 5.05D-01
 ITU=  1  1  0
 Use linear search instead of GDIIS.
     Eigenvalues ---    0.00237   0.05505   0.05669   0.05692   0.08465
     Eigenvalues ---    0.15212   0.16000   0.16051   0.17619   0.23041
     Eigenvalues ---    0.26684   0.30922   0.37215   0.37230   0.37230
     Eigenvalues ---    0.37421   0.55021   0.55414
 RFO step:  Lambda=-2.18887688D-05 EMin= 2.36824132D-03
 Quartic linear search produced a step of -0.09109.
 Iteration  1 RMS(Cart)=  0.00258216 RMS(Int)=  0.00000610
 Iteration  2 RMS(Cart)=  0.00000457 RMS(Int)=  0.00000454
 Iteration  3 RMS(Cart)=  0.00000000 RMS(Int)=  0.00000454
 ITry= 1 IFail=0 DXMaxC= 5.68D-03 DCOld= 1.00D+10 DXMaxT= 5.05D-01 DXLimC= 3.00D+00 Rises=F
 ClnCor:  largest displacement from symmetrization is 6.66D-09 for atom     4.
 Variable       Old X    -DE/DX   Delta X   Delta X   Delta X     New X
                                 (Linear)    (Quad)   (Total)
    R1        2.03945  -0.00056  -0.00010  -0.00127  -0.00137   2.03808
    R2        2.54962   0.00042  -0.00086   0.00203   0.00117   2.55079
    R3        2.54962   0.00042  -0.00086   0.00203   0.00117   2.55079
    R4        2.83482   0.00153   0.00109   0.00348   0.00457   2.83939
    R5        2.04919  -0.00069  -0.00006  -0.00170  -0.00176   2.04744
    R6        2.04919  -0.00069  -0.00006  -0.00170  -0.00176   2.04744
    R7        2.04811  -0.00045   0.00007  -0.00132  -0.00125   2.04685
    A1        1.87476   0.00002  -0.00048   0.00265   0.00218   1.87694
    A2        1.87476   0.00002  -0.00048   0.00265   0.00218   1.87694
    A3        1.99339   0.00026   0.00162   0.00019   0.00182   1.99521
    A4        1.86872  -0.00075  -0.00211  -0.00260  -0.00472   1.86400
    A5        1.92361   0.00018   0.00056  -0.00146  -0.00089   1.92272
    A6        1.92361   0.00018   0.00056  -0.00146  -0.00089   1.92272
    A7        1.91607   0.00025  -0.00077   0.00251   0.00174   1.91781
    A8        1.91607   0.00025  -0.00077   0.00251   0.00174   1.91781
    A9        1.91128   0.00046   0.00054   0.00181   0.00235   1.91362
   A10        1.90548  -0.00028   0.00047  -0.00244  -0.00197   1.90351
   A11        1.90743  -0.00035   0.00027  -0.00222  -0.00196   1.90547
   A12        1.90743  -0.00035   0.00027  -0.00222  -0.00196   1.90547
    D1       -1.04739   0.00001   0.00018  -0.00006   0.00012  -1.04727
    D2        1.04739  -0.00001  -0.00018   0.00006  -0.00012   1.04727
    D3        3.14159  -0.00000  -0.00000  -0.00000   0.00000   3.14159
    D4        3.12364  -0.00033  -0.00077  -0.00255  -0.00332   3.12032
    D5       -1.06476  -0.00036  -0.00114  -0.00243  -0.00357  -1.06833
    D6        1.02944  -0.00035  -0.00096  -0.00249  -0.00344   1.02600
    D7        1.06476   0.00036   0.00114   0.00243   0.00357   1.06833
    D8       -3.12364   0.00033   0.00077   0.00255   0.00332  -3.12032
    D9       -1.02944   0.00035   0.00096   0.00249   0.00344  -1.02600
         Item               Value     Threshold  Converged?
 Maximum Force            0.001534     0.000450     NO 
 RMS     Force            0.000473     0.000300     NO 
 Maximum Displacement     0.005681     0.001800     NO 
 RMS     Displacement     0.002581     0.001200     NO 
 Predicted change in Energy=-1.326735D-05
 Lowest energy point so far.  Saving SCF results.
 GradGradGradGradGradGradGradGradGradGradGradGradGradGradGradGradGradGrad

 Leave Link  103 at Tue Mar 31 17:51:13 2026, MaxMem=   536870912 cpu:               0.0 elap:               0.0
 (Enter /Users/asuyarger/Applications/G16/g16/l202.exe)
                          Input orientation:                          
 ---------------------------------------------------------------------
 Center     Atomic      Atomic             Coordinates (Angstroms)
 Number     Number       Type             X           Y           Z
 ---------------------------------------------------------------------
      1          6           0        0.761590    0.071836   -0.014615
      2          1           0        1.083130    0.644332   -0.870208
      3          9           0        1.181784    0.722020    1.091148
      4          9           0       -0.587825    0.096394    0.007492
      5          6           0        1.254095   -1.347613    0.000615
      6          1           0        0.896485   -1.871165   -0.877956
      7          1           0        2.337453   -1.361726    0.004451
      8          1           0        0.888603   -1.850324    0.887692
 ---------------------------------------------------------------------
                    Distance matrix (angstroms):
                    1          2          3          4          5
     1  C    0.000000
     2  H    1.078508   0.000000
     3  F    1.349820   1.965372   0.000000
     4  F    1.349820   1.965372   2.167311   0.000000
     5  C    1.502541   2.180690   2.340486   2.340486   0.000000
     6  H    2.130447   2.522424   3.268543   2.618870   1.083456
     7  H    2.130447   2.522424   2.618870   3.268543   1.083456
     8  H    2.127202   3.058000   2.596980   2.596980   1.083148
                    6          7          8
     6  H    0.000000
     7  H    1.764811   0.000000
     8  H    1.765789   1.765789   0.000000
 Stoichiometry    C2H4F2
 Framework group  CS[SG(C2H2),X(H2F2)]
 Deg. of freedom    11
 Full point group                 CS      NOp   2
 RotChk:  IX=2 Diff= 4.01D-03
 Largest Abelian subgroup         CS      NOp   2
 Largest concise Abelian subgroup CS      NOp   2
                         Standard orientation:                         
 ---------------------------------------------------------------------
 Center     Atomic      Atomic             Coordinates (Angstroms)
 Number     Number       Type             X           Y           Z
 ---------------------------------------------------------------------
      1          6           0        0.323600    0.161403   -0.000000
      2          1           0        1.254180    0.706564   -0.000000
      3          9           0        0.323600   -0.643399   -1.083655
      4          9           0        0.323600   -0.643399    1.083655
      5          6           0       -0.902378    1.030083    0.000000
      6          1           0       -0.908540    1.658733    0.882405
      7          1           0       -0.908540    1.658733   -0.882405
      8          1           0       -1.789233    0.408233    0.000000
 ---------------------------------------------------------------------
 Rotational constants (GHZ):           9.7097116           9.0487686           5.2544760
 Leave Link  202 at Tue Mar 31 17:51:13 2026, MaxMem=   536870912 cpu:               0.0 elap:               0.0
 (Enter /Users/asuyarger/Applications/G16/g16/l301.exe)
 Standard basis: 6-31+G(d) (6D, 7F)
 Ernie: Thresh=  0.10000D-02 Tol=  0.10000D-05 Strict=F.
 There are    53 symmetry adapted cartesian basis functions of A'  symmetry.
 There are    31 symmetry adapted cartesian basis functions of A"  symmetry.
 There are    53 symmetry adapted basis functions of A'  symmetry.
 There are    31 symmetry adapted basis functions of A"  symmetry.
    84 basis functions,   144 primitive gaussians,    84 cartesian basis functions
    17 alpha electrons       17 beta electrons
       nuclear repulsion energy       133.4372875033 Hartrees.
 IExCor=    0 DFT=F Ex=HF Corr=None ExCW=0 ScaHFX=  1.000000
 ScaDFX=  1.000000  1.000000  1.000000  1.000000 ScalE2=  1.000000  1.000000
 IRadAn=      5 IRanWt=     -1 IRanGd=            0 ICorTp=0 IEmpDi=  4
 NAtoms=    8 NActive=    8 NUniq=    6 SFac= 1.78D+00 NAtFMM=   60 NAOKFM=F Big=F
 Integral buffers will be    131072 words long.
 Raffenetti 1 integral format.
 Two-electron integral symmetry is turned on.
 Leave Link  301 at Tue Mar 31 17:51:13 2026, MaxMem=   536870912 cpu:               0.1 elap:               0.0
 (Enter /Users/asuyarger/Applications/G16/g16/l302.exe)
 NPDir=0 NMtPBC=     1 NCelOv=     1 NCel=       1 NClECP=     1 NCelD=      1
         NCelK=      1 NCelE2=     1 NClLst=     1 CellRange=     0.0.
 One-electron integrals computed using PRISM.
 One-electron integral symmetry used in STVInt
 NBasis=    84 RedAO= T EigKep=  2.48D-04  NBF=    53    31
 NBsUse=    84 1.00D-06 EigRej= -1.00D+00 NBFU=    53    31
 Leave Link  302 at Tue Mar 31 17:51:13 2026, MaxMem=   536870912 cpu:               0.3 elap:               0.1
 (Enter /Users/asuyarger/Applications/G16/g16/l303.exe)
 DipDrv:  MaxL=1.
 Leave Link  303 at Tue Mar 31 17:51:13 2026, MaxMem=   536870912 cpu:               0.1 elap:               0.0
 (Enter /Users/asuyarger/Applications/G16/g16/l401.exe)
 Initial guess from the checkpoint file:  "11Difluoroethane_Opt_Freq_HF_631pd_Gaussian16.chk"
 B after Tr=    -0.000000   -0.000000   -0.000000
         Rot=    0.999999    0.000000   -0.000000   -0.001269 Ang=  -0.15 deg.
 Guess basis will be translated and rotated to current coordinates.
 JPrj=2 DoOrth=T DoCkMO=T.
 Initial guess orbital symmetries:
       Occupied  (A") (A') (A') (A') (A') (A") (A') (A') (A') (A")
                 (A') (A") (A") (A') (A") (A') (A')
       Virtual   (A') (A') (A") (A') (A") (A') (A') (A') (A') (A")
                 (A') (A") (A") (A') (A') (A') (A") (A') (A') (A")
                 (A') (A') (A") (A') (A") (A') (A') (A') (A") (A')
                 (A") (A') (A') (A') (A') (A") (A') (A") (A') (A")
                 (A') (A') (A") (A') (A") (A') (A") (A") (A') (A")
                 (A') (A") (A') (A') (A") (A') (A") (A') (A") (A')
                 (A') (A") (A') (A') (A') (A") (A')
 The electronic state of the initial guess is 1-A'.
 Leave Link  401 at Tue Mar 31 17:51:13 2026, MaxMem=   536870912 cpu:               0.2 elap:               0.1
 (Enter /Users/asuyarger/Applications/G16/g16/l502.exe)
 Keep R1 ints in memory in symmetry-blocked form, NReq=9591280.
 FoFCou: FMM=F IPFlag=           0 FMFlag=           0 FMFlg1=           0
         NFxFlg=           0 DoJE=F BraDBF=F KetDBF=F FulRan=T
         wScrn=  0.000000 ICntrl=       600 IOpCl=  0 I1Cent=           0 NGrid=           0
         NMat0=    1 NMatS0=   3570 NMatT0=    0 NMatD0=    1 NMtDS0=    0 NMtDT0=    0
 Petite list used in FoFCou.
 Closed shell SCF:
 Using DIIS extrapolation, IDIIS=  1040.
 NGot=   536870912 LenX=   533638906 LenY=   533631409
 Requested convergence on RMS density matrix=1.00D-08 within 128 cycles.
 Requested convergence on MAX density matrix=1.00D-06.
 Requested convergence on             energy=1.00D-06.
 No special actions if energy rises.

 Cycle   1  Pass 1  IDiag  1:
 E= -276.957419374854    
 DIIS: error= 1.97D-04 at cycle   1 NSaved=   1.
 NSaved= 1 IEnMin= 1 EnMin= -276.957419374854     IErMin= 1 ErrMin= 1.97D-04
 ErrMax= 1.97D-04  0.00D+00 EMaxC= 1.00D-01 BMatC= 7.01D-06 BMatP= 7.01D-06
 IDIUse=3 WtCom= 9.98D-01 WtEn= 1.97D-03
 Coeff-Com:  0.100D+01
 Coeff-En:   0.100D+01
 Coeff:      0.100D+01
 Gap=     0.599 Goal=   None    Shift=    0.000
 RMSDP=4.21D-05 MaxDP=4.43D-04              OVMax= 6.05D-04

 Cycle   2  Pass 1  IDiag  1:
 E= -276.957428143062     Delta-E=       -0.000008768207 Rises=F Damp=F
 DIIS: error= 6.49D-05 at cycle   2 NSaved=   2.
 NSaved= 2 IEnMin= 2 EnMin= -276.957428143062     IErMin= 2 ErrMin= 6.49D-05
 ErrMax= 6.49D-05  0.00D+00 EMaxC= 1.00D-01 BMatC= 4.69D-07 BMatP= 7.01D-06
 IDIUse=1 WtCom= 1.00D+00 WtEn= 0.00D+00
 Coeff-Com: -0.190D+00 0.119D+01
 Coeff:     -0.190D+00 0.119D+01
 Gap=     0.599 Goal=   None    Shift=    0.000
 RMSDP=1.42D-05 MaxDP=1.36D-04 DE=-8.77D-06 OVMax= 2.56D-04

 Cycle   3  Pass 1  IDiag  1:
 E= -276.957429032130     Delta-E=       -0.000000889068 Rises=F Damp=F
 DIIS: error= 1.79D-05 at cycle   3 NSaved=   3.
 NSaved= 3 IEnMin= 3 EnMin= -276.957429032130     IErMin= 3 ErrMin= 1.79D-05
 ErrMax= 1.79D-05  0.00D+00 EMaxC= 1.00D-01 BMatC= 4.08D-08 BMatP= 4.69D-07
 IDIUse=1 WtCom= 1.00D+00 WtEn= 0.00D+00
 Coeff-Com: -0.412D-01 0.890D-03 0.104D+01
 Coeff:     -0.412D-01 0.890D-03 0.104D+01
 Gap=     0.599 Goal=   None    Shift=    0.000
 RMSDP=3.99D-06 MaxDP=4.85D-05 DE=-8.89D-07 OVMax= 8.08D-05

 Cycle   4  Pass 1  IDiag  1:
 E= -276.957429107696     Delta-E=       -0.000000075566 Rises=F Damp=F
 DIIS: error= 6.13D-06 at cycle   4 NSaved=   4.
 NSaved= 4 IEnMin= 4 EnMin= -276.957429107696     IErMin= 4 ErrMin= 6.13D-06
 ErrMax= 6.13D-06  0.00D+00 EMaxC= 1.00D-01 BMatC= 5.06D-09 BMatP= 4.08D-08
 IDIUse=1 WtCom= 1.00D+00 WtEn= 0.00D+00
 Coeff-Com:  0.162D-01-0.120D+00 0.610D-01 0.104D+01
 Coeff:      0.162D-01-0.120D+00 0.610D-01 0.104D+01
 Gap=     0.599 Goal=   None    Shift=    0.000
 RMSDP=1.42D-06 MaxDP=2.10D-05 DE=-7.56D-08 OVMax= 3.45D-05

 Cycle   5  Pass 1  IDiag  1:
 E= -276.957429116815     Delta-E=       -0.000000009120 Rises=F Damp=F
 DIIS: error= 1.90D-06 at cycle   5 NSaved=   5.
 NSaved= 5 IEnMin= 5 EnMin= -276.957429116815     IErMin= 5 ErrMin= 1.90D-06
 ErrMax= 1.90D-06  0.00D+00 EMaxC= 1.00D-01 BMatC= 3.42D-10 BMatP= 5.06D-09
 IDIUse=1 WtCom= 1.00D+00 WtEn= 0.00D+00
 Coeff-Com:  0.326D-02-0.192D-02-0.790D-01 0.167D-01 0.106D+01
 Coeff:      0.326D-02-0.192D-02-0.790D-01 0.167D-01 0.106D+01
 Gap=     0.599 Goal=   None    Shift=    0.000
 RMSDP=3.96D-07 MaxDP=6.94D-06 DE=-9.12D-09 OVMax= 8.69D-06

 Cycle   6  Pass 1  IDiag  1:
 E= -276.957429117415     Delta-E=       -0.000000000600 Rises=F Damp=F
 DIIS: error= 6.05D-07 at cycle   6 NSaved=   6.
 NSaved= 6 IEnMin= 6 EnMin= -276.957429117415     IErMin= 6 ErrMin= 6.05D-07
 ErrMax= 6.05D-07  0.00D+00 EMaxC= 1.00D-01 BMatC= 4.25D-11 BMatP= 3.42D-10
 IDIUse=1 WtCom= 1.00D+00 WtEn= 0.00D+00
 Coeff-Com: -0.473D-03 0.853D-02-0.223D-01-0.785D-01 0.241D+00 0.852D+00
 Coeff:     -0.473D-03 0.853D-02-0.223D-01-0.785D-01 0.241D+00 0.852D+00
 Gap=     0.599 Goal=   None    Shift=    0.000
 RMSDP=9.87D-08 MaxDP=1.65D-06 DE=-6.00D-10 OVMax= 1.78D-06

 Cycle   7  Pass 1  IDiag  1:
 E= -276.957429117465     Delta-E=       -0.000000000050 Rises=F Damp=F
 DIIS: error= 1.62D-07 at cycle   7 NSaved=   7.
 NSaved= 7 IEnMin= 7 EnMin= -276.957429117465     IErMin= 7 ErrMin= 1.62D-07
 ErrMax= 1.62D-07  0.00D+00 EMaxC= 1.00D-01 BMatC= 2.28D-12 BMatP= 4.25D-11
 IDIUse=1 WtCom= 1.00D+00 WtEn= 0.00D+00
 Coeff-Com: -0.353D-03 0.672D-03 0.722D-02-0.412D-02-0.102D+00 0.106D-01
 Coeff-Com:  0.109D+01
 Coeff:     -0.353D-03 0.672D-03 0.722D-02-0.412D-02-0.102D+00 0.106D-01
 Coeff:      0.109D+01
 Gap=     0.599 Goal=   None    Shift=    0.000
 RMSDP=3.97D-08 MaxDP=4.71D-07 DE=-4.99D-11 OVMax= 6.67D-07

 Cycle   8  Pass 1  IDiag  1:
 E= -276.957429117468     Delta-E=       -0.000000000003 Rises=F Damp=F
 DIIS: error= 2.39D-08 at cycle   8 NSaved=   8.
 NSaved= 8 IEnMin= 8 EnMin= -276.957429117468     IErMin= 8 ErrMin= 2.39D-08
 ErrMax= 2.39D-08  0.00D+00 EMaxC= 1.00D-01 BMatC= 5.89D-14 BMatP= 2.28D-12
 IDIUse=1 WtCom= 1.00D+00 WtEn= 0.00D+00
 Coeff-Com:  0.705D-04-0.413D-03-0.236D-03 0.332D-02 0.573D-02-0.292D-01
 Coeff-Com: -0.154D+00 0.117D+01
 Coeff:      0.705D-04-0.413D-03-0.236D-03 0.332D-02 0.573D-02-0.292D-01
 Coeff:     -0.154D+00 0.117D+01
 Gap=     0.599 Goal=   None    Shift=    0.000
 RMSDP=9.84D-09 MaxDP=1.48D-07 DE=-3.13D-12 OVMax= 1.56D-07

 SCF Done:  E(RHF) =  -276.957429117     A.U. after    8 cycles
            NFock=  8  Conv=0.98D-08     -V/T= 2.0021
 KE= 2.763689117738D+02 PE=-9.244297368067D+02 EE= 2.376661084121D+02
 Leave Link  502 at Tue Mar 31 17:51:13 2026, MaxMem=   536870912 cpu:               0.7 elap:               0.2
 (Enter /Users/asuyarger/Applications/G16/g16/l701.exe)
 ... and contract with generalized density number  0.
 Compute integral first derivatives.
 Leave Link  701 at Tue Mar 31 17:51:13 2026, MaxMem=   536870912 cpu:               0.3 elap:               0.1
 (Enter /Users/asuyarger/Applications/G16/g16/l702.exe)
 L702 exits ... SP integral derivatives will be done elsewhere.
 Leave Link  702 at Tue Mar 31 17:51:13 2026, MaxMem=   536870912 cpu:               0.1 elap:               0.0
 (Enter /Users/asuyarger/Applications/G16/g16/l703.exe)
 Integral derivatives from FoFJK, PRISM(SPDF).
 Compute integral first derivatives, UseDBF=F ICtDFT=           0.
 Calling FoFJK, ICntrl=      2127 FMM=F ISym2X=1 I1Cent= 0 IOpClX= 0 NMat=1 NMatS=1 NMatT=0.
 FoFJK:  IHMeth= 1 ICntrl=    2127 DoSepK=F KAlg= 0 I1Cent=           0 FoldK=F
 IRaf=         0 NMat=       1 IRICut=       1 DoRegI=T DoRafI=F ISym2E= 1 IDoP0=0 IntGTp=1.
 FoFCou: FMM=F IPFlag=           0 FMFlag=      100000 FMFlg1=         800
         NFxFlg=           0 DoJE=F BraDBF=F KetDBF=F FulRan=T
         wScrn=  0.000000 ICntrl=      2127 IOpCl=  0 I1Cent=           0 NGrid=           0
         NMat0=    1 NMatS0=      1 NMatT0=    0 NMatD0=    1 NMtDS0=    0 NMtDT0=    0
 Petite list used in FoFCou.
 Leave Link  703 at Tue Mar 31 17:51:14 2026, MaxMem=   536870912 cpu:               0.6 elap:               0.2
 (Enter /Users/asuyarger/Applications/G16/g16/l716.exe)
 Dipole        =-1.25291176D-01 9.87353279D-01 2.77555756D-15
 ***** Axes restored to original set *****
 -------------------------------------------------------------------
 Center     Atomic                   Forces (Hartrees/Bohr)
 Number     Number              X              Y              Z
 -------------------------------------------------------------------
      1        6           0.000069188   -0.000467187    0.000156737
      2        1          -0.000127676    0.000050049    0.000179599
      3        9           0.000077988    0.000103253   -0.000122091
      4        9           0.000025018    0.000084526   -0.000154528
      5        6          -0.000002027    0.000067198   -0.000035486
      6        1          -0.000038402    0.000030161   -0.000046205
      7        1           0.000036310    0.000056575   -0.000000453
      8        1          -0.000040399    0.000075424    0.000022427
 -------------------------------------------------------------------
 Cartesian Forces:  Max     0.000467187 RMS     0.000126593
 Leave Link  716 at Tue Mar 31 17:51:14 2026, MaxMem=   536870912 cpu:               0.1 elap:               0.0
 (Enter /Users/asuyarger/Applications/G16/g16/l103.exe)

 GradGradGradGradGradGradGradGradGradGradGradGradGradGradGradGradGradGrad
 Berny optimization.
 Using GEDIIS/GDIIS optimizer.
 FormGI is forming the generalized inverse of G from B-inverse, IUseBI=4.
 Internal  Forces:  Max     0.000231872 RMS     0.000096319
 Search for a local minimum.
 Step number   4 out of a maximum of   38
 All quantities printed in internal units (Hartrees-Bohrs-Radians)
 RMS Force = .96319D-04 SwitMx=.10000D-02 MixMth= 2
 Mixed Optimization -- En-DIIS/RFO-DIIS
 Swapping is turned off.
 Update second derivatives using D2CorX and points    1    2    3    4
 DE= -1.12D-05 DEPred=-1.33D-05 R= 8.47D-01
 TightC=F SS=  1.41D+00  RLast= 1.28D-02 DXNew= 8.4853D-01 3.8457D-02
 Trust test= 8.47D-01 RLast= 1.28D-02 DXMaxT set to 5.05D-01
 ITU=  1  1  1  0
     Eigenvalues ---    0.00237   0.05487   0.05648   0.05669   0.09454
     Eigenvalues ---    0.14779   0.16000   0.16519   0.18030   0.23026
     Eigenvalues ---    0.27421   0.30765   0.36057   0.37230   0.37294
     Eigenvalues ---    0.37658   0.55021   0.55056
 En-DIIS/RFO-DIIS/Sim-DIIS IScMMF=       -3 using points:     4    3
 RFO step:  Lambda=-1.31269073D-06.
 NNeg= 0 NGDIIS= 2 SimSw=  2.50D-01 Rises=F DC= -1.12D-05 SmlDif=  1.00D-05
 NRisDI= 0 DoIntr=F SqrtH=F CThrHd= 10.0 CDAdj=  3.0
 RMS Error=  0.5515983191D-03 NUsed= 2 OKEnD=T EnDIS=F
 InvSVX:  RCond= 1.85D-04 Info=           0 Equed=N FErr=  1.12D-15 BErr=  8.41D-17
 DidBck=F Rises=F RFO-DIIS coefs:    0.82570    0.17430
 Iteration  1 RMS(Cart)=  0.00048918 RMS(Int)=  0.00000031
 Iteration  2 RMS(Cart)=  0.00000028 RMS(Int)=  0.00000018
 ITry= 1 IFail=0 DXMaxC= 1.37D-03 DCOld= 1.00D+10 DXMaxT= 5.05D-01 DXLimC= 3.00D+00 Rises=F
 ClnCor:  largest displacement from symmetrization is 6.35D-09 for atom     4.
 Variable       Old X    -DE/DX   Delta X   Delta X   Delta X     New X
                                 (Linear)    (Quad)   (Total)
    R1        2.03808  -0.00015   0.00024  -0.00064  -0.00040   2.03768
    R2        2.55079  -0.00003  -0.00020   0.00020  -0.00001   2.55078
    R3        2.55079  -0.00003  -0.00020   0.00020  -0.00001   2.55078
    R4        2.83939  -0.00023  -0.00080   0.00027  -0.00053   2.83886
    R5        2.04744   0.00004   0.00031  -0.00028   0.00002   2.04746
    R6        2.04744   0.00004   0.00031  -0.00028   0.00002   2.04746
    R7        2.04685  -0.00000   0.00022  -0.00026  -0.00005   2.04681
    A1        1.87694  -0.00019  -0.00038  -0.00083  -0.00120   1.87573
    A2        1.87694  -0.00019  -0.00038  -0.00083  -0.00120   1.87573
    A3        1.99521   0.00013  -0.00032   0.00083   0.00051   1.99572
    A4        1.86400   0.00000   0.00082  -0.00027   0.00055   1.86455
    A5        1.92272   0.00011   0.00016   0.00048   0.00064   1.92336
    A6        1.92272   0.00011   0.00016   0.00048   0.00064   1.92336
    A7        1.91781  -0.00005  -0.00030   0.00011  -0.00019   1.91762
    A8        1.91781  -0.00005  -0.00030   0.00011  -0.00019   1.91762
    A9        1.91362  -0.00011  -0.00041  -0.00009  -0.00050   1.91313
   A10        1.90351   0.00006   0.00034  -0.00005   0.00030   1.90381
   A11        1.90547   0.00007   0.00034  -0.00005   0.00030   1.90577
   A12        1.90547   0.00007   0.00034  -0.00005   0.00030   1.90577
    D1       -1.04727  -0.00000  -0.00002  -0.00004  -0.00006  -1.04733
    D2        1.04727   0.00000   0.00002   0.00004   0.00006   1.04733
    D3        3.14159  -0.00000   0.00000  -0.00000   0.00000   3.14159
    D4        3.12032   0.00007   0.00058   0.00009   0.00066   3.12099
    D5       -1.06833   0.00008   0.00062   0.00017   0.00079  -1.06754
    D6        1.02600   0.00007   0.00060   0.00013   0.00073   1.02672
    D7        1.06833  -0.00008  -0.00062  -0.00017  -0.00079   1.06754
    D8       -3.12032  -0.00007  -0.00058  -0.00009  -0.00066  -3.12099
    D9       -1.02600  -0.00007  -0.00060  -0.00013  -0.00073  -1.02672
         Item               Value     Threshold  Converged?
 Maximum Force            0.000232     0.000450     YES
 RMS     Force            0.000096     0.000300     YES
 Maximum Displacement     0.001367     0.001800     YES
 RMS     Displacement     0.000489     0.001200     YES
 Predicted change in Energy=-6.564884D-07
 Optimization completed.
    -- Stationary point found.
                           ----------------------------
                           !   Optimized Parameters   !
                           ! (Angstroms and Degrees)  !
 --------------------------                            --------------------------
 ! Name  Definition              Value          Derivative Info.                !
 --------------------------------------------------------------------------------
 ! R1    R(1,2)                  1.0785         -DE/DX =   -0.0002              !
 ! R2    R(1,3)                  1.3498         -DE/DX =    0.0                 !
 ! R3    R(1,4)                  1.3498         -DE/DX =    0.0                 !
 ! R4    R(1,5)                  1.5025         -DE/DX =   -0.0002              !
 ! R5    R(5,6)                  1.0835         -DE/DX =    0.0                 !
 ! R6    R(5,7)                  1.0835         -DE/DX =    0.0                 !
 ! R7    R(5,8)                  1.0831         -DE/DX =    0.0                 !
 ! A1    A(2,1,3)              107.5405         -DE/DX =   -0.0002              !
 ! A2    A(2,1,4)              107.5405         -DE/DX =   -0.0002              !
 ! A3    A(2,1,5)              114.3171         -DE/DX =    0.0001              !
 ! A4    A(3,1,4)              106.7994         -DE/DX =    0.0                 !
 ! A5    A(3,1,5)              110.1637         -DE/DX =    0.0001              !
 ! A6    A(4,1,5)              110.1637         -DE/DX =    0.0001              !
 ! A7    A(1,5,6)              109.8825         -DE/DX =    0.0                 !
 ! A8    A(1,5,7)              109.8825         -DE/DX =    0.0                 !
 ! A9    A(1,5,8)              109.6425         -DE/DX =   -0.0001              !
 ! A10   A(6,5,7)              109.0632         -DE/DX =    0.0001              !
 ! A11   A(6,5,8)              109.1753         -DE/DX =    0.0001              !
 ! A12   A(7,5,8)              109.1753         -DE/DX =    0.0001              !
 ! D1    D(2,1,5,6)            -60.0039         -DE/DX =    0.0                 !
 ! D2    D(2,1,5,7)             60.0039         -DE/DX =    0.0                 !
 ! D3    D(2,1,5,8)            180.0            -DE/DX =    0.0                 !
 ! D4    D(3,1,5,6)            178.7813         -DE/DX =    0.0001              !
 ! D5    D(3,1,5,7)            -61.2109         -DE/DX =    0.0001              !
 ! D6    D(3,1,5,8)             58.7852         -DE/DX =    0.0001              !
 ! D7    D(4,1,5,6)             61.2109         -DE/DX =   -0.0001              !
 ! D8    D(4,1,5,7)           -178.7813         -DE/DX =   -0.0001              !
 ! D9    D(4,1,5,8)            -58.7852         -DE/DX =   -0.0001              !
 --------------------------------------------------------------------------------
 Lowest energy point so far.  Saving SCF results.
 Largest change from initial coordinates is atom    2       0.010 Angstoms.
 GradGradGradGradGradGradGradGradGradGradGradGradGradGradGradGradGradGrad

 Leave Link  103 at Tue Mar 31 17:51:14 2026, MaxMem=   536870912 cpu:               0.1 elap:               0.0
 (Enter /Users/asuyarger/Applications/G16/g16/l202.exe)
                          Input orientation:                          
 ---------------------------------------------------------------------
 Center     Atomic      Atomic             Coordinates (Angstroms)
 Number     Number       Type             X           Y           Z
 ---------------------------------------------------------------------
      1          6           0        0.761590    0.071836   -0.014615
      2          1           0        1.083130    0.644332   -0.870208
      3          9           0        1.181784    0.722020    1.091148
      4          9           0       -0.587825    0.096394    0.007492
      5          6           0        1.254095   -1.347613    0.000615
      6          1           0        0.896485   -1.871165   -0.877956
      7          1           0        2.337453   -1.361726    0.004451
      8          1           0        0.888603   -1.850324    0.887692
 ---------------------------------------------------------------------
                    Distance matrix (angstroms):
                    1          2          3          4          5
     1  C    0.000000
     2  H    1.078508   0.000000
     3  F    1.349820   1.965372   0.000000
     4  F    1.349820   1.965372   2.167311   0.000000
     5  C    1.502541   2.180690   2.340486   2.340486   0.000000
     6  H    2.130447   2.522424   3.268543   2.618870   1.083456
     7  H    2.130447   2.522424   2.618870   3.268543   1.083456
     8  H    2.127202   3.058000   2.596980   2.596980   1.083148
                    6          7          8
     6  H    0.000000
     7  H    1.764811   0.000000
     8  H    1.765789   1.765789   0.000000
 Stoichiometry    C2H4F2
 Framework group  CS[SG(C2H2),X(H2F2)]
 Deg. of freedom    11
 Full point group                 CS      NOp   2
 RotChk:  IX=2 Diff= 7.37D-15
 Largest Abelian subgroup         CS      NOp   2
 Largest concise Abelian subgroup CS      NOp   2
                         Standard orientation:                         
 ---------------------------------------------------------------------
 Center     Atomic      Atomic             Coordinates (Angstroms)
 Number     Number       Type             X           Y           Z
 ---------------------------------------------------------------------
      1          6           0        0.323600    0.161403    0.000000
      2          1           0        1.254180    0.706564    0.000000
      3          9           0        0.323600   -0.643399   -1.083655
      4          9           0        0.323600   -0.643399    1.083655
      5          6           0       -0.902378    1.030083    0.000000
      6          1           0       -0.908540    1.658733    0.882405
      7          1           0       -0.908540    1.658733   -0.882405
      8          1           0       -1.789233    0.408233   -0.000000
 ---------------------------------------------------------------------
 Rotational constants (GHZ):           9.7097116           9.0487686           5.2544760
 Leave Link  202 at Tue Mar 31 17:51:14 2026, MaxMem=   536870912 cpu:               0.0 elap:               0.0
 (Enter /Users/asuyarger/Applications/G16/g16/l601.exe)
 Copying SCF densities to generalized density rwf, IOpCl= 0 IROHF=0.

 **********************************************************************

            Population analysis using the SCF density.

 **********************************************************************

 Orbital symmetries:
       Occupied  (A") (A') (A') (A') (A') (A") (A') (A') (A') (A")
                 (A') (A") (A") (A') (A") (A') (A')
       Virtual   (A') (A') (A") (A') (A") (A') (A') (A') (A') (A")
                 (A') (A") (A") (A') (A') (A') (A") (A') (A') (A")
                 (A') (A') (A") (A') (A") (A') (A') (A') (A") (A')
                 (A") (A') (A') (A') (A') (A") (A') (A") (A') (A")
                 (A') (A') (A") (A') (A") (A') (A") (A") (A') (A")
                 (A') (A") (A') (A') (A") (A') (A") (A') (A") (A')
                 (A') (A") (A') (A') (A') (A") (A')
 The electronic state is 1-A'.
 Alpha  occ. eigenvalues --  -26.32008 -26.32006 -11.40810 -11.24125  -1.66687
 Alpha  occ. eigenvalues --   -1.60103  -1.05538  -0.90000  -0.78360  -0.76144
 Alpha  occ. eigenvalues --   -0.73230  -0.66632  -0.62827  -0.62046  -0.57428
 Alpha  occ. eigenvalues --   -0.56723  -0.51761
 Alpha virt. eigenvalues --    0.08110   0.08910   0.11007   0.11238   0.13389
 Alpha virt. eigenvalues --    0.13753   0.14034   0.20584   0.29557   0.29732
 Alpha virt. eigenvalues --    0.34896   0.35418   0.38667   0.39292   0.40290
 Alpha virt. eigenvalues --    0.42207   0.42730   0.43882   0.45008   0.45674
 Alpha virt. eigenvalues --    0.51087   0.53154   0.53875   0.82461   0.87850
 Alpha virt. eigenvalues --    0.88449   0.93750   0.99734   1.00192   1.19224
 Alpha virt. eigenvalues --    1.20833   1.23036   1.34582   1.39061   1.54637
 Alpha virt. eigenvalues --    1.60053   1.64961   1.86263   1.89816   1.90717
 Alpha virt. eigenvalues --    1.94609   1.95509   1.95659   2.06994   2.08550
 Alpha virt. eigenvalues --    2.08903   2.13717   2.16930   2.17114   2.25685
 Alpha virt. eigenvalues --    2.32642   2.40799   2.48683   2.51997   2.52925
 Alpha virt. eigenvalues --    2.58224   2.61224   2.79718   2.95370   2.98058
 Alpha virt. eigenvalues --    3.10541   3.48473   3.51076   4.65930   4.92659
 Alpha virt. eigenvalues --    5.66530   5.98273
          Condensed to atoms (all electrons):
               1          2          3          4          5          6
     1  C    4.397430   0.437247   0.125745   0.125745   0.366187  -0.043407
     2  H    0.437247   0.536152  -0.054849  -0.054849  -0.041780  -0.000873
     3  F    0.125745  -0.054849   9.413554  -0.027377  -0.069046   0.008813
     4  F    0.125745  -0.054849  -0.027377   9.413554  -0.069046  -0.005348
     5  C    0.366187  -0.041780  -0.069046  -0.069046   5.351137   0.396559
     6  H   -0.043407  -0.000873   0.008813  -0.005348   0.396559   0.474638
     7  H   -0.043407  -0.000873  -0.005348   0.008813   0.396559  -0.024089
     8  H   -0.017522   0.003140  -0.004397  -0.004397   0.383175  -0.021899
               7          8
     1  C   -0.043407  -0.017522
     2  H   -0.000873   0.003140
     3  F   -0.005348  -0.004397
     4  F    0.008813  -0.004397
     5  C    0.396559   0.383175
     6  H   -0.024089  -0.021899
     7  H    0.474638  -0.021899
     8  H   -0.021899   0.455744
 Mulliken charges:
               1
     1  C    0.651981
     2  H    0.176687
     3  F   -0.387095
     4  F   -0.387095
     5  C   -0.713745
     6  H    0.215606
     7  H    0.215606
     8  H    0.228055
 Sum of Mulliken charges =  -0.00000
 Mulliken charges with hydrogens summed into heavy atoms:
               1
     1  C    0.828667
     3  F   -0.387095
     4  F   -0.387095
     5  C   -0.054477
 Electronic spatial extent (au):  <R**2>=            254.7284
 Charge=             -0.0000 electrons
 Dipole moment (field-independent basis, Debye):
    X=             -0.3185    Y=              2.5096    Z=              0.0000  Tot=              2.5297
 Quadrupole moment (field-independent basis, Debye-Ang):
   XX=            -21.4605   YY=            -23.1423   ZZ=            -25.8580
   XY=              0.6643   XZ=              0.0000   YZ=             -0.0000
 Traceless Quadrupole moment (field-independent basis, Debye-Ang):
   XX=              2.0264   YY=              0.3447   ZZ=             -2.3711
   XY=              0.6643   XZ=              0.0000   YZ=             -0.0000
 Octapole moment (field-independent basis, Debye-Ang**2):
  XXX=              5.1291  YYY=             -7.2258  ZZZ=              0.0000  XYY=              1.1361
  XXY=             -2.3890  XXZ=              0.0000  XZZ=              0.4463  YZZ=              0.1625
  YYZ=              0.0000  XYZ=             -0.0000
 Hexadecapole moment (field-independent basis, Debye-Ang**3):
 XXXX=            -77.9169 YYYY=           -104.6111 ZZZZ=            -98.6751 XXXY=             28.3326
 XXXZ=              0.0000 YYYX=             26.1021 YYYZ=             -0.0000 ZZZX=              0.0000
 ZZZY=             -0.0000 XXYY=            -31.1096 XXZZ=            -30.4404 YYZZ=            -31.9869
 XXYZ=             -0.0000 YYXZ=              0.0000 ZZXY=              8.7276
 N-N= 1.334372875033D+02 E-N=-9.244297376956D+02  KE= 2.763689117738D+02
 Symmetry A'   KE= 1.734949524888D+02
 Symmetry A"   KE= 1.028739592850D+02
 No NMR shielding tensors so no spin-rotation constants.
 Leave Link  601 at Tue Mar 31 17:51:14 2026, MaxMem=   536870912 cpu:               0.3 elap:               0.1
 (Enter /Users/asuyarger/Applications/G16/g16/l9999.exe)
 1\1\GINC-JEFFSMACSTUDIO\FOpt\RHF\6-31+G(d)\C2H4F2\ROOT\31-Mar-2026\0\\
 #p opt freq=raman hf/6-31+g(d) guess=save geom=connectivity polar\\R15
 2a - 1,1-difluoroethane\\0,1\C,0.7615903879,0.0718357601,-0.0146152419
 \H,1.0831303412,0.6443318525,-0.8702083892\F,1.1817837482,0.7220201121
 ,1.091147996\F,-0.5878252944,0.0963935219,0.0074918329\C,1.2540949673,
 -1.3476132284,0.000615118\H,0.896484724,-1.8711648755,-0.8779555585\H,
 2.3374526967,-1.3617258652,0.0044505475\H,0.88860314,-1.8503239296,0.8
 87692456\\Version=EM64M-G16RevA.03\State=1-A'\HF=-276.9574291\RMSD=9.8
 38e-09\RMSF=1.266e-04\Dipole=0.56908,-0.5217447,-0.6280882\Quadrupole=
 -1.0855819,0.6580371,0.4275449,-0.2241068,-0.9765915,-1.0316822\PG=CS 
 [SG(C2H2),X(H2F2)]\\@


 SCIENCE IS A VERY HUMAN FORM OF KNOWLEDGE.
 WE ARE ALWAYS AT THE BRINK OF THE KNOWN,
 WE ALWAYS FEEL FORWARD FOR WHAT IS HOPED.
 EVERY JUDGEMENT IN SCIENCE STANDS ON THE EDGE OF ERROR, AND IS PERSONAL.
 SCIENCE IS A TRIBUTE TO WHAT WE CAN KNOW ALTHOUGH WE ARE FALLIBLE.

                     -- J. BRONOWSKI
 Leave Link 9999 at Tue Mar 31 17:51:14 2026, MaxMem=   536870912 cpu:               0.1 elap:               0.0
 Job cpu time:       0 days  0 hours  0 minutes 13.3 seconds.
 Elapsed time:       0 days  0 hours  0 minutes  3.8 seconds.
 File lengths (MBytes):  RWF=     10 Int=      0 D2E=      0 Chk=      2 Scr=      1
 Normal termination of Gaussian 16 at Tue Mar 31 17:51:14 2026.
 (Enter /Users/asuyarger/Applications/G16/g16/l1.exe)
 Link1:  Proceeding to internal job step number  2.
 ------------------------------------------------------------------
 #P Geom=AllCheck Guess=TCheck SCRF=Check GenChk RHF/6-31+G(d) Freq
 ------------------------------------------------------------------
 1/10=4,29=7,30=1,38=1,40=1/1,3;
 2/12=2,40=1/2;
 3/5=1,6=6,7=11,11=1,14=-4,25=1,30=1,70=2,71=2,116=1,140=1/1,2,3;
 4/5=101/1;
 5/5=2,38=6,98=1/2;
 8/6=4,10=90,11=11/1;
 10/13=10,15=4/2;
 11/6=3,8=1,9=11,15=111,16=1/1,2,10;
 10/6=1/2;
 6/7=2,8=2,9=2,10=2,28=1/1;
 7/8=1,10=1,25=1/1,2,3,16;
 1/10=4,30=1/3;
 99//99;
 Leave Link    1 at Tue Mar 31 17:51:14 2026, MaxMem=   536870912 cpu:               0.1 elap:               0.0
 (Enter /Users/asuyarger/Applications/G16/g16/l101.exe)
 Structure from the checkpoint file:  "11Difluoroethane_Opt_Freq_HF_631pd_Gaussian16.chk"
 --------------------------
 R152a - 1,1-difluoroethane
 --------------------------
 Charge =  0 Multiplicity = 1
 Redundant internal coordinates found in file.  (old form).
 C,0,0.7615903879,0.0718357601,-0.0146152419
 H,0,1.0831303412,0.6443318525,-0.8702083892
 F,0,1.1817837482,0.7220201121,1.091147996
 F,0,-0.5878252944,0.0963935219,0.0074918329
 C,0,1.2540949673,-1.3476132284,0.000615118
 H,0,0.896484724,-1.8711648755,-0.8779555585
 H,0,2.3374526967,-1.3617258652,0.0044505475
 H,0,0.88860314,-1.8503239296,0.887692456
 Recover connectivity data from disk.
 ITRead=  0  0  0  0  0  0  0  0
 MicOpt= -1 -1 -1 -1 -1 -1 -1 -1
 NAtoms=      8 NQM=        8 NQMF=       0 NMMI=      0 NMMIF=      0
                NMic=       0 NMicF=      0.
                    Isotopes and Nuclear Properties:
 (Nuclear quadrupole moments (NQMom) in fm**2, nuclear magnetic moments (NMagM)
  in nuclear magnetons)

  Atom         1           2           3           4           5           6           7           8
 IAtWgt=          12           1          19          19          12           1           1           1
 AtmWgt=  12.0000000   1.0078250  18.9984033  18.9984033  12.0000000   1.0078250   1.0078250   1.0078250
 NucSpn=           0           1           1           1           0           1           1           1
 AtZEff=   3.6000000   1.0000000   6.7500000   6.7500000   3.6000000   1.0000000   1.0000000   1.0000000
 NQMom=    0.0000000   0.0000000   0.0000000   0.0000000   0.0000000   0.0000000   0.0000000   0.0000000
 NMagM=    0.0000000   2.7928460   2.6288670   2.6288670   0.0000000   2.7928460   2.7928460   2.7928460
 AtZNuc=   6.0000000   1.0000000   9.0000000   9.0000000   6.0000000   1.0000000   1.0000000   1.0000000
 Leave Link  101 at Tue Mar 31 17:51:14 2026, MaxMem=   536870912 cpu:               0.5 elap:               0.1
 (Enter /Users/asuyarger/Applications/G16/g16/l103.exe)

 GradGradGradGradGradGradGradGradGradGradGradGradGradGradGradGradGradGrad
 Berny optimization.
 Initialization pass.
                           ----------------------------
                           !    Initial Parameters    !
                           ! (Angstroms and Degrees)  !
 --------------------------                            --------------------------
 ! Name  Definition              Value          Derivative Info.                !
 --------------------------------------------------------------------------------
 ! R1    R(1,2)                  1.0785         calculate D2E/DX2 analytically  !
 ! R2    R(1,3)                  1.3498         calculate D2E/DX2 analytically  !
 ! R3    R(1,4)                  1.3498         calculate D2E/DX2 analytically  !
 ! R4    R(1,5)                  1.5025         calculate D2E/DX2 analytically  !
 ! R5    R(5,6)                  1.0835         calculate D2E/DX2 analytically  !
 ! R6    R(5,7)                  1.0835         calculate D2E/DX2 analytically  !
 ! R7    R(5,8)                  1.0831         calculate D2E/DX2 analytically  !
 ! A1    A(2,1,3)              107.5405         calculate D2E/DX2 analytically  !
 ! A2    A(2,1,4)              107.5405         calculate D2E/DX2 analytically  !
 ! A3    A(2,1,5)              114.3171         calculate D2E/DX2 analytically  !
 ! A4    A(3,1,4)              106.7994         calculate D2E/DX2 analytically  !
 ! A5    A(3,1,5)              110.1637         calculate D2E/DX2 analytically  !
 ! A6    A(4,1,5)              110.1637         calculate D2E/DX2 analytically  !
 ! A7    A(1,5,6)              109.8825         calculate D2E/DX2 analytically  !
 ! A8    A(1,5,7)              109.8825         calculate D2E/DX2 analytically  !
 ! A9    A(1,5,8)              109.6425         calculate D2E/DX2 analytically  !
 ! A10   A(6,5,7)              109.0632         calculate D2E/DX2 analytically  !
 ! A11   A(6,5,8)              109.1753         calculate D2E/DX2 analytically  !
 ! A12   A(7,5,8)              109.1753         calculate D2E/DX2 analytically  !
 ! D1    D(2,1,5,6)            -60.0039         calculate D2E/DX2 analytically  !
 ! D2    D(2,1,5,7)             60.0039         calculate D2E/DX2 analytically  !
 ! D3    D(2,1,5,8)           -180.0            calculate D2E/DX2 analytically  !
 ! D4    D(3,1,5,6)            178.7813         calculate D2E/DX2 analytically  !
 ! D5    D(3,1,5,7)            -61.2109         calculate D2E/DX2 analytically  !
 ! D6    D(3,1,5,8)             58.7852         calculate D2E/DX2 analytically  !
 ! D7    D(4,1,5,6)             61.2109         calculate D2E/DX2 analytically  !
 ! D8    D(4,1,5,7)           -178.7813         calculate D2E/DX2 analytically  !
 ! D9    D(4,1,5,8)            -58.7852         calculate D2E/DX2 analytically  !
 --------------------------------------------------------------------------------
 Trust Radius=3.00D-01 FncErr=1.00D-07 GrdErr=1.00D-07 EigMax=2.50D+02 EigMin=1.00D-04
 Number of steps in this run=      2 maximum allowed number of steps=      2.
 GradGradGradGradGradGradGradGradGradGradGradGradGradGradGradGradGradGrad

 Leave Link  103 at Tue Mar 31 17:51:14 2026, MaxMem=   536870912 cpu:               0.0 elap:               0.0
 (Enter /Users/asuyarger/Applications/G16/g16/l202.exe)
                          Input orientation:                          
 ---------------------------------------------------------------------
 Center     Atomic      Atomic             Coordinates (Angstroms)
 Number     Number       Type             X           Y           Z
 ---------------------------------------------------------------------
      1          6           0        0.761590    0.071836   -0.014615
      2          1           0        1.083130    0.644332   -0.870208
      3          9           0        1.181784    0.722020    1.091148
      4          9           0       -0.587825    0.096394    0.007492
      5          6           0        1.254095   -1.347613    0.000615
      6          1           0        0.896485   -1.871165   -0.877956
      7          1           0        2.337453   -1.361726    0.004451
      8          1           0        0.888603   -1.850324    0.887692
 ---------------------------------------------------------------------
                    Distance matrix (angstroms):
                    1          2          3          4          5
     1  C    0.000000
     2  H    1.078508   0.000000
     3  F    1.349820   1.965372   0.000000
     4  F    1.349820   1.965372   2.167311   0.000000
     5  C    1.502541   2.180690   2.340486   2.340486   0.000000
     6  H    2.130447   2.522424   3.268543   2.618870   1.083456
     7  H    2.130447   2.522424   2.618870   3.268543   1.083456
     8  H    2.127202   3.058000   2.596980   2.596980   1.083148
                    6          7          8
     6  H    0.000000
     7  H    1.764811   0.000000
     8  H    1.765789   1.765789   0.000000
 Stoichiometry    C2H4F2
 Framework group  CS[SG(C2H2),X(H2F2)]
 Deg. of freedom    11
 Full point group                 CS      NOp   2
 RotChk:  IX=2 Diff= 5.21D-15
 Largest Abelian subgroup         CS      NOp   2
 Largest concise Abelian subgroup CS      NOp   2
                         Standard orientation:                         
 ---------------------------------------------------------------------
 Center     Atomic      Atomic             Coordinates (Angstroms)
 Number     Number       Type             X           Y           Z
 ---------------------------------------------------------------------
      1          6           0        0.323600    0.161403   -0.000000
      2          1           0        1.254180    0.706564   -0.000000
      3          9           0        0.323600   -0.643399   -1.083655
      4          9           0        0.323600   -0.643399    1.083655
      5          6           0       -0.902378    1.030083    0.000000
      6          1           0       -0.908540    1.658733    0.882405
      7          1           0       -0.908540    1.658733   -0.882405
      8          1           0       -1.789233    0.408233    0.000000
 ---------------------------------------------------------------------
 Rotational constants (GHZ):           9.7097116           9.0487686           5.2544760
 Leave Link  202 at Tue Mar 31 17:51:14 2026, MaxMem=   536870912 cpu:               0.0 elap:               0.0
 (Enter /Users/asuyarger/Applications/G16/g16/l301.exe)
 Standard basis: 6-31+G(d) (6D, 7F)
 Ernie: Thresh=  0.10000D-02 Tol=  0.10000D-05 Strict=F.
 There are    53 symmetry adapted cartesian basis functions of A'  symmetry.
 There are    31 symmetry adapted cartesian basis functions of A"  symmetry.
 There are    53 symmetry adapted basis functions of A'  symmetry.
 There are    31 symmetry adapted basis functions of A"  symmetry.
    84 basis functions,   144 primitive gaussians,    84 cartesian basis functions
    17 alpha electrons       17 beta electrons
       nuclear repulsion energy       133.4372875033 Hartrees.
 IExCor=    0 DFT=F Ex=HF Corr=None ExCW=0 ScaHFX=  1.000000
 ScaDFX=  1.000000  1.000000  1.000000  1.000000 ScalE2=  1.000000  1.000000
 IRadAn=      5 IRanWt=     -1 IRanGd=            0 ICorTp=0 IEmpDi=  4
 NAtoms=    8 NActive=    8 NUniq=    6 SFac= 1.78D+00 NAtFMM=   60 NAOKFM=F Big=F
 Integral buffers will be    131072 words long.
 Raffenetti 1 integral format.
 Two-electron integral symmetry is turned on.
 Leave Link  301 at Tue Mar 31 17:51:14 2026, MaxMem=   536870912 cpu:               0.1 elap:               0.0
 (Enter /Users/asuyarger/Applications/G16/g16/l302.exe)
 NPDir=0 NMtPBC=     1 NCelOv=     1 NCel=       1 NClECP=     1 NCelD=      1
         NCelK=      1 NCelE2=     1 NClLst=     1 CellRange=     0.0.
 One-electron integrals computed using PRISM.
 One-electron integral symmetry used in STVInt
 NBasis=    84 RedAO= T EigKep=  2.48D-04  NBF=    53    31
 NBsUse=    84 1.00D-06 EigRej= -1.00D+00 NBFU=    53    31
 Leave Link  302 at Tue Mar 31 17:51:14 2026, MaxMem=   536870912 cpu:               0.3 elap:               0.1
 (Enter /Users/asuyarger/Applications/G16/g16/l303.exe)
 DipDrv:  MaxL=1.
 Leave Link  303 at Tue Mar 31 17:51:14 2026, MaxMem=   536870912 cpu:               0.1 elap:               0.0
 (Enter /Users/asuyarger/Applications/G16/g16/l401.exe)
 Initial guess from the checkpoint file:  "11Difluoroethane_Opt_Freq_HF_631pd_Gaussian16.chk"
 B after Tr=    -0.000000    0.000000    0.000000
         Rot=    1.000000   -0.000000    0.000000    0.000000 Ang=   0.00 deg.
 Guess basis will be translated and rotated to current coordinates.
 JPrj=2 DoOrth=T DoCkMO=T.
 Initial guess orbital symmetries:
       Occupied  (A") (A') (A') (A') (A') (A") (A') (A') (A') (A")
                 (A') (A") (A") (A') (A") (A') (A')
       Virtual   (A') (A') (A") (A') (A") (A') (A') (A') (A') (A")
                 (A') (A") (A") (A') (A') (A') (A") (A') (A') (A")
                 (A') (A') (A") (A') (A") (A') (A') (A') (A") (A')
                 (A") (A') (A') (A') (A') (A") (A') (A") (A') (A")
                 (A') (A') (A") (A') (A") (A') (A") (A") (A') (A")
                 (A') (A") (A') (A') (A") (A') (A") (A') (A") (A')
                 (A') (A") (A') (A') (A') (A") (A')
 The electronic state of the initial guess is 1-A'.
 Leave Link  401 at Tue Mar 31 17:51:14 2026, MaxMem=   536870912 cpu:               0.2 elap:               0.1
 (Enter /Users/asuyarger/Applications/G16/g16/l502.exe)
 Keep R1 ints in memory in symmetry-blocked form, NReq=9591280.
 FoFCou: FMM=F IPFlag=           0 FMFlag=           0 FMFlg1=           0
         NFxFlg=           0 DoJE=F BraDBF=F KetDBF=F FulRan=T
         wScrn=  0.000000 ICntrl=       600 IOpCl=  0 I1Cent=           0 NGrid=           0
         NMat0=    1 NMatS0=   3570 NMatT0=    0 NMatD0=    1 NMtDS0=    0 NMtDT0=    0
 Petite list used in FoFCou.
 Closed shell SCF:
 Using DIIS extrapolation, IDIIS=  1040.
 NGot=   536870912 LenX=   533638906 LenY=   533631409
 Requested convergence on RMS density matrix=1.00D-08 within 128 cycles.
 Requested convergence on MAX density matrix=1.00D-06.
 Requested convergence on             energy=1.00D-06.
 No special actions if energy rises.

 Cycle   1  Pass 1  IDiag  1:
 E= -276.957429117465    
 DIIS: error= 8.18D-09 at cycle   1 NSaved=   1.
 NSaved= 1 IEnMin= 1 EnMin= -276.957429117465     IErMin= 1 ErrMin= 8.18D-09
 ErrMax= 8.18D-09  0.00D+00 EMaxC= 1.00D-01 BMatC= 3.80D-15 BMatP= 3.80D-15
 IDIUse=1 WtCom= 1.00D+00 WtEn= 0.00D+00
 Coeff-Com:  0.100D+01
 Coeff:      0.100D+01
 Gap=     0.599 Goal=   None    Shift=    0.000
 RMSDP=1.42D-09 MaxDP=1.43D-08              OVMax= 2.58D-08

 SCF Done:  E(RHF) =  -276.957429117     A.U. after    1 cycles
            NFock=  1  Conv=0.14D-08     -V/T= 2.0021
 KE= 2.763689115280D+02 PE=-9.244297374498D+02 EE= 2.376661093011D+02
 Leave Link  502 at Tue Mar 31 17:51:15 2026, MaxMem=   536870912 cpu:               0.6 elap:               0.2
 (Enter /Users/asuyarger/Applications/G16/g16/l801.exe)
 Range of M.O.s used for correlation:     1    84
 NBasis=    84 NAE=    17 NBE=    17 NFC=     0 NFV=     0
 NROrb=     84 NOA=    17 NOB=    17 NVA=    67 NVB=    67

 **** Warning!!: The largest alpha MO coefficient is  0.33991439D+02

 Leave Link  801 at Tue Mar 31 17:51:15 2026, MaxMem=   536870912 cpu:               0.1 elap:               0.0
 (Enter /Users/asuyarger/Applications/G16/g16/l1002.exe)
 Minotr:  Closed shell wavefunction.
          Direct CPHF calculation.
          Differentiating once with respect to electric field.
                with respect to dipole field.
          Electric field/nuclear overlap derivatives assumed to be zero.
          Using symmetry in CPHF.
          Requested convergence is 1.0D-08 RMS, and 1.0D-07 maximum.
          Secondary convergence is 1.0D-12 RMS, and 1.0D-12 maximum.
          NewPWx=F KeepS1=T KeepF1=T KeepIn=T MapXYZ=F SortEE=F KeepMc=T.
 Keep R1 ints in memory in symmetry-blocked form, NReq=9592168.
 FoFCou: FMM=F IPFlag=           0 FMFlag=           0 FMFlg1=           0
         NFxFlg=           0 DoJE=F BraDBF=F KetDBF=F FulRan=T
         wScrn=  0.000000 ICntrl=       600 IOpCl=  0 I1Cent=           0 NGrid=           0
         NMat0=    1 NMatS0=   3570 NMatT0=    0 NMatD0=    1 NMtDS0=    0 NMtDT0=    0
 Petite list used in FoFCou.
          MDV=     536870912 using IRadAn=       1.
          Solving linear equations simultaneously, MaxMat=       0.
          There are     3 degrees of freedom in the 1st order CPHF.  IDoFFX=0 NUNeed=     3.
      3 vectors produced by pass  0 Test12= 3.80D-14 3.33D-08 XBig12= 5.00D+00 8.44D-01.
 AX will form     3 AO Fock derivatives at one time.
      3 vectors produced by pass  1 Test12= 3.80D-14 3.33D-08 XBig12= 2.76D-01 1.29D-01.
      3 vectors produced by pass  2 Test12= 3.80D-14 3.33D-08 XBig12= 3.36D-02 4.04D-02.
      3 vectors produced by pass  3 Test12= 3.80D-14 3.33D-08 XBig12= 1.65D-03 1.02D-02.
      3 vectors produced by pass  4 Test12= 3.80D-14 3.33D-08 XBig12= 5.22D-05 1.98D-03.
      3 vectors produced by pass  5 Test12= 3.80D-14 3.33D-08 XBig12= 4.21D-06 3.96D-04.
      3 vectors produced by pass  6 Test12= 3.80D-14 3.33D-08 XBig12= 1.43D-07 8.50D-05.
      3 vectors produced by pass  7 Test12= 3.80D-14 3.33D-08 XBig12= 3.47D-09 1.12D-05.
      3 vectors produced by pass  8 Test12= 3.80D-14 3.33D-08 XBig12= 6.78D-11 1.77D-06.
      2 vectors produced by pass  9 Test12= 3.80D-14 3.33D-08 XBig12= 7.17D-13 1.35D-07.
 InvSVY:  IOpt=1 It=  1 EMax= 4.44D-16
 Solved reduced A of dimension    29 with     3 vectors.
 End of Minotr F.D. properties file   721 does not exist.
 End of Minotr F.D. properties file   722 does not exist.
 End of Minotr F.D. properties file   788 does not exist.
 Leave Link 1002 at Tue Mar 31 17:51:15 2026, MaxMem=   536870912 cpu:               0.7 elap:               0.2
 (Enter /Users/asuyarger/Applications/G16/g16/l1101.exe)
 Using compressed storage, NAtomX=     8.
 Will process      9 centers per pass.
 Leave Link 1101 at Tue Mar 31 17:51:15 2026, MaxMem=   536870912 cpu:               0.3 elap:               0.1
 (Enter /Users/asuyarger/Applications/G16/g16/l1102.exe)
 Symmetrizing basis deriv contribution to polar:
 IMax=3 JMax=2 DiffMx= 0.00D+00
 Leave Link 1102 at Tue Mar 31 17:51:15 2026, MaxMem=   536870912 cpu:               0.1 elap:               0.0
 (Enter /Users/asuyarger/Applications/G16/g16/l1110.exe)
 Forming Gx(P) for the SCF density, NAtomX=     8.
 Integral derivatives from FoFJK, PRISM(SPDF).
 Do as many integral derivatives as possible in FoFJK.
 G2DrvN: MDV=     536870200.
 G2DrvN: will do     9 centers at a time, making    1 passes.
 PxScal for G2LodP:  IOpCl= 0 ISclPx=1 IMOff=     1 NMtTot=     4 NTT=    3570 ScalPx= 1.65D+00
 Calling FoFCou, ICntrl=  3107 FMM=F I1Cent=   0 AccDes= 0.00D+00.
 FoFJK:  IHMeth= 1 ICntrl=    3107 DoSepK=F KAlg= 0 I1Cent=           0 FoldK=F
 IRaf=         0 NMat=       1 IRICut=       1 DoRegI=T DoRafI=F ISym2E= 1 IDoP0=0 IntGTp=1.
 FoFCou: FMM=F IPFlag=           0 FMFlag=      100000 FMFlg1=           0
         NFxFlg=           0 DoJE=F BraDBF=F KetDBF=F FulRan=T
         wScrn=  0.000000 ICntrl=      3107 IOpCl=  0 I1Cent=           0 NGrid=           0
         NMat0=    1 NMatS0=      1 NMatT0=    0 NMatD0=    4 NMtDS0=    3 NMtDT0=    0
 Petite list used in FoFCou.
 End of G2Drv F.D. properties file   721 does not exist.
 End of G2Drv F.D. properties file   722 does not exist.
 End of G2Drv F.D. properties file   788 does not exist.
 Leave Link 1110 at Tue Mar 31 17:51:15 2026, MaxMem=   536870912 cpu:               0.9 elap:               0.2
 (Enter /Users/asuyarger/Applications/G16/g16/l1002.exe)
 Minotr:  Closed shell wavefunction.
          IDoAtm=11111111
          Direct CPHF calculation.
          Differentiating once with respect to electric field.
                with respect to dipole field.
          Differentiating once with respect to nuclear coordinates.
          Using symmetry in CPHF.
          Requested convergence is 1.0D-08 RMS, and 1.0D-07 maximum.
          Secondary convergence is 1.0D-12 RMS, and 1.0D-12 maximum.
          NewPWx=T KeepS1=F KeepF1=F KeepIn=T MapXYZ=F SortEE=F KeepMc=T.
 Keep R1 ints in memory in symmetry-blocked form, NReq=9592352.
 FoFCou: FMM=F IPFlag=           0 FMFlag=           0 FMFlg1=           0
         NFxFlg=           0 DoJE=F BraDBF=F KetDBF=F FulRan=T
         wScrn=  0.000000 ICntrl=       600 IOpCl=  0 I1Cent=           0 NGrid=           0
         NMat0=    1 NMatS0=   3570 NMatT0=    0 NMatD0=    1 NMtDS0=    0 NMtDT0=    0
 Petite list used in FoFCou.
          MDV=     536870912 using IRadAn=       1.
          Solving linear equations simultaneously, MaxMat=       0.
          There are    21 degrees of freedom in the 1st order CPHF.  IDoFFX=4 NUNeed=    21.
 Will reuse    3 saved solutions.
     18 vectors produced by pass  0 Test12= 5.42D-15 4.76D-09 XBig12= 5.88D-02 6.55D-02.
 AX will form    18 AO Fock derivatives at one time.
     18 vectors produced by pass  1 Test12= 5.42D-15 4.76D-09 XBig12= 2.38D-03 1.30D-02.
     18 vectors produced by pass  2 Test12= 5.42D-15 4.76D-09 XBig12= 2.58D-04 3.33D-03.
     18 vectors produced by pass  3 Test12= 5.42D-15 4.76D-09 XBig12= 4.14D-06 4.84D-04.
     18 vectors produced by pass  4 Test12= 5.42D-15 4.76D-09 XBig12= 4.93D-08 4.95D-05.
     18 vectors produced by pass  5 Test12= 5.42D-15 4.76D-09 XBig12= 3.61D-10 3.93D-06.
     16 vectors produced by pass  6 Test12= 5.42D-15 4.76D-09 XBig12= 2.54D-12 2.75D-07.
      2 vectors produced by pass  7 Test12= 5.42D-15 4.76D-09 XBig12= 1.52D-14 2.18D-08.
 InvSVY:  IOpt=1 It=  1 EMax= 1.11D-16
 Solved reduced A of dimension   126 with    21 vectors.
 FullF1:  Do perturbations      1 to      21.
 Isotropic polarizability for W=    0.000000       23.88 Bohr**3.
 FullF1:  Do perturbations      1 to       6.
 End of Minotr F.D. properties file   721 does not exist.
 End of Minotr F.D. properties file   722 does not exist.
 End of Minotr F.D. properties file   788 does not exist.
 Leave Link 1002 at Tue Mar 31 17:51:16 2026, MaxMem=   536870912 cpu:               1.2 elap:               0.3
 (Enter /Users/asuyarger/Applications/G16/g16/l601.exe)
 Copying SCF densities to generalized density rwf, IOpCl= 0 IROHF=0.

 **********************************************************************

            Population analysis using the SCF density.

 **********************************************************************

 Orbital symmetries:
       Occupied  (A") (A') (A') (A') (A') (A") (A') (A') (A') (A")
                 (A') (A") (A") (A') (A") (A') (A')
       Virtual   (A') (A') (A") (A') (A") (A') (A') (A') (A') (A")
                 (A') (A") (A") (A') (A') (A') (A") (A') (A') (A")
                 (A') (A') (A") (A') (A") (A') (A') (A') (A") (A')
                 (A") (A') (A') (A') (A') (A") (A') (A") (A') (A")
                 (A') (A') (A") (A') (A") (A') (A") (A") (A') (A")
                 (A') (A") (A') (A') (A") (A') (A") (A') (A") (A')
                 (A') (A") (A') (A') (A') (A") (A')
 The electronic state is 1-A'.
 Alpha  occ. eigenvalues --  -26.32008 -26.32006 -11.40810 -11.24125  -1.66687
 Alpha  occ. eigenvalues --   -1.60103  -1.05538  -0.90000  -0.78360  -0.76144
 Alpha  occ. eigenvalues --   -0.73230  -0.66632  -0.62827  -0.62046  -0.57428
 Alpha  occ. eigenvalues --   -0.56723  -0.51761
 Alpha virt. eigenvalues --    0.08110   0.08910   0.11007   0.11238   0.13389
 Alpha virt. eigenvalues --    0.13753   0.14034   0.20584   0.29557   0.29732
 Alpha virt. eigenvalues --    0.34896   0.35418   0.38667   0.39292   0.40290
 Alpha virt. eigenvalues --    0.42207   0.42730   0.43882   0.45008   0.45674
 Alpha virt. eigenvalues --    0.51087   0.53154   0.53875   0.82461   0.87850
 Alpha virt. eigenvalues --    0.88449   0.93750   0.99734   1.00192   1.19224
 Alpha virt. eigenvalues --    1.20833   1.23036   1.34582   1.39061   1.54637
 Alpha virt. eigenvalues --    1.60053   1.64961   1.86263   1.89816   1.90717
 Alpha virt. eigenvalues --    1.94609   1.95509   1.95659   2.06994   2.08550
 Alpha virt. eigenvalues --    2.08903   2.13717   2.16930   2.17114   2.25685
 Alpha virt. eigenvalues --    2.32642   2.40799   2.48683   2.51997   2.52925
 Alpha virt. eigenvalues --    2.58224   2.61224   2.79718   2.95370   2.98058
 Alpha virt. eigenvalues --    3.10541   3.48473   3.51076   4.65930   4.92659
 Alpha virt. eigenvalues --    5.66530   5.98273
          Condensed to atoms (all electrons):
               1          2          3          4          5          6
     1  C    4.397430   0.437247   0.125745   0.125745   0.366187  -0.043407
     2  H    0.437247   0.536152  -0.054849  -0.054849  -0.041780  -0.000873
     3  F    0.125745  -0.054849   9.413554  -0.027377  -0.069046   0.008813
     4  F    0.125745  -0.054849  -0.027377   9.413554  -0.069046  -0.005348
     5  C    0.366187  -0.041780  -0.069046  -0.069046   5.351137   0.396559
     6  H   -0.043407  -0.000873   0.008813  -0.005348   0.396559   0.474638
     7  H   -0.043407  -0.000873  -0.005348   0.008813   0.396559  -0.024089
     8  H   -0.017522   0.003140  -0.004397  -0.004397   0.383175  -0.021899
               7          8
     1  C   -0.043407  -0.017522
     2  H   -0.000873   0.003140
     3  F   -0.005348  -0.004397
     4  F    0.008813  -0.004397
     5  C    0.396559   0.383175
     6  H   -0.024089  -0.021899
     7  H    0.474638  -0.021899
     8  H   -0.021899   0.455744
 Mulliken charges:
               1
     1  C    0.651981
     2  H    0.176687
     3  F   -0.387095
     4  F   -0.387095
     5  C   -0.713745
     6  H    0.215606
     7  H    0.215606
     8  H    0.228055
 Sum of Mulliken charges =   0.00000
 Mulliken charges with hydrogens summed into heavy atoms:
               1
     1  C    0.828667
     3  F   -0.387095
     4  F   -0.387095
     5  C   -0.054477
 APT charges:
               1
     1  C    1.293812
     2  H   -0.070980
     3  F   -0.621643
     4  F   -0.621643
     5  C    0.016626
     6  H   -0.000020
     7  H   -0.000020
     8  H    0.003866
 Sum of APT charges =   0.00000
 APT charges with hydrogens summed into heavy atoms:
               1
     1  C    1.222832
     3  F   -0.621643
     4  F   -0.621643
     5  C    0.020453
 Electronic spatial extent (au):  <R**2>=            254.7284
 Charge=              0.0000 electrons
 Dipole moment (field-independent basis, Debye):
    X=             -0.3185    Y=              2.5096    Z=              0.0000  Tot=              2.5297
 Quadrupole moment (field-independent basis, Debye-Ang):
   XX=            -21.4605   YY=            -23.1423   ZZ=            -25.8580
   XY=              0.6643   XZ=             -0.0000   YZ=             -0.0000
 Traceless Quadrupole moment (field-independent basis, Debye-Ang):
   XX=              2.0264   YY=              0.3447   ZZ=             -2.3711
   XY=              0.6643   XZ=             -0.0000   YZ=             -0.0000
 Octapole moment (field-independent basis, Debye-Ang**2):
  XXX=              5.1291  YYY=             -7.2258  ZZZ=             -0.0000  XYY=              1.1361
  XXY=             -2.3890  XXZ=              0.0000  XZZ=              0.4463  YZZ=              0.1625
  YYZ=              0.0000  XYZ=             -0.0000
 Hexadecapole moment (field-independent basis, Debye-Ang**3):
 XXXX=            -77.9169 YYYY=           -104.6111 ZZZZ=            -98.6751 XXXY=             28.3326
 XXXZ=              0.0000 YYYX=             26.1021 YYYZ=             -0.0000 ZZZX=              0.0000
 ZZZY=             -0.0000 XXYY=            -31.1096 XXZZ=            -30.4404 YYZZ=            -31.9869
 XXYZ=             -0.0000 YYXZ=              0.0000 ZZXY=              8.7276
 N-N= 1.334372875033D+02 E-N=-9.244297370208D+02  KE= 2.763689115280D+02
 Symmetry A'   KE= 1.734949523229D+02
 Symmetry A"   KE= 1.028739592052D+02
  Exact polarizability:  23.648  -0.358  23.890  -0.000   0.000  24.091
 Approx polarizability:  19.506   0.674  20.028  -0.000   0.000  20.852
 No NMR shielding tensors so no spin-rotation constants.
 Leave Link  601 at Tue Mar 31 17:51:16 2026, MaxMem=   536870912 cpu:               0.3 elap:               0.1
 (Enter /Users/asuyarger/Applications/G16/g16/l701.exe)
 ... and contract with generalized density number  0.
 Compute integral second derivatives.
 Leave Link  701 at Tue Mar 31 17:51:16 2026, MaxMem=   536870912 cpu:               0.4 elap:               0.1
 (Enter /Users/asuyarger/Applications/G16/g16/l702.exe)
 L702 exits ... SP integral derivatives will be done elsewhere.
 Leave Link  702 at Tue Mar 31 17:51:16 2026, MaxMem=   536870912 cpu:               0.1 elap:               0.0
 (Enter /Users/asuyarger/Applications/G16/g16/l703.exe)
 Integral derivatives from FoFJK, PRISM(SPDF).
 Compute integral second derivatives, UseDBF=F ICtDFT=           0.
 Calling FoFJK, ICntrl=    100127 FMM=F ISym2X=1 I1Cent= 0 IOpClX= 0 NMat=1 NMatS=1 NMatT=0.
 FoFJK:  IHMeth= 1 ICntrl=  100127 DoSepK=F KAlg= 0 I1Cent=           0 FoldK=F
 IRaf=         0 NMat=       1 IRICut=       1 DoRegI=T DoRafI=F ISym2E= 1 IDoP0=0 IntGTp=1.
 FoFCou: FMM=F IPFlag=           0 FMFlag=      100000 FMFlg1=         800
         NFxFlg=           0 DoJE=F BraDBF=F KetDBF=F FulRan=T
         wScrn=  0.000000 ICntrl=    100127 IOpCl=  0 I1Cent=           0 NGrid=           0
         NMat0=    1 NMatS0=      1 NMatT0=    0 NMatD0=    1 NMtDS0=    0 NMtDT0=    0
 Petite list used in FoFCou.
 Leave Link  703 at Tue Mar 31 17:51:16 2026, MaxMem=   536870912 cpu:               1.6 elap:               0.4
 (Enter /Users/asuyarger/Applications/G16/g16/l716.exe)
 Dipole        =-1.25291198D-01 9.87353294D-01 1.17866002D-15
 Polarizability= 2.36483194D+01-3.58241306D-01 2.38902465D+01
                -3.45961072D-14 3.17673832D-14 2.40907603D+01
 HyperPolar    =-3.83171732D+00 2.01830847D+00-4.68304044D+00
                 2.22005198D+01 1.42645041D-13 8.14712325D-14
                 3.62445833D-14-6.64636711D+00 2.80402285D+01
                -4.71645663D-14
 Full mass-weighted force constant matrix:
 Low frequencies ---    0.0009    0.0012    0.0016    4.1712    7.9537   12.8680
 Low frequencies ---  252.6057  409.7947  502.2014
 Diagonal vibrational polarizability:
        2.5641850       4.1756760       5.4446066
 Diagonal vibrational hyperpolarizability:
       -2.0890106      14.4324989      -0.0000001
 Harmonic frequencies (cm**-1), IR intensities (KM/Mole), Raman scattering
 activities (A**4/AMU), depolarization ratios for plane and unpolarized
 incident light, reduced masses (AMU), force constants (mDyne/A),
 and normal coordinates:
                      1                      2                      3
                     A"                     A"                     A'
 Frequencies --    252.6049               409.7947               502.2014
 Red. masses --      1.0649                 3.1199                 4.4277
 Frc consts  --      0.0400                 0.3087                 0.6579
 IR Inten    --      0.0626                 0.0168                17.8290
 Raman Activ --      0.0030                 0.1704                 0.8733
 Depolar (P) --      0.7500                 0.7500                 0.5627
 Depolar (U) --      0.8571                 0.8571                 0.7202
  Atom  AN      X      Y      Z        X      Y      Z        X      Y      Z
     1   6     0.00   0.00   0.01    -0.00  -0.00  -0.14    -0.17   0.06  -0.00
     2   1     0.00  -0.00   0.04     0.00   0.00  -0.15    -0.29   0.26  -0.00
     3   9     0.03   0.03  -0.01     0.14  -0.13  -0.05     0.12  -0.13   0.17
     4   9    -0.03  -0.03  -0.01    -0.14   0.13  -0.05     0.12  -0.13  -0.17
     5   6     0.00  -0.00   0.01    -0.00   0.00   0.21    -0.15   0.24  -0.00
     6   1     0.28   0.41  -0.28     0.32  -0.27   0.41     0.07   0.27  -0.02
     7   1    -0.28  -0.41  -0.28    -0.32   0.27   0.41     0.07   0.27   0.02
     8   1     0.00  -0.00   0.59     0.00  -0.00   0.39    -0.38   0.56   0.00
                      4                      5                      6
                     A'                     A'                     A"
 Frequencies --    612.0609               941.1124              1057.9419
 Red. masses --      4.3060                 2.2404                 1.9638
 Frc consts  --      0.9504                 1.1691                 1.2950
 IR Inten    --      8.7359                13.3551                80.0082
 Raman Activ --      0.6364                 7.1248                 4.9162
 Depolar (P) --      0.4630                 0.2013                 0.7500
 Depolar (U) --      0.6329                 0.3351                 0.8571
  Atom  AN      X      Y      Z        X      Y      Z        X      Y      Z
     1   6     0.20   0.19  -0.00     0.13   0.05  -0.00     0.00   0.00   0.15
     2   1     0.28   0.06   0.00     0.30  -0.25  -0.00    -0.00   0.00  -0.00
     3   9    -0.09  -0.02   0.24     0.01  -0.07  -0.08     0.01  -0.07  -0.08
     4   9    -0.09  -0.02  -0.24     0.01  -0.07   0.08    -0.01   0.07  -0.08
     5   6     0.06  -0.08  -0.00    -0.11   0.20   0.00    -0.00  -0.00   0.16
     6   1    -0.29  -0.11   0.02    -0.54   0.15   0.03    -0.50   0.41  -0.14
     7   1    -0.29  -0.11  -0.02    -0.54   0.15  -0.03     0.50  -0.41  -0.14
     8   1     0.41  -0.58  -0.00     0.20  -0.27  -0.00    -0.00   0.00  -0.25
                      7                      8                      9
                     A'                     A'                     A"
 Frequencies --   1247.8214              1269.0598              1271.4657
 Red. masses --      2.4333                 2.6535                 2.6250
 Frc consts  --      2.2323                 2.5179                 2.5003
 IR Inten    --     78.3126                79.9935               178.8702
 Raman Activ --      5.2456                 2.0417                 2.5251
 Depolar (P) --      0.6772                 0.1719                 0.7500
 Depolar (U) --      0.8075                 0.2934                 0.8571
  Atom  AN      X      Y      Z        X      Y      Z        X      Y      Z
     1   6     0.21  -0.18  -0.00     0.17   0.25  -0.00     0.00   0.00   0.30
     2   1     0.36  -0.40  -0.00     0.01   0.56  -0.00     0.00   0.00   0.58
     3   9    -0.01   0.06   0.05    -0.04  -0.07  -0.07    -0.02  -0.06  -0.08
     4   9    -0.01   0.06  -0.05    -0.04  -0.07   0.07     0.02   0.06  -0.08
     5   6    -0.17  -0.03   0.00    -0.08  -0.11   0.00    -0.00  -0.00  -0.13
     6   1     0.04   0.11  -0.09     0.36   0.05  -0.10     0.32  -0.33   0.12
     7   1     0.04   0.11   0.09     0.36   0.05   0.10    -0.32   0.33   0.12
     8   1    -0.55   0.50  -0.00    -0.38   0.35  -0.00    -0.00   0.00   0.29
                     10                     11                     12
                     A'                     A"                     A'
 Frequencies --   1530.2047              1532.4299              1595.4397
 Red. masses --      1.2372                 1.1908                 1.4889
 Frc consts  --      1.7069                 1.6476                 2.2329
 IR Inten    --     11.1471                40.5306                68.9445
 Raman Activ --      0.8069                 6.1894                 1.5464
 Depolar (P) --      0.7329                 0.7500                 0.2016
 Depolar (U) --      0.8459                 0.8571                 0.3355
  Atom  AN      X      Y      Z        X      Y      Z        X      Y      Z
     1   6     0.06  -0.09   0.00     0.00  -0.00  -0.11     0.09  -0.11   0.00
     2   1    -0.35   0.62  -0.00    -0.00   0.00   0.96    -0.24   0.49   0.00
     3   9    -0.01   0.00  -0.00    -0.02  -0.01   0.00    -0.01   0.01   0.00
     4   9    -0.01   0.00   0.00     0.02   0.01   0.00    -0.01   0.01  -0.00
     5   6     0.09  -0.01  -0.00     0.00  -0.00   0.05    -0.10   0.12   0.00
     6   1    -0.42   0.09  -0.07     0.04   0.10  -0.03     0.29  -0.30   0.30
     7   1    -0.42   0.09   0.07    -0.04  -0.10  -0.03     0.29  -0.30  -0.30
     8   1    -0.12   0.28   0.00    -0.00   0.00  -0.20     0.20  -0.31  -0.00
                     13                     14                     15
                     A'                     A"                     A'
 Frequencies --   1623.1268              1624.5278              3227.6589
 Red. masses --      1.0687                 1.0562                 1.0361
 Frc consts  --      1.6589                 1.6423                 6.3594
 IR Inten    --      7.8649                 0.0966                 6.9377
 Raman Activ --     10.6656                 7.0163               121.6350
 Depolar (P) --      0.7437                 0.7500                 0.0175
 Depolar (U) --      0.8530                 0.8571                 0.0344
  Atom  AN      X      Y      Z        X      Y      Z        X      Y      Z
     1   6     0.01  -0.06   0.00     0.00  -0.00  -0.05    -0.00   0.00  -0.00
     2   1    -0.12   0.16  -0.00    -0.00   0.00   0.18    -0.02  -0.02   0.00
     3   9    -0.00   0.00   0.00    -0.00  -0.00   0.00     0.00  -0.00  -0.00
     4   9    -0.00   0.00  -0.00     0.00   0.00   0.00     0.00  -0.00   0.00
     5   6    -0.04  -0.02   0.00    -0.00   0.00  -0.05     0.04  -0.03  -0.00
     6   1     0.17   0.47  -0.34    -0.47  -0.13   0.05     0.00   0.34   0.48
     7   1     0.17   0.47   0.34     0.47   0.13   0.05     0.00   0.34  -0.48
     8   1     0.24  -0.40  -0.00     0.00  -0.00   0.69    -0.45  -0.33  -0.00
                     16                     17                     18
                     A"                     A'                     A'
 Frequencies --   3301.5832              3303.1446              3332.7459
 Red. masses --      1.1040                 1.1021                 1.0919
 Frc consts  --      7.0901                 7.0851                 7.1459
 IR Inten    --     19.7605                 2.7861                62.6487
 Raman Activ --     59.2122                97.4871                51.1878
 Depolar (P) --      0.7500                 0.6397                 0.0849
 Depolar (U) --      0.8571                 0.7803                 0.1565
  Atom  AN      X      Y      Z        X      Y      Z        X      Y      Z
     1   6    -0.00  -0.00  -0.00     0.03   0.01  -0.00    -0.07  -0.04   0.00
     2   1     0.00   0.00   0.00    -0.33  -0.19   0.00     0.80   0.46  -0.00
     3   9    -0.00   0.00   0.00    -0.00   0.00   0.00     0.00  -0.00  -0.00
     4   9     0.00  -0.00   0.00    -0.00   0.00  -0.00     0.00  -0.00   0.00
     5   6     0.00   0.00  -0.09    -0.05  -0.07  -0.00    -0.02  -0.03   0.00
     6   1    -0.00   0.41   0.57    -0.01   0.20   0.30    -0.01   0.09   0.13
     7   1     0.00  -0.41   0.57    -0.01   0.20  -0.30    -0.01   0.09  -0.13
     8   1    -0.00  -0.00  -0.02     0.63   0.44  -0.00     0.24   0.16   0.00

 -------------------
 - Thermochemistry -
 -------------------
 Temperature   298.150 Kelvin.  Pressure   1.00000 Atm.
 Atom     1 has atomic number  6 and mass  12.00000
 Atom     2 has atomic number  1 and mass   1.00783
 Atom     3 has atomic number  9 and mass  18.99840
 Atom     4 has atomic number  9 and mass  18.99840
 Atom     5 has atomic number  6 and mass  12.00000
 Atom     6 has atomic number  1 and mass   1.00783
 Atom     7 has atomic number  1 and mass   1.00783
 Atom     8 has atomic number  1 and mass   1.00783
 Molecular mass:    66.02811 amu.
 Principal axes and moments of inertia in atomic units:
                           1         2         3
     Eigenvalues --   185.86970 199.44606 343.46740
           X           -0.59242   0.00000   0.80563
           Y            0.80563  -0.00000   0.59242
           Z            0.00000   1.00000   0.00000
 This molecule is an asymmetric top.
 Rotational symmetry number  1.
 Rotational temperatures (Kelvin)      0.46599     0.43427     0.25218
 Rotational constants (GHZ):           9.70971     9.04877     5.25448
 Zero-point vibrational energy     171274.9 (Joules/Mol)
                                   40.93568 (Kcal/Mol)
 Warning -- explicit consideration of   4 degrees of freedom as
           vibrations may cause significant error
 Vibrational temperatures:    363.44   589.60   722.56   880.62  1354.05
          (Kelvin)           1522.14  1795.34  1825.89  1829.36  2201.62
                             2204.82  2295.48  2335.32  2337.33  4643.88
                             4750.24  4752.49  4795.08
 
 Zero-point correction=                           0.065235 (Hartree/Particle)
 Thermal correction to Energy=                    0.069359
 Thermal correction to Enthalpy=                  0.070303
 Thermal correction to Gibbs Free Energy=         0.038664
 Sum of electronic and zero-point Energies=           -276.892194
 Sum of electronic and thermal Energies=              -276.888070
 Sum of electronic and thermal Enthalpies=            -276.887126
 Sum of electronic and thermal Free Energies=         -276.918766
 
                     E (Thermal)             CV                S
                      KCal/Mol        Cal/Mol-Kelvin    Cal/Mol-Kelvin
 Total                   43.523             12.971             66.591
 Electronic               0.000              0.000              0.000
 Translational            0.889              2.981             38.481
 Rotational               0.889              2.981             24.058
 Vibrational             41.746              7.010              4.052
 Vibration     1          0.664              1.758              1.712
 Vibration     2          0.774              1.449              0.927
 Vibration     3          0.858              1.245              0.653
 Vibration     4          0.971              1.006              0.429
                       Q            Log10(Q)             Ln(Q)
 Total Bot       0.164438D-17        -17.783997        -40.949166
 Total V=0       0.166750D+13         12.222066         28.142348
 Vib (Bot)       0.193041D-29        -29.714349        -68.419818
 Vib (Bot)    1  0.771678D+00         -0.112564         -0.259188
 Vib (Bot)    2  0.431799D+00         -0.364718         -0.839794
 Vib (Bot)    3  0.326625D+00         -0.485951         -1.118943
 Vib (Bot)    4  0.240931D+00         -0.618108         -1.423245
 Vib (V=0)       0.195755D+01          0.291714          0.671696
 Vib (V=0)    1  0.141950D+01          0.152136          0.350307
 Vib (V=0)    2  0.116064D+01          0.064699          0.148975
 Vib (V=0)    3  0.109723D+01          0.040298          0.092789
 Vib (V=0)    4  0.105502D+01          0.023261          0.053560
 Electronic      0.100000D+01          0.000000          0.000000
 Translational   0.210886D+08          7.324047         16.864242
 Rotational      0.403929D+05          4.606305         10.606410
 
                                                      R152a - 1,1-difluoroethane
                                                             IR Spectrum
 
     333  3                                                           11111        111      1                                        
     333  2                                                           66555        222      0    9           6   5   4     2         
     300  2                                                           22933        764      5    4           1   0   1     5         
     332  8                                                           53520        198      8    1           2   2   0     3         
 
     XXX  X                                                           XXXXX        XXX      X    X           X   X         X         
     X X                                                                XX         XXX      X                    X                   
     X                                                                  XX         XXX      X                                        
     X                                                                  XX         XXX      X                                        
     X                                                                  XX         XXX      X                                        
     X                                                                  X          XXX      X                                        
     X                                                                  X          XXX      X                                        
                                                                        X          XXX      X                                        
                                                                                   XXX      X                                        
                                                                                   X                                                 
                                                                                   X                                                 
                                                                                   X                                                 
                                                                                   X                                                 
                                                                                   X                                                 
                                                                                   X                                                 
                                                                                   X                                                 
                                                                                   X                                                 
                                                                                   X                                                 
                                                                                   X                                                 
                                                                                   X                                                 
 
 
                                                      R152a - 1,1-difluoroethane
                                                            Raman Spectrum
 
     333  3                                                           11111        111      1                                        
     333  2                                                           66555        222      0    9           6   5   4     2         
     300  2                                                           22933        764      5    4           1   0   1     5         
     332  8                                                           53520        198      8    1           2   2   0     3         
 
     XXX  X                                                           XXXXX        XXX      X    X           X   X   X               
     XXX  X                                                            X                                                             
     XXX  X                                                                                                                          
     XXX  X                                                                                                                          
     XXX  X                                                                                                                          
     XXX  X                                                                                                                          
     XXX  X                                                                                                                          
     XXX  X                                                                                                                          
      XX  X                                                                                                                          
      XX  X                                                                                                                          
      X   X                                                                                                                          
      X   X                                                                                                                          
      X   X                                                                                                                          
      X   X                                                                                                                          
      X   X                                                                                                                          
      X   X                                                                                                                          
          X                                                                                                                          
          X                                                                                                                          
          X                                                                                                                          
          X                                                                                                                          
 
 ***** Axes restored to original set *****
 -------------------------------------------------------------------
 Center     Atomic                   Forces (Hartrees/Bohr)
 Number     Number              X              Y              Z
 -------------------------------------------------------------------
      1        6           0.000069191   -0.000467199    0.000156739
      2        1          -0.000127674    0.000050050    0.000179597
      3        9           0.000077989    0.000103256   -0.000122089
      4        9           0.000025015    0.000084528   -0.000154529
      5        6          -0.000002030    0.000067199   -0.000035481
      6        1          -0.000038401    0.000030165   -0.000046202
      7        1           0.000036305    0.000056577   -0.000000455
      8        1          -0.000040395    0.000075423    0.000022420
 -------------------------------------------------------------------
 Cartesian Forces:  Max     0.000467199 RMS     0.000126595
 Force constants in Cartesian coordinates: 
                1             2             3             4             5 
      1  0.594271D+00
      2 -0.455967D-03  0.681201D+00
      3 -0.666216D-01 -0.730891D-01  0.704303D+00
      4 -0.837715D-01 -0.385114D-01  0.643845D-01  0.106418D+00
      5 -0.455141D-01 -0.170798D+00  0.139470D+00  0.513828D-01  0.165133D+00
      6  0.684273D-01  0.128034D+00 -0.243619D+00 -0.718858D-01 -0.132733D+00
      7 -0.868343D-01 -0.256043D-01 -0.420886D-01  0.883902D-02  0.215098D-02
      8 -0.181457D-01 -0.145523D+00 -0.901659D-01  0.193303D-02  0.133199D-01
      9 -0.309463D-01 -0.917995D-01 -0.261882D+00 -0.180274D-01 -0.305755D-01
     10 -0.313365D+00  0.191098D-01  0.400284D-01 -0.417234D-01 -0.621929D-03
     11  0.108302D-01 -0.911563D-01  0.565292D-02 -0.239402D-01  0.951219D-02
     12  0.293599D-01  0.594593D-02 -0.897183D-01  0.347293D-01 -0.267530D-02
     13 -0.104167D+00  0.398497D-01  0.643646D-02  0.964227D-02 -0.104521D-01
     14  0.509492D-01 -0.251960D+00  0.125345D-01  0.732546D-02 -0.128434D-01
     15  0.283783D-04  0.306600D-01 -0.103884D+00 -0.981481D-02  0.280752D-01
     16  0.244260D-02  0.450723D-02  0.116719D-01  0.962831D-04 -0.603959D-03
     17 -0.170296D-01 -0.920706D-02 -0.323429D-01  0.235396D-04  0.100582D-02
     18 -0.818396D-03  0.250555D-02 -0.871094D-03  0.595459D-03 -0.835740D-03
     19 -0.128530D-01 -0.653859D-02 -0.630582D-03  0.765460D-03  0.867354D-03
     20  0.362891D-01  0.764984D-02 -0.730099D-03 -0.156217D-02  0.881738D-03
     21 -0.432163D-03 -0.810599D-03 -0.243244D-02  0.265153D-04 -0.280770D-03
     22  0.427650D-02  0.764358D-02 -0.131803D-01 -0.266344D-03  0.279104D-02
     23 -0.169232D-01 -0.202070D-01  0.386709D-01  0.334895D-02 -0.621072D-02
     24  0.100281D-02 -0.144656D-02 -0.189486D-02 -0.766661D-05 -0.445056D-03
                6             7             8             9            10 
      6  0.274583D+00
      7 -0.976452D-03  0.112747D+00
      8  0.414496D-02  0.509533D-01  0.156488D+00
      9 -0.464423D-01  0.930848D-01  0.148483D+00  0.319468D+00
     10  0.409020D-02 -0.449660D-01 -0.209305D-01 -0.373835D-01  0.441265D+00
     11  0.103885D-02 -0.306805D-01  0.566270D-02 -0.855812D-02 -0.733444D-02
     12  0.792780D-02 -0.546674D-01 -0.869805D-02 -0.213313D-02 -0.738470D-02
     13  0.448707D-03  0.709384D-02 -0.166615D-01 -0.882921D-02 -0.425041D-01
     14 -0.955550D-03  0.271901D-02 -0.247808D-01 -0.126233D-01  0.156568D-02
     15  0.604074D-02  0.531383D-02 -0.541272D-01 -0.134197D-01  0.896508D-03
     16 -0.253489D-03  0.103669D-02  0.437284D-02  0.153039D-02  0.638519D-03
     17  0.145539D-02  0.196697D-02 -0.110807D-01 -0.372164D-02  0.608614D-04
     18  0.436330D-03 -0.400084D-03  0.215725D-03  0.241837D-02  0.155021D-02
     19 -0.164900D-03  0.238854D-02  0.133817D-03  0.793624D-03 -0.780304D-03
     20  0.370796D-03 -0.173970D-02  0.163970D-02  0.618181D-03  0.862319D-02
     21 -0.108763D-03 -0.443042D-04 -0.100679D-03 -0.213048D-03 -0.181654D-03
     22  0.314434D-03 -0.304831D-03 -0.165535D-02 -0.222356D-03  0.143497D-02
     23 -0.135613D-02  0.234163D-03  0.427362D-02 -0.182313D-02 -0.472679D-03
     24  0.118241D-02 -0.221712D-03  0.248270D-03  0.220428D-02 -0.161544D-02
               11            12            13            14            15 
     11  0.742126D-01
     12  0.614605D-02  0.732255D-01
     13  0.492266D-01 -0.128752D-02  0.664822D+00
     14  0.430474D-02  0.745722D-04  0.248454D-01  0.599397D+00
     15 -0.460320D-02  0.709266D-02  0.634307D-03  0.249478D-02  0.671518D+00
     16 -0.530829D-03 -0.277613D-04 -0.906650D-01 -0.471147D-01 -0.804830D-01
     17  0.226003D-02  0.180927D-02 -0.429511D-01 -0.129488D+00 -0.110760D+00
     18  0.434908D-03  0.916642D-03 -0.783669D-01 -0.115508D+00 -0.252049D+00
     19  0.364814D-02 -0.628866D-03 -0.351358D+00  0.637313D-02 -0.412831D-03
     20 -0.875655D-02 -0.155728D-04 -0.196301D-03 -0.628781D-01  0.169392D-03
     21  0.242539D-03  0.191123D-02 -0.113989D-02  0.988644D-03 -0.579659D-01
     22 -0.121903D-02 -0.930276D-04 -0.928645D-01 -0.466632D-01  0.838376D-01
     23  0.396052D-02 -0.258691D-02 -0.436605D-01 -0.121752D+00  0.108091D+00
     24 -0.353941D-03  0.777584D-03  0.821040D-01  0.112994D+00 -0.257333D+00
               16            17            18            19            20 
     16  0.908281D-01
     17  0.502504D-01  0.134734D+00
     18  0.880557D-01  0.126574D+00  0.269004D+00
     19 -0.913842D-02 -0.597007D-04 -0.130555D-04  0.380528D+00
     20 -0.190683D-01  0.925135D-03  0.203115D-02 -0.458116D-02  0.597539D-01
     21 -0.309604D-01  0.273032D-02  0.191208D-02  0.143864D-02 -0.345516D-03
     22  0.476121D-02  0.773867D-02 -0.106030D-01 -0.955276D-02 -0.177647D-01
     23  0.818727D-02  0.108507D-01 -0.154174D-01  0.157015D-03  0.784345D-03
     24  0.104667D-01  0.142557D-01 -0.217666D-01 -0.382024D-03 -0.209833D-02
               21            22            23            24 
     21  0.542832D-01
     22  0.312933D-01  0.925157D-01
     23 -0.242394D-02  0.491289D-01  0.128300D+00
     24  0.261367D-02 -0.913467D-01 -0.123154D+00  0.274216D+00
 FormGI is forming the generalized inverse of G from B-inverse, IUseBI=4.
 Force constants in internal coordinates: 
                1             2             3             4             5 
      1  0.390853D+00
      2  0.159996D-01  0.441557D+00
      3  0.159996D-01  0.540598D-01  0.441557D+00
      4  0.534936D-02  0.230068D-01  0.230068D-01  0.345546D+00
      5  0.822968D-03  0.951202D-03  0.144733D-02  0.181421D-02  0.380599D+00
      6  0.822970D-03  0.144733D-02  0.951202D-03  0.181421D-02  0.302673D-02
      7 -0.785139D-03  0.158674D-02  0.158674D-02  0.280148D-02  0.276066D-02
      8  0.236350D-02  0.184453D-01  0.580826D-02 -0.168881D-01 -0.283481D-02
      9  0.236350D-02  0.580826D-02  0.184453D-01 -0.168881D-01  0.268578D-03
     10  0.443188D-02 -0.306487D-01 -0.306487D-01  0.104794D-01 -0.908685D-03
     11  0.247642D-02  0.156050D-01  0.156050D-01 -0.177538D-01 -0.770943D-03
     12 -0.568546D-02  0.201058D-01 -0.257303D-01  0.188088D-01  0.756647D-02
     13 -0.568545D-02 -0.257303D-01  0.201058D-01  0.188088D-01 -0.346330D-02
     14 -0.133548D-03  0.139236D-01 -0.303921D-02  0.118765D-01  0.489015D-02
     15 -0.133549D-03 -0.303921D-02  0.139236D-01  0.118765D-01 -0.636002D-02
     16  0.275128D-02 -0.437960D-02 -0.437960D-02  0.151822D-01 -0.668799D-02
     17 -0.289073D-03 -0.423799D-02 -0.423799D-02 -0.129981D-01  0.394750D-02
     18 -0.111320D-02 -0.373149D-02  0.138935D-02 -0.132057D-01  0.396456D-02
     19 -0.111320D-02  0.138935D-02 -0.373149D-02 -0.132057D-01  0.341917D-03
     20  0.262056D-03  0.167443D-01 -0.183328D-01  0.580620D-03  0.122309D-02
     21 -0.262057D-03  0.183328D-01 -0.167443D-01 -0.580619D-03  0.517429D-02
     22  0.000000D+00  0.154254D-01 -0.154254D-01  0.000000D+00 -0.252427D-02
     23 -0.166570D-02 -0.841204D-03  0.149696D-01  0.109905D-02 -0.124798D-03
     24 -0.218981D-02  0.747245D-03  0.165581D-01 -0.621863D-04  0.382640D-02
     25 -0.192776D-02 -0.216013D-02  0.178770D-01  0.518433D-03 -0.387216D-02
     26  0.218981D-02 -0.165581D-01 -0.747246D-03  0.621863D-04 -0.166639D-02
     27  0.166570D-02 -0.149696D-01  0.841204D-03 -0.109905D-02  0.228480D-02
     28  0.192776D-02 -0.178770D-01  0.216013D-02 -0.518433D-03 -0.541375D-02
                6             7             8             9            10 
      6  0.380599D+00
      7  0.276066D-02  0.381595D+00
      8  0.268579D-03  0.421375D-03  0.967839D-01
      9 -0.283481D-02  0.421375D-03  0.243066D-01  0.967839D-01
     10 -0.908686D-03  0.555243D-02 -0.515183D-01 -0.515183D-01  0.128454D+00
     11 -0.770943D-03  0.106255D-02  0.316420D-01  0.316420D-01  0.106848D-01
     12 -0.346330D-02 -0.376216D-02 -0.923364D-01  0.841890D-03 -0.219110D-01
     13  0.756647D-02 -0.376216D-02  0.841891D-03 -0.923364D-01 -0.219110D-01
     14 -0.636002D-02 -0.605882D-02 -0.813627D-02  0.477769D-02 -0.967915D-02
     15  0.489015D-02 -0.605881D-02  0.477769D-02 -0.813627D-02 -0.967915D-02
     16 -0.668799D-02  0.388691D-02 -0.310142D-03 -0.310142D-03  0.233266D-01
     17  0.394750D-02  0.255321D-03  0.176464D-02  0.176464D-02  0.532784D-02
     18  0.341917D-03  0.404112D-02  0.282684D-02 -0.879179D-03 -0.467862D-02
     19  0.396456D-02  0.404112D-02 -0.879179D-03  0.282684D-02 -0.467862D-02
     20 -0.517429D-02  0.363825D-02  0.746976D-02 -0.754358D-02  0.277609D-02
     21 -0.122309D-02 -0.363826D-02  0.754358D-02 -0.746976D-02 -0.277609D-02
     22  0.252427D-02  0.000000D+00  0.923397D-02 -0.923397D-02  0.000000D+00
     23 -0.228480D-02  0.200958D-02 -0.131101D-01 -0.362791D-02 -0.395404D-02
     24  0.166639D-02 -0.526693D-02 -0.130363D-01 -0.355410D-02 -0.950621D-02
     25  0.541375D-02 -0.162868D-02 -0.113459D-01 -0.531830D-02 -0.673013D-02
     26 -0.382640D-02  0.526693D-02  0.355410D-02  0.130363D-01  0.950621D-02
     27  0.124798D-03 -0.200958D-02  0.362791D-02  0.131101D-01  0.395404D-02
     28  0.387216D-02  0.162868D-02  0.531830D-02  0.113459D-01  0.673013D-02
               11            12            13            14            15 
     11  0.125635D+00
     12 -0.926703D-01  0.201677D+00
     13 -0.926703D-01 -0.737853D-02  0.201677D+00
     14 -0.582757D-02  0.293302D-01 -0.108080D-01  0.120629D+00
     15 -0.582757D-02 -0.108080D-01  0.293302D-01 -0.204877D-01  0.120629D+00
     16  0.780184D-02 -0.153146D-01 -0.153146D-01 -0.210254D-01 -0.210254D-01
     17  0.360945D-02 -0.608626D-02 -0.608626D-02 -0.466691D-01 -0.466691D-01
     18  0.143272D-03 -0.475620D-02  0.760535D-02 -0.462910D-01  0.129205D-01
     19  0.143272D-03  0.760535D-02 -0.475620D-02  0.129205D-01 -0.462910D-01
     20  0.142352D-02  0.113112D-01 -0.154035D-01  0.402310D-02 -0.916174D-02
     21 -0.142352D-02  0.154035D-01 -0.113112D-01  0.916173D-02 -0.402310D-02
     22  0.000000D+00  0.850763D-02 -0.850764D-02 -0.760559D-03  0.760559D-03
     23  0.222550D-01 -0.437314D-02  0.444734D-02 -0.589972D-03 -0.466728D-03
     24  0.194080D-01 -0.280854D-03  0.853963D-02  0.454867D-02  0.467191D-02
     25  0.208315D-01 -0.717675D-02  0.113432D-01 -0.537363D-02  0.945557D-02
     26 -0.194080D-01 -0.853963D-02  0.280855D-03 -0.467191D-02 -0.454867D-02
     27 -0.222550D-01 -0.444734D-02  0.437314D-02  0.466728D-03  0.589972D-03
     28 -0.208315D-01 -0.113432D-01  0.717675D-02 -0.945557D-02  0.537363D-02
               16            17            18            19            20 
     16  0.120184D+00
     17  0.131664D-01  0.583872D-01
     18 -0.461656D-01  0.113468D-01  0.579594D-01
     19 -0.461656D-01  0.113468D-01  0.112319D-01  0.579594D-01
     20  0.504722D-02 -0.679326D-02  0.555750D-02  0.134463D-02  0.214277D-01
     21 -0.504722D-02  0.679326D-02 -0.134463D-02 -0.555750D-02  0.982405D-02
     22  0.000000D+00  0.000000D+00 -0.828136D-02  0.828136D-02  0.893893D-02
     23  0.547766D-03 -0.826958D-02  0.873454D-02  0.697101D-04  0.124653D-02
     24 -0.954667D-02  0.531693D-02  0.183242D-02 -0.683242D-02 -0.103571D-01
     25 -0.449945D-02 -0.147633D-02 -0.510432D-02  0.700644D-02 -0.112423D-01
     26  0.954667D-02 -0.531693D-02  0.683242D-02 -0.183242D-02  0.198174D-02
     27 -0.547767D-03  0.826958D-02 -0.697099D-04 -0.873454D-02 -0.962193D-02
     28  0.449945D-02  0.147633D-02 -0.700644D-02  0.510432D-02 -0.105070D-01
               21            22            23            24            25 
     21  0.214277D-01
     22  0.893893D-02  0.196086D-01
     23 -0.962193D-02 -0.948428D-02  0.243975D-01
     24  0.198174D-02 -0.948428D-02  0.135291D-01  0.258680D-01
     25 -0.105070D-01  0.118542D-02  0.136667D-01  0.144019D-01  0.260944D-01
     26 -0.103571D-01 -0.948428D-02 -0.292285D-02 -0.152617D-01 -0.143889D-01
     27  0.124653D-02 -0.948428D-02 -0.137913D-01 -0.292285D-02 -0.136537D-01
     28 -0.112423D-01  0.118542D-02 -0.136537D-01 -0.143889D-01 -0.196118D-02
               26            27            28 
     26  0.258680D-01
     27  0.135291D-01  0.243975D-01
     28  0.144019D-01  0.136667D-01  0.260944D-01
 Leave Link  716 at Tue Mar 31 17:51:16 2026, MaxMem=   536870912 cpu:               0.1 elap:               0.0
 (Enter /Users/asuyarger/Applications/G16/g16/l103.exe)

 GradGradGradGradGradGradGradGradGradGradGradGradGradGradGradGradGradGrad
 Berny optimization.
 Red2BG is reusing G-inverse.
 Internal  Forces:  Max     0.000231879 RMS     0.000096319
 Search for a local minimum.
 Step number   1 out of a maximum of    2
 All quantities printed in internal units (Hartrees-Bohrs-Radians)
 Second derivative matrix not updated -- analytic derivatives used.
 ITU=  0
     Eigenvalues ---    0.00286   0.05131   0.05141   0.07041   0.11084
     Eigenvalues ---    0.15249   0.15341   0.15766   0.19535   0.26115
     Eigenvalues ---    0.30470   0.37806   0.37914   0.38578   0.38746
     Eigenvalues ---    0.39163   0.41319   0.51739
 Angle between quadratic step and forces=  21.79 degrees.
 Linear search not attempted -- first point.
 Iteration  1 RMS(Cart)=  0.00044717 RMS(Int)=  0.00000021
 Iteration  2 RMS(Cart)=  0.00000020 RMS(Int)=  0.00000010
 ITry= 1 IFail=0 DXMaxC= 1.12D-03 DCOld= 1.00D+10 DXMaxT= 3.00D-01 DXLimC= 3.00D+00 Rises=F
 ClnCor:  largest displacement from symmetrization is 4.97D-11 for atom     4.
 Variable       Old X    -DE/DX   Delta X   Delta X   Delta X     New X
                                 (Linear)    (Quad)   (Total)
    R1        2.03808  -0.00015   0.00000  -0.00035  -0.00035   2.03773
    R2        2.55079  -0.00003   0.00000   0.00003   0.00003   2.55082
    R3        2.55079  -0.00003   0.00000   0.00003   0.00003   2.55082
    R4        2.83939  -0.00023   0.00000  -0.00072  -0.00072   2.83867
    R5        2.04744   0.00004   0.00000   0.00006   0.00006   2.04750
    R6        2.04744   0.00004   0.00000   0.00006   0.00006   2.04750
    R7        2.04685  -0.00000   0.00000   0.00000   0.00000   2.04685
    A1        1.87694  -0.00019   0.00000  -0.00101  -0.00101   1.87593
    A2        1.87694  -0.00019   0.00000  -0.00101  -0.00101   1.87593
    A3        1.99521   0.00013   0.00000   0.00064   0.00064   1.99585
    A4        1.86400   0.00000   0.00000   0.00047   0.00046   1.86447
    A5        1.92272   0.00011   0.00000   0.00043   0.00043   1.92315
    A6        1.92272   0.00011   0.00000   0.00043   0.00043   1.92315
    A7        1.91781  -0.00005   0.00000  -0.00031  -0.00031   1.91750
    A8        1.91781  -0.00005   0.00000  -0.00031  -0.00031   1.91750
    A9        1.91362  -0.00011   0.00000  -0.00054  -0.00054   1.91308
   A10        1.90351   0.00006   0.00000   0.00041   0.00041   1.90392
   A11        1.90547   0.00007   0.00000   0.00038   0.00038   1.90585
   A12        1.90547   0.00007   0.00000   0.00038   0.00038   1.90585
    D1       -1.04727  -0.00000   0.00000  -0.00006  -0.00006  -1.04732
    D2        1.04727   0.00000   0.00000   0.00006   0.00006   1.04732
    D3        3.14159   0.00000   0.00000  -0.00000   0.00000  -3.14159
    D4        3.12032   0.00007   0.00000   0.00048   0.00048   3.12081
    D5       -1.06833   0.00008   0.00000   0.00060   0.00060  -1.06773
    D6        1.02600   0.00007   0.00000   0.00054   0.00054   1.02654
    D7        1.06833  -0.00008   0.00000  -0.00060  -0.00060   1.06773
    D8       -3.12032  -0.00007   0.00000  -0.00048  -0.00048  -3.12081
    D9       -1.02600  -0.00007   0.00000  -0.00054  -0.00054  -1.02654
         Item               Value     Threshold  Converged?
 Maximum Force            0.000232     0.000450     YES
 RMS     Force            0.000096     0.000300     YES
 Maximum Displacement     0.001122     0.001800     YES
 RMS     Displacement     0.000447     0.001200     YES
 Predicted change in Energy=-5.985686D-07
 Optimization completed.
    -- Stationary point found.
                           ----------------------------
                           !   Optimized Parameters   !
                           ! (Angstroms and Degrees)  !
 --------------------------                            --------------------------
 ! Name  Definition              Value          Derivative Info.                !
 --------------------------------------------------------------------------------
 ! R1    R(1,2)                  1.0785         -DE/DX =   -0.0002              !
 ! R2    R(1,3)                  1.3498         -DE/DX =    0.0                 !
 ! R3    R(1,4)                  1.3498         -DE/DX =    0.0                 !
 ! R4    R(1,5)                  1.5025         -DE/DX =   -0.0002              !
 ! R5    R(5,6)                  1.0835         -DE/DX =    0.0                 !
 ! R6    R(5,7)                  1.0835         -DE/DX =    0.0                 !
 ! R7    R(5,8)                  1.0831         -DE/DX =    0.0                 !
 ! A1    A(2,1,3)              107.5405         -DE/DX =   -0.0002              !
 ! A2    A(2,1,4)              107.5405         -DE/DX =   -0.0002              !
 ! A3    A(2,1,5)              114.3171         -DE/DX =    0.0001              !
 ! A4    A(3,1,4)              106.7994         -DE/DX =    0.0                 !
 ! A5    A(3,1,5)              110.1637         -DE/DX =    0.0001              !
 ! A6    A(4,1,5)              110.1637         -DE/DX =    0.0001              !
 ! A7    A(1,5,6)              109.8825         -DE/DX =    0.0                 !
 ! A8    A(1,5,7)              109.8825         -DE/DX =    0.0                 !
 ! A9    A(1,5,8)              109.6425         -DE/DX =   -0.0001              !
 ! A10   A(6,5,7)              109.0632         -DE/DX =    0.0001              !
 ! A11   A(6,5,8)              109.1753         -DE/DX =    0.0001              !
 ! A12   A(7,5,8)              109.1753         -DE/DX =    0.0001              !
 ! D1    D(2,1,5,6)            -60.0039         -DE/DX =    0.0                 !
 ! D2    D(2,1,5,7)             60.0039         -DE/DX =    0.0                 !
 ! D3    D(2,1,5,8)           -180.0            -DE/DX =    0.0                 !
 ! D4    D(3,1,5,6)            178.7813         -DE/DX =    0.0001              !
 ! D5    D(3,1,5,7)            -61.2109         -DE/DX =    0.0001              !
 ! D6    D(3,1,5,8)             58.7852         -DE/DX =    0.0001              !
 ! D7    D(4,1,5,6)             61.2109         -DE/DX =   -0.0001              !
 ! D8    D(4,1,5,7)           -178.7813         -DE/DX =   -0.0001              !
 ! D9    D(4,1,5,8)            -58.7852         -DE/DX =   -0.0001              !
 --------------------------------------------------------------------------------
 GradGradGradGradGradGradGradGradGradGradGradGradGradGradGradGradGradGrad

 Leave Link  103 at Tue Mar 31 17:51:17 2026, MaxMem=   536870912 cpu:               0.0 elap:               0.0
 (Enter /Users/asuyarger/Applications/G16/g16/l9999.exe)

 ----------------------------------------------------------------------

 Electric dipole moment (input orientation):
 (Debye = 10**-18 statcoulomb cm , SI units = C m)
                  (au)            (Debye)         (10**-30 SI)
   Tot        0.995271D+00      0.252973D+01      0.843826D+01
   x          0.569080D+00      0.144646D+01      0.482486D+01
   y         -0.521745D+00     -0.132614D+01     -0.442354D+01
   z         -0.628088D+00     -0.159644D+01     -0.532515D+01

 Dipole polarizability, Alpha (input orientation).
 (esu units = cm**3 , SI units = C**2 m**2 J**-1)
 Alpha(0;0):
               (au)            (10**-24 esu)      (10**-40 SI)
   iso        0.238764D+02      0.353812D+01      0.393669D+01
   aniso      0.729558D+00      0.108109D+00      0.120288D+00
   xx         0.240209D+02      0.355953D+01      0.396051D+01
   yx        -0.131186D+00     -0.194397D-01     -0.216296D-01
   yy         0.239862D+02      0.355439D+01      0.395480D+01
   zx         0.189853D+00      0.281333D-01      0.313025D-01
   zy         0.274572D+00      0.406874D-01      0.452709D-01
   zz         0.236222D+02      0.350045D+01      0.389478D+01

 First dipole hyperpolarizability, Beta (input orientation).
 ||, _|_  parallel and perpendicular components, (z) with respect to z axis,
 vector components x,y,z.  Values do not include the 1/n! factor of 1/2.
 (esu units = statvolt**-1 cm**4 , SI units = C**3 m**3 J**-2)
 Beta(0;0,0):
               (au)            (10**-30 esu)      (10**-50 SI)
   || (z)    -0.173417D+02     -0.149819D+00     -0.556037D-01
   _|_(z)    -0.578056D+01     -0.499395D-01     -0.185346D-01
   x          0.901740D+02      0.779033D+00      0.289130D+00
   y         -0.104872D+03     -0.906012D+00     -0.336257D+00
   z         -0.867084D+02     -0.749093D+00     -0.278018D+00
   ||         0.326483D+02      0.282056D+00      0.104682D+00
   xxx        0.365153D+02      0.315464D+00      0.117081D+00
   xxy       -0.845666D+01     -0.730589D-01     -0.271151D-01
   yxy       -0.186389D+01     -0.161026D-01     -0.597632D-02
   yyy       -0.124536D+02     -0.107589D+00     -0.399306D-01
   xxz       -0.203755D+01     -0.176028D-01     -0.653312D-02
   yxz       -0.433418D+01     -0.374439D-01     -0.138969D-01
   yyz       -0.994466D+01     -0.859141D-01     -0.318862D-01
   zxz       -0.459338D+01     -0.396833D-01     -0.147280D-01
   zyz       -0.140471D+02     -0.121356D+00     -0.450400D-01
   zzz       -0.169206D+02     -0.146181D+00     -0.542535D-01

 ----------------------------------------------------------------------

 Dipole orientation:
     6          1.15987525         -0.39183832          0.76917599
     1          0.92003678         -2.25066951          1.56980885
     9          3.21535082         -0.46400696         -0.73957969
     9         -0.84660095          0.06009242         -0.73957969
     6          1.42753875          1.68264654          2.68933361
     1         -0.24391581          1.75916491          3.86932448
     1          3.06367489          1.33239809          3.86932448
     1          1.65922230          3.47827430          1.73453132

 Electric dipole moment (dipole orientation):
 (Debye = 10**-18 statcoulomb cm , SI units = C m)
                  (au)            (Debye)         (10**-30 SI)
   Tot        0.995271D+00      0.252973D+01      0.843826D+01
   x          0.000000D+00      0.000000D+00      0.000000D+00
   y          0.000000D+00      0.000000D+00      0.000000D+00
   z          0.995271D+00      0.252973D+01      0.843826D+01

 Dipole polarizability, Alpha (dipole orientation).
 (esu units = cm**3 , SI units = C**2 m**2 J**-1)
 Alpha(0;0):
               (au)            (10**-24 esu)      (10**-40 SI)
   iso        0.238764D+02      0.353812D+01      0.393669D+01
   aniso      0.729558D+00      0.108109D+00      0.120288D+00
   xx         0.240821D+02      0.356860D+01      0.397060D+01
   yx        -0.670212D-01     -0.993152D-02     -0.110503D-01
   yy         0.235713D+02      0.349291D+01      0.388639D+01
   zx         0.405234D-01      0.600495D-02      0.668140D-02
   zy         0.314070D+00      0.465404D-01      0.517832D-01
   zz         0.239759D+02      0.355286D+01      0.395309D+01

 First dipole hyperpolarizability, Beta (dipole orientation).
 ||, _|_  parallel and perpendicular components, (z) with respect to z axis,
 vector components x,y,z.  Values do not include the 1/n! factor of 1/2.
 (esu units = statvolt**-1 cm**4 , SI units = C**3 m**3 J**-2)
 Beta(0;0,0):
               (au)            (10**-30 esu)      (10**-50 SI)
   || (z)     0.322511D+02      0.278625D+00      0.103409D+00
   _|_(z)     0.107504D+02      0.928749D-01      0.344696D-01
   x          0.324846D+01      0.280642D-01      0.104157D-01
   y          0.251767D+02      0.217507D+00      0.807256D-01
   z          0.161256D+03      0.139312D+01      0.517044D+00
   ||         0.326483D+02      0.282056D+00      0.104682D+00
   xxx        0.116349D+01      0.100516D-01      0.373056D-02
   xxy        0.294060D+01      0.254045D-01      0.942861D-02
   yxy       -0.366130D+00     -0.316308D-02     -0.117394D-02
   yyy        0.323921D+01      0.279842D-01      0.103861D-01
   xxz        0.282105D+02      0.243717D+00      0.904531D-01
   yxz       -0.343607D+01     -0.296850D-01     -0.110173D-01
   yyz        0.202311D+01      0.174781D-01      0.648682D-02
   zxz        0.285463D+00      0.246617D-02      0.915296D-03
   zyz        0.221243D+01      0.191137D-01      0.709386D-02
   zzz        0.235183D+02      0.203180D+00      0.754081D-01

 ----------------------------------------------------------------------
 1\1\GINC-JEFFSMACSTUDIO\Freq\RHF\6-31+G(d)\C2H4F2\ROOT\31-Mar-2026\0\\
 #P Geom=AllCheck Guess=TCheck SCRF=Check GenChk RHF/6-31+G(d) Freq\\R1
 52a - 1,1-difluoroethane\\0,1\C,0.7615903879,0.0718357601,-0.014615241
 9\H,1.0831303412,0.6443318525,-0.8702083892\F,1.1817837482,0.722020112
 1,1.091147996\F,-0.5878252944,0.0963935219,0.0074918329\C,1.2540949673
 ,-1.3476132284,0.000615118\H,0.896484724,-1.8711648755,-0.8779555585\H
 ,2.3374526967,-1.3617258652,0.0044505475\H,0.88860314,-1.8503239296,0.
 887692456\\Version=EM64M-G16RevA.03\State=1-A'\HF=-276.9574291\RMSD=1.
 417e-09\RMSF=1.266e-04\ZeroPoint=0.0652352\Thermal=0.0693589\Dipole=0.
 56908,-0.5217447,-0.6280882\DipoleDeriv=1.5136845,-0.0232346,0.1573755
 ,-0.0079123,1.1732246,0.2603745,0.1485296,0.2853957,1.1945263,-0.02807
 39,0.0023159,0.0154579,-0.0290607,-0.0902751,0.0893044,0.0335726,0.038
 0664,-0.09459,-0.4314714,-0.0749417,-0.1342936,-0.1076236,-0.622401,-0
 .3104561,-0.2080473,-0.360813,-0.8110559,-1.1071855,0.0927041,-0.04783
 55,0.0892187,-0.4090825,-0.0130592,0.0467987,-0.0217635,-0.3486603,0.0
 777876,0.0414139,0.0047911,0.0878392,-0.1248587,-0.016301,-0.0220116,0
 .0595116,0.0969501,0.0506819,-0.031563,-0.0643864,-0.0083708,0.0154655
 ,-0.050403,-0.0540725,-0.0817823,-0.066206,-0.124463,0.0149728,0.00395
 51,-0.0252218,0.0478516,0.0013577,0.0034572,0.0049723,0.0765527,0.0490
 398,-0.0216674,0.0649357,0.0011313,0.0100756,0.0391827,0.0517733,0.076
 4129,-0.0475169\Polar=24.0208795,-0.1311858,23.986234,0.1898526,0.2745
 723,23.6222126\PolarDeriv=3.4351312,-0.7830297,-2.7268101,0.5903983,0.
 6213141,-2.5900879,0.2256623,-2.076129,1.6340296,0.1630764,0.7037185,-
 2.7734802,0.1787179,0.3059939,1.2344592,-2.2210226,-4.442955,2.1873024
 ,1.1596102,1.1780342,1.0560207,-1.6163457,-0.6680444,1.0810714,0.69185
 16,0.928938,3.2242201,-0.379029,-2.3835526,1.8886177,-0.9467556,-0.457
 1832,-2.3380212,1.1523668,2.7989029,-5.4499503,0.9484233,1.2655835,0.1
 692072,1.6780703,0.5738664,0.5014904,0.1984942,0.9529773,2.5926832,0.2
 890685,2.2374448,0.9917036,0.5069835,0.4324642,1.2371559,1.361336,2.92
 56474,3.6961982,-7.2016451,1.0859462,0.1419365,-0.53702,-0.3902667,0.2
 947334,0.1039506,-1.7225776,0.3877934,-0.1237916,-0.1753917,0.3270282,
 0.1486379,-0.2147737,0.2615711,-1.5762285,0.4443448,-0.1040436,-5.7310
 594,0.4629926,2.8518012,-0.1927854,-0.2078019,3.1283004,-0.2349336,2.4
 146885,-2.595891,0.1525257,-0.0969938,3.4813656,0.0712061,-0.0045651,-
 0.4634026,2.835189,4.6715083,-0.3900654,-0.7608934,-1.1532253,-1.07049
 41,-1.5595467,-0.4824657,-1.42043,-0.3772988,-1.0928543,-2.8830061,-0.
 3680859,-2.5158598,-1.886478,-0.9756633,-0.4108889,-2.0956555,-1.47506
 51,-2.8901498,-5.2825212,8.9564227,-0.9887376,0.8885965,0.0264871,0.01
 00651,0.4860121,-0.2459019,1.6939373,0.1519471,-0.03377,-0.035519,-0.2
 507554,-0.0214497,-0.0140786,-0.0621139,1.3650598,-0.6647993,0.0474578
 ,-0.8059892,-1.0675638,-1.3102579,1.6107424,0.5433335,-1.4810899,-0.36
 18242,-1.0989802,-2.5117763,0.3000057,2.2661535,-1.7780013,1.0383232,0
 .3630313,2.2260074,-1.4416356,-2.8424997,5.2956223\HyperPolar=36.51528
 31,-8.4566572,-1.8638949,-12.4535691,-2.0375492,-4.3341788,-9.9446628,
 -4.5933834,-14.0470793,-16.9205879\Quadrupole=-1.0855819,0.658037,0.42
 75449,-0.2241067,-0.9765914,-1.0316822\PG=CS [SG(C2H2),X(H2F2)]\NImag=
 0\\0.59427137,-0.00045597,0.68120143,-0.06662165,-0.07308913,0.7043026
 1,-0.08377154,-0.03851142,0.06438447,0.10641824,-0.04551414,-0.1707984
 7,0.13946967,0.05138278,0.16513295,0.06842735,0.12803424,-0.24361940,-
 0.07188585,-0.13273255,0.27458321,-0.08683433,-0.02560428,-0.04208864,
 0.00883902,0.00215098,-0.00097645,0.11274708,-0.01814567,-0.14552264,-
 0.09016586,0.00193303,0.01331991,0.00414496,0.05095333,0.15648820,-0.0
 3094627,-0.09179945,-0.26188241,-0.01802745,-0.03057547,-0.04644233,0.
 09308476,0.14848288,0.31946798,-0.31336486,0.01910977,0.04002837,-0.04
 172339,-0.00062193,0.00409020,-0.04496600,-0.02093046,-0.03738349,0.44
 126514,0.01083023,-0.09115626,0.00565292,-0.02394017,0.00951219,0.0010
 3885,-0.03068047,0.00566270,-0.00855812,-0.00733444,0.07421263,0.02935
 994,0.00594593,-0.08971827,0.03472933,-0.00267530,0.00792780,-0.054667
 40,-0.00869805,-0.00213313,-0.00738470,0.00614605,0.07322549,-0.104166
 78,0.03984968,0.00643646,0.00964227,-0.01045212,0.00044871,0.00709384,
 -0.01666154,-0.00882921,-0.04250407,0.04922657,-0.00128752,0.66482212,
 0.05094921,-0.25195986,0.01253452,0.00732546,-0.01284342,-0.00095555,0
 .00271901,-0.02478081,-0.01262325,0.00156568,0.00430474,0.00007457,0.0
 2484536,0.59939705,0.00002838,0.03066003,-0.10388413,-0.00981481,0.028
 07521,0.00604074,0.00531383,-0.05412724,-0.01341971,0.00089651,-0.0046
 0320,0.00709266,0.00063431,0.00249478,0.67151823,0.00244260,0.00450723
 ,0.01167187,0.00009628,-0.00060396,-0.00025349,0.00103669,0.00437284,0
 .00153039,0.00063852,-0.00053083,-0.00002776,-0.09066500,-0.04711465,-
 0.08048296,0.09082811,-0.01702957,-0.00920706,-0.03234290,0.00002354,0
 .00100582,0.00145539,0.00196697,-0.01108068,-0.00372164,0.00006086,0.0
 0226003,0.00180927,-0.04295115,-0.12948770,-0.11075961,0.05025038,0.13
 473378,-0.00081840,0.00250555,-0.00087109,0.00059546,-0.00083574,0.000
 43633,-0.00040008,0.00021573,0.00241837,0.00155021,0.00043491,0.000916
 64,-0.07836689,-0.11550773,-0.25204920,0.08805571,0.12657350,0.2690035
 1,-0.01285295,-0.00653859,-0.00063058,0.00076546,0.00086735,-0.0001649
 0,0.00238854,0.00013382,0.00079362,-0.00078030,0.00364814,-0.00062887,
 -0.35135789,0.00637313,-0.00041283,-0.00913842,-0.00005970,-0.00001306
 ,0.38052832,0.03628908,0.00764984,-0.00073010,-0.00156217,0.00088174,0
 .00037080,-0.00173970,0.00163970,0.00061818,0.00862319,-0.00875655,-0.
 00001557,-0.00019630,-0.06287809,0.00016939,-0.01906828,0.00092513,0.0
 0203115,-0.00458116,0.05975389,-0.00043216,-0.00081060,-0.00243244,0.0
 0002652,-0.00028077,-0.00010876,-0.00004430,-0.00010068,-0.00021305,-0
 .00018165,0.00024254,0.00191123,-0.00113989,0.00098864,-0.05796592,-0.
 03096043,0.00273032,0.00191208,0.00143864,-0.00034552,0.05428320,0.004
 27650,0.00764358,-0.01318029,-0.00026634,0.00279104,0.00031443,-0.0003
 0483,-0.00165535,-0.00022236,0.00143497,-0.00121903,-0.00009303,-0.092
 86448,-0.04666319,0.08383758,0.00476121,0.00773867,-0.01060295,-0.0095
 5276,-0.01776465,0.03129329,0.09251575,-0.01692316,-0.02020697,0.03867
 089,0.00334895,-0.00621072,-0.00135613,0.00023416,0.00427362,-0.001823
 13,-0.00047268,0.00396052,-0.00258691,-0.04366050,-0.12175192,0.108090
 64,0.00818727,0.01085068,-0.01541735,0.00015701,0.00078434,-0.00242394
 ,0.04912895,0.12830044,0.00100281,-0.00144656,-0.00189486,-0.00000767,
 -0.00044506,0.00118241,-0.00022171,0.00024827,0.00220428,-0.00161544,-
 0.00035394,0.00077758,0.08210404,0.11299402,-0.25733267,0.01046666,0.0
 1425566,-0.02176664,-0.00038202,-0.00209833,0.00261367,-0.09134668,-0.
 12315406,0.27421623\\-0.00006919,0.00046720,-0.00015674,0.00012767,-0.
 00005005,-0.00017960,-0.00007799,-0.00010326,0.00012209,-0.00002502,-0
 .00008453,0.00015453,0.00000203,-0.00006720,0.00003548,0.00003840,-0.0
 0003017,0.00004620,-0.00003631,-0.00005658,0.00000045,0.00004039,-0.00
 007542,-0.00002242\\\@


 IF IT'S NOT TRUE, IT'S WELL INVENTED -- DANTE
 Job cpu time:       0 days  0 hours  0 minutes  8.0 seconds.
 Elapsed time:       0 days  0 hours  0 minutes  2.2 seconds.
 File lengths (MBytes):  RWF=     10 Int=      0 D2E=      0 Chk=      2 Scr=      1
 Normal termination of Gaussian 16 at Tue Mar 31 17:51:17 2026.
