 Entering Gaussian System, Link 0=g16
 Input=/Users/asuyarger/Downloads/11Difluoroethane_Opt_Freq_PM6_Gaussian16.gjf
 Output=/Users/asuyarger/Downloads/11Difluoroethane_Opt_Freq_PM6_Gaussian16.log
 Initial command:
 /Users/asuyarger/Applications/G16/g16/l1.exe "/Users/asuyarger/Applications/G16/scratch/Gau-28887.inp" -scrdir="/Users/asuyarger/Applications/G16/scratch/"
 Entering Link 1 = /Users/asuyarger/Applications/G16/g16/l1.exe PID=     28888.
  
 Copyright (c) 1988,1990,1992,1993,1995,1998,2003,2009,2016,
            Gaussian, Inc.  All Rights Reserved.
  
 This is part of the Gaussian(R) 16 program.  It is based on
 the Gaussian(R) 09 system (copyright 2009, Gaussian, Inc.),
 the Gaussian(R) 03 system (copyright 2003, Gaussian, Inc.),
 the Gaussian(R) 98 system (copyright 1998, Gaussian, Inc.),
 the Gaussian(R) 94 system (copyright 1995, Gaussian, Inc.),
 the Gaussian 92(TM) system (copyright 1992, Gaussian, Inc.),
 the Gaussian 90(TM) system (copyright 1990, Gaussian, Inc.),
 the Gaussian 88(TM) system (copyright 1988, Gaussian, Inc.),
 the Gaussian 86(TM) system (copyright 1986, Carnegie Mellon
 University), and the Gaussian 82(TM) system (copyright 1983,
 Carnegie Mellon University). Gaussian is a federally registered
 trademark of Gaussian, Inc.
  
 This software contains proprietary and confidential information,
 including trade secrets, belonging to Gaussian, Inc.
  
 This software is provided under written license and may be
 used, copied, transmitted, or stored only in accord with that
 written license.
  
 The following legend is applicable only to US Government
 contracts under FAR:
  
                    RESTRICTED RIGHTS LEGEND
  
 Use, reproduction and disclosure by the US Government is
 subject to restrictions as set forth in subparagraphs (a)
 and (c) of the Commercial Computer Software - Restricted
 Rights clause in FAR 52.227-19.
  
 Gaussian, Inc.
 340 Quinnipiac St., Bldg. 40, Wallingford CT 06492
  
  
 ---------------------------------------------------------------
 Warning -- This program may not be used in any manner that
 competes with the business of Gaussian, Inc. or will provide
 assistance to any competitor of Gaussian, Inc.  The licensee
 of this program is prohibited from giving any competitor of
 Gaussian, Inc. access to this program.  By using this program,
 the user acknowledges that Gaussian, Inc. is engaged in the
 business of creating and licensing software in the field of
 computational chemistry and represents and warrants to the
 licensee that it is not a competitor of Gaussian, Inc. and that
 it will not use this program in any manner prohibited above.
 ---------------------------------------------------------------
  

 Cite this work as:
 Gaussian 16, Revision A.03,
 M. J. Frisch, G. W. Trucks, H. B. Schlegel, G. E. Scuseria, 
 M. A. Robb, J. R. Cheeseman, G. Scalmani, V. Barone, 
 G. A. Petersson, H. Nakatsuji, X. Li, M. Caricato, A. V. Marenich, 
 J. Bloino, B. G. Janesko, R. Gomperts, B. Mennucci, H. P. Hratchian, 
 J. V. Ortiz, A. F. Izmaylov, J. L. Sonnenberg, D. Williams-Young, 
 F. Ding, F. Lipparini, F. Egidi, J. Goings, B. Peng, A. Petrone, 
 T. Henderson, D. Ranasinghe, V. G. Zakrzewski, J. Gao, N. Rega, 
 G. Zheng, W. Liang, M. Hada, M. Ehara, K. Toyota, R. Fukuda, 
 J. Hasegawa, M. Ishida, T. Nakajima, Y. Honda, O. Kitao, H. Nakai, 
 T. Vreven, K. Throssell, J. A. Montgomery, Jr., J. E. Peralta, 
 F. Ogliaro, M. J. Bearpark, J. J. Heyd, E. N. Brothers, K. N. Kudin, 
 V. N. Staroverov, T. A. Keith, R. Kobayashi, J. Normand, 
 K. Raghavachari, A. P. Rendell, J. C. Burant, S. S. Iyengar, 
 J. Tomasi, M. Cossi, J. M. Millam, M. Klene, C. Adamo, R. Cammi, 
 J. W. Ochterski, R. L. Martin, K. Morokuma, O. Farkas, 
 J. B. Foresman, and D. J. Fox, Gaussian, Inc., Wallingford CT, 2016.
 
 ******************************************
 Gaussian 16:  EM64M-G16RevA.03 25-Dec-2016
                31-Mar-2026 
 ******************************************
 %nprocshared=4
 Will use up to    4 processors via shared memory.
 %mem=4GB
 %chk=11Difluoroethane_Opt_Freq_PM6_Gaussian16.chk
 --------------------------------------------------------
 #p opt freq=raman pm6 guess=save geom=connectivity polar
 --------------------------------------------------------
 1/18=20,19=15,26=1,38=1,57=2/1,3;
 2/9=110,12=2,17=6,18=5,40=1/2;
 3/5=2,25=1,41=3900000,71=1/1,2,3;
 4/35=1/1;
 5/5=2,35=1,38=5,98=1/2;
 6/7=2,8=2,9=2,10=2,28=1/1;
 7//1,2,3,16;
 1/18=20,19=15,26=1/3(2);
 2/9=110/2;
 99//99;
 2/9=110/2;
 3/5=2,25=1,41=3900000,71=1,135=20/1,2,3;
 4/5=5,16=3,35=1/1;
 5/5=2,35=1,38=5,98=1/2;
 7//1,2,3,16;
 1/18=20,19=15,26=1/3(-5);
 2/9=110/2;
 6/7=2,8=2,9=2,10=2,19=2,28=1/1;
 99/9=1/99;
 Leave Link    1 at Tue Mar 31 17:49:15 2026, MaxMem=   536870912 cpu:               0.1 elap:               0.0
 (Enter /Users/asuyarger/Applications/G16/g16/l101.exe)
 -------------------------
 R52a - 1,1-difluoroethane
 -------------------------
 Symbolic Z-matrix:
 Charge =  0 Multiplicity = 1
 C                     0.74359   0.09744   0. 
 H                     1.10026   0.60183  -0.87365 
 F                     1.1936    0.73383   1.10227 
 F                    -0.60641   0.09745  0. 
 C                     1.25691  -1.3545   0. 
 H                     0.90023  -1.85889  -0.87365 
 H                     2.32691  -1.35451   0. 
 H                     0.90023  -1.8589    0.87365 
 
 ITRead=  0  0  0  0  0  0  0  0
 MicOpt= -1 -1 -1 -1 -1 -1 -1 -1
 NAtoms=      8 NQM=        8 NQMF=       0 NMMI=      0 NMMIF=      0
                NMic=       0 NMicF=      0.
                    Isotopes and Nuclear Properties:
 (Nuclear quadrupole moments (NQMom) in fm**2, nuclear magnetic moments (NMagM)
  in nuclear magnetons)

  Atom         1           2           3           4           5           6           7           8
 IAtWgt=          12           1          19          19          12           1           1           1
 AtmWgt=  12.0000000   1.0078250  18.9984033  18.9984033  12.0000000   1.0078250   1.0078250   1.0078250
 NucSpn=           0           1           1           1           0           1           1           1
 AtZEff=  -0.0000000  -0.0000000  -0.0000000  -0.0000000  -0.0000000  -0.0000000  -0.0000000  -0.0000000
 NQMom=    0.0000000   0.0000000   0.0000000   0.0000000   0.0000000   0.0000000   0.0000000   0.0000000
 NMagM=    0.0000000   2.7928460   2.6288670   2.6288670   0.0000000   2.7928460   2.7928460   2.7928460
 AtZNuc=   6.0000000   1.0000000   9.0000000   9.0000000   6.0000000   1.0000000   1.0000000   1.0000000
 Leave Link  101 at Tue Mar 31 17:49:15 2026, MaxMem=   536870912 cpu:               0.5 elap:               0.1
 (Enter /Users/asuyarger/Applications/G16/g16/l103.exe)

 GradGradGradGradGradGradGradGradGradGradGradGradGradGradGradGradGradGrad
 Berny optimization.
 Initialization pass.
                           ----------------------------
                           !    Initial Parameters    !
                           ! (Angstroms and Degrees)  !
 --------------------------                            --------------------------
 ! Name  Definition              Value          Derivative Info.                !
 --------------------------------------------------------------------------------
 ! R1    R(1,2)                  1.07           estimate D2E/DX2                !
 ! R2    R(1,3)                  1.35           estimate D2E/DX2                !
 ! R3    R(1,4)                  1.35           estimate D2E/DX2                !
 ! R4    R(1,5)                  1.54           estimate D2E/DX2                !
 ! R5    R(5,6)                  1.07           estimate D2E/DX2                !
 ! R6    R(5,7)                  1.07           estimate D2E/DX2                !
 ! R7    R(5,8)                  1.07           estimate D2E/DX2                !
 ! A1    A(2,1,3)              109.4712         estimate D2E/DX2                !
 ! A2    A(2,1,4)              109.4712         estimate D2E/DX2                !
 ! A3    A(2,1,5)              109.4712         estimate D2E/DX2                !
 ! A4    A(3,1,4)              109.4712         estimate D2E/DX2                !
 ! A5    A(3,1,5)              109.4712         estimate D2E/DX2                !
 ! A6    A(4,1,5)              109.4712         estimate D2E/DX2                !
 ! A7    A(1,5,6)              109.4712         estimate D2E/DX2                !
 ! A8    A(1,5,7)              109.4712         estimate D2E/DX2                !
 ! A9    A(1,5,8)              109.4712         estimate D2E/DX2                !
 ! A10   A(6,5,7)              109.4712         estimate D2E/DX2                !
 ! A11   A(6,5,8)              109.4712         estimate D2E/DX2                !
 ! A12   A(7,5,8)              109.4712         estimate D2E/DX2                !
 ! D1    D(2,1,5,6)            -60.0            estimate D2E/DX2                !
 ! D2    D(2,1,5,7)             60.0            estimate D2E/DX2                !
 ! D3    D(2,1,5,8)            180.0            estimate D2E/DX2                !
 ! D4    D(3,1,5,6)            180.0            estimate D2E/DX2                !
 ! D5    D(3,1,5,7)            -60.0            estimate D2E/DX2                !
 ! D6    D(3,1,5,8)             60.0            estimate D2E/DX2                !
 ! D7    D(4,1,5,6)             60.0            estimate D2E/DX2                !
 ! D8    D(4,1,5,7)            180.0            estimate D2E/DX2                !
 ! D9    D(4,1,5,8)            -60.0            estimate D2E/DX2                !
 --------------------------------------------------------------------------------
 Trust Radius=3.00D-01 FncErr=1.00D-07 GrdErr=1.00D-07 EigMax=2.50D+02 EigMin=1.00D-04
 Number of steps in this run=     38 maximum allowed number of steps=    100.
 GradGradGradGradGradGradGradGradGradGradGradGradGradGradGradGradGradGrad

 Leave Link  103 at Tue Mar 31 17:49:15 2026, MaxMem=   536870912 cpu:               0.0 elap:               0.0
 (Enter /Users/asuyarger/Applications/G16/g16/l202.exe)
                          Input orientation:                          
 ---------------------------------------------------------------------
 Center     Atomic      Atomic             Coordinates (Angstroms)
 Number     Number       Type             X           Y           Z
 ---------------------------------------------------------------------
      1          6           0        0.743590    0.097436    0.000000
      2          1           0        1.100263    0.601835   -0.873651
      3          9           0        1.193597    0.733826    1.102271
      4          9           0       -0.606410    0.097453   -0.000000
      5          6           0        1.256905   -1.354496   -0.000000
      6          1           0        0.900233   -1.858895   -0.873652
      7          1           0        2.326905   -1.354510    0.000000
      8          1           0        0.900232   -1.858895    0.873651
 ---------------------------------------------------------------------
                    Distance matrix (angstroms):
                    1          2          3          4          5
     1  C    0.000000
     2  H    1.070000   0.000000
     3  F    1.350000   1.982524   0.000000
     4  F    1.350000   1.982524   2.204541   0.000000
     5  C    1.540000   2.148263   2.362224   2.362224   0.000000
     6  H    2.148263   2.468846   3.273001   2.619262   1.070000
     7  H    2.148263   2.468846   2.619262   3.273001   1.070000
     8  H    2.148263   3.024610   2.619262   2.619262   1.070000
                    6          7          8
     6  H    0.000000
     7  H    1.747303   0.000000
     8  H    1.747303   1.747303   0.000000
 Stoichiometry    C2H4F2
 Framework group  CS[SG(C2H2),X(H2F2)]
 Deg. of freedom    11
 Full point group                 CS      NOp   2
 Largest Abelian subgroup         CS      NOp   2
 Largest concise Abelian subgroup CS      NOp   2
                         Standard orientation:                         
 ---------------------------------------------------------------------
 Center     Atomic      Atomic             Coordinates (Angstroms)
 Number     Number       Type             X           Y           Z
 ---------------------------------------------------------------------
      1          6           0        0.332842    0.140941    0.000000
      2          1           0        1.206494    0.758706    0.000000
      3          9           0        0.332842   -0.638481   -1.102270
      4          9           0        0.332842   -0.638481    1.102270
      5          6           0       -0.924562    1.030061    0.000000
      6          1           0       -0.924562    1.647826    0.873651
      7          1           0       -0.924562    1.647826   -0.873651
      8          1           0       -1.798214    0.412296    0.000000
 ---------------------------------------------------------------------
 Rotational constants (GHZ):           9.4549941           8.9776407           5.1437408
 Leave Link  202 at Tue Mar 31 17:49:15 2026, MaxMem=   536870912 cpu:               0.0 elap:               0.0
 (Enter /Users/asuyarger/Applications/G16/g16/l301.exe)
 Standard basis: VSTO-6G (5D, 7F)
 Ernie: Thresh=  0.10000D-02 Tol=  0.10000D-05 Strict=F.
  NNHCO=     0 NNPyr=     0 NCTC=     0               EPep=         0.000000000
    EC=        64.405760255  ECS=         1.360609085   EG=         0.133236806
   EHC=         0.000421212  EAt=       -44.529382042  AtH=         0.936986650
 EPDDG=         0.000000000  ECC=        65.900027358 EAtT=        45.466368692
 There are    13 symmetry adapted cartesian basis functions of A'  symmetry.
 There are     7 symmetry adapted cartesian basis functions of A"  symmetry.
 There are    13 symmetry adapted basis functions of A'  symmetry.
 There are     7 symmetry adapted basis functions of A"  symmetry.
    20 basis functions,   120 primitive gaussians,    20 cartesian basis functions
    13 alpha electrons       13 beta electrons
       nuclear repulsion energy       111.3663960498 Hartrees.
 IExCor=    0 DFT=F Ex=HF Corr=None ExCW=0 ScaHFX=  1.000000
 ScaDFX=  1.000000  1.000000  1.000000  1.000000 ScalE2=  1.000000  1.000000
 IRadAn=      5 IRanWt=     -1 IRanGd=            0 ICorTp=0 IEmpDi=  4
 Integral buffers will be    131072 words long.
 Regular integral format.
 Two-electron integral symmetry is turned off.
 Leave Link  301 at Tue Mar 31 17:49:15 2026, MaxMem=   536870912 cpu:               0.1 elap:               0.0
 (Enter /Users/asuyarger/Applications/G16/g16/l302.exe)
 Do NDO integrals.
 NPDir=0 NMtPBC=     1 NCelOv=     1 NCel=       1 NClECP=     1 NCelD=      1
         NCelK=      1 NCelE2=     1 NClLst=     1 CellRange=     0.0.
 One-electron integrals computed using PRISM.
 NBasis=    20 RedAO= T EigKep=  1.00D+00  NBF=    13     7
 NBsUse=    20 1.00D-06 EigRej= -1.00D+00 NBFU=    13     7
 Leave Link  302 at Tue Mar 31 17:49:15 2026, MaxMem=   536870912 cpu:               0.2 elap:               0.1
 (Enter /Users/asuyarger/Applications/G16/g16/l303.exe)
 DipDrv:  MaxL=1.
 Leave Link  303 at Tue Mar 31 17:49:15 2026, MaxMem=   536870912 cpu:               0.1 elap:               0.0
 (Enter /Users/asuyarger/Applications/G16/g16/l401.exe)
 Simple Huckel Guess.
 JPrj=0 DoOrth=F DoCkMO=F.
 Initial guess orbital symmetries:
       Occupied  (A') (A") (A') (A') (A') (A") (A') (A") (A') (A")
                 (A") (A') (A')
       Virtual   (A') (A") (A') (A") (A') (A') (A')
 The electronic state of the initial guess is 1-A'.
 Leave Link  401 at Tue Mar 31 17:49:15 2026, MaxMem=   536870912 cpu:               0.1 elap:               0.0
 (Enter /Users/asuyarger/Applications/G16/g16/l502.exe)
 Keep J ints in memory in canonical form, NReq=860217.
 FoFCou: FMM=F IPFlag=           0 FMFlag=           0 FMFlg1=           0
         NFxFlg=           0 DoJE=F BraDBF=F KetDBF=F FulRan=T
         wScrn=  0.000000 ICntrl=       600 IOpCl=  2 I1Cent=           0 NGrid=           0
         NMat0=    1 NMatS0=     44 NMatT0=    0 NMatD0=    1 NMtDS0=    0 NMtDT0=    0
 Symmetry not used in FoFCou.
 Two-electron integral symmetry not used.
 Closed shell SCF:
 Using DIIS extrapolation, IDIIS=  1040.
 Overlap will be assumed to be unity.
 NGot=   536870912 LenX=   536809510 LenY=   536808628
 Requested convergence on RMS density matrix=1.00D-08 within 128 cycles.
 Requested convergence on MAX density matrix=1.00D-06.
 Requested convergence on             energy=1.00D-06.
 No special actions if energy rises.

 Cycle   1  Pass 1  IDiag  1:
 E= 0.219122550291161    
 DIIS: error= 7.23D-02 at cycle   1 NSaved=   1.
 NSaved= 1 IEnMin= 1 EnMin= 0.219122550291161     IErMin= 1 ErrMin= 7.23D-02
 ErrMax= 7.23D-02  0.00D+00 EMaxC= 1.00D-01 BMatC= 1.48D-01 BMatP= 1.48D-01
 IDIUse=3 WtCom= 2.77D-01 WtEn= 7.23D-01
 Coeff-Com:  0.100D+01
 Coeff-En:   0.100D+01
 Coeff:      0.100D+01
 GapD=    2.000 DampG=2.000 DampE=0.500 DampFc=1.0000 IDamp=-1.
 RMSDP=2.35D-02 MaxDP=1.05D-01              OVMax= 0.00D+00

 Cycle   2  Pass 1  IDiag  1:
 E=-0.124938877729591     Delta-E=       -0.344061428021 Rises=F Damp=F
 DIIS: error= 2.02D-02 at cycle   2 NSaved=   2.
 NSaved= 2 IEnMin= 2 EnMin=-0.124938877729591     IErMin= 2 ErrMin= 2.02D-02
 ErrMax= 2.02D-02  0.00D+00 EMaxC= 1.00D-01 BMatC= 1.73D-02 BMatP= 1.48D-01
 IDIUse=3 WtCom= 7.98D-01 WtEn= 2.02D-01
 Coeff-Com: -0.434D+00 0.143D+01
 Coeff-En:   0.000D+00 0.100D+01
 Coeff:     -0.346D+00 0.135D+01
 RMSDP=1.23D-02 MaxDP=5.97D-02 DE=-3.44D-01 OVMax= 0.00D+00

 Cycle   3  Pass 1  IDiag  1:
 E=-0.175781721241549     Delta-E=       -0.050842843512 Rises=F Damp=F
 DIIS: error= 4.92D-03 at cycle   3 NSaved=   3.
 NSaved= 3 IEnMin= 3 EnMin=-0.175781721241549     IErMin= 3 ErrMin= 4.92D-03
 ErrMax= 4.92D-03  0.00D+00 EMaxC= 1.00D-01 BMatC= 6.45D-04 BMatP= 1.73D-02
 IDIUse=3 WtCom= 9.51D-01 WtEn= 4.92D-02
 Coeff-Com:  0.148D+00-0.560D+00 0.141D+01
 Coeff-En:   0.000D+00 0.000D+00 0.100D+01
 Coeff:      0.141D+00-0.532D+00 0.139D+01
 RMSDP=3.50D-03 MaxDP=2.40D-02 DE=-5.08D-02 OVMax= 0.00D+00

 Cycle   4  Pass 1  IDiag  3:
 E=-0.179170754136536     Delta-E=       -0.003389032895 Rises=F Damp=F
 DIIS: error= 1.81D-03 at cycle   4 NSaved=   4.
 NSaved= 4 IEnMin= 4 EnMin=-0.179170754136536     IErMin= 4 ErrMin= 1.81D-03
 ErrMax= 1.81D-03  0.00D+00 EMaxC= 1.00D-01 BMatC= 8.89D-05 BMatP= 6.45D-04
 IDIUse=3 WtCom= 9.82D-01 WtEn= 1.81D-02
 Coeff-Com: -0.226D-01 0.987D-01-0.782D+00 0.171D+01
 Coeff-En:   0.000D+00 0.000D+00 0.000D+00 0.100D+01
 Coeff:     -0.222D-01 0.969D-01-0.768D+00 0.169D+01
 Fock symm off for IB=2 I1=    1 I=   14 J=   12 Cut=1.00D-07 Err=9.47D-03
 Fock matrix is not symmetric: symmetry in diagonalization turned off.
 Gap=     0.567 Goal=   None    Shift=    0.000
 RMSDP=2.10D-03 MaxDP=1.36D-02 DE=-3.39D-03 OVMax= 1.58D-02

 Cycle   5  Pass 1  IDiag  3:
 E=-0.179762504668446     Delta-E=       -0.000591750532 Rises=F Damp=F
 DIIS: error= 3.71D-04 at cycle   5 NSaved=   5.
 NSaved= 5 IEnMin= 5 EnMin=-0.179762504668446     IErMin= 5 ErrMin= 3.71D-04
 ErrMax= 3.71D-04  0.00D+00 EMaxC= 1.00D-01 BMatC= 2.35D-06 BMatP= 8.89D-05
 IDIUse=3 WtCom= 9.96D-01 WtEn= 3.71D-03
 Coeff-Com:  0.676D-02-0.307D-01 0.415D+00-0.102D+01 0.163D+01
 Coeff-En:   0.000D+00 0.000D+00 0.000D+00 0.000D+00 0.100D+01
 Coeff:      0.673D-02-0.306D-01 0.414D+00-0.102D+01 0.163D+01
 Gap=     0.567 Goal=   None    Shift=    0.000
 RMSDP=2.81D-04 MaxDP=2.43D-03 DE=-5.92D-04 OVMax= 2.12D-03

 Cycle   6  Pass 1  IDiag  3:
 E=-0.179776843340036     Delta-E=       -0.000014338672 Rises=F Damp=F
 DIIS: error= 8.22D-05 at cycle   6 NSaved=   6.
 NSaved= 6 IEnMin= 6 EnMin=-0.179776843340036     IErMin= 6 ErrMin= 8.22D-05
 ErrMax= 8.22D-05  0.00D+00 EMaxC= 1.00D-01 BMatC= 2.30D-07 BMatP= 2.35D-06
 IDIUse=1 WtCom= 1.00D+00 WtEn= 0.00D+00
 Coeff-Com: -0.786D-04 0.318D-02-0.210D+00 0.554D+00-0.112D+01 0.177D+01
 Coeff:     -0.786D-04 0.318D-02-0.210D+00 0.554D+00-0.112D+01 0.177D+01
 Gap=     0.567 Goal=   None    Shift=    0.000
 RMSDP=1.09D-04 MaxDP=7.14D-04 DE=-1.43D-05 OVMax= 6.95D-04

 Cycle   7  Pass 1  IDiag  3:
 E=-0.179778493954217     Delta-E=       -0.000001650614 Rises=F Damp=F
 DIIS: error= 2.08D-05 at cycle   7 NSaved=   7.
 NSaved= 7 IEnMin= 7 EnMin=-0.179778493954217     IErMin= 7 ErrMin= 2.08D-05
 ErrMax= 2.08D-05  0.00D+00 EMaxC= 1.00D-01 BMatC= 1.43D-08 BMatP= 2.30D-07
 IDIUse=1 WtCom= 1.00D+00 WtEn= 0.00D+00
 Coeff-Com: -0.525D-03 0.985D-03 0.707D-01-0.190D+00 0.434D+00-0.954D+00
 Coeff-Com:  0.164D+01
 Coeff:     -0.525D-03 0.985D-03 0.707D-01-0.190D+00 0.434D+00-0.954D+00
 Coeff:      0.164D+01
 Gap=     0.567 Goal=   None    Shift=    0.000
 RMSDP=2.71D-05 MaxDP=1.69D-04 DE=-1.65D-06 OVMax= 1.57D-04

 Cycle   8  Pass 1  IDiag  3:
 E=-0.179778588990629     Delta-E=       -0.000000095036 Rises=F Damp=F
 DIIS: error= 4.62D-06 at cycle   8 NSaved=   8.
 NSaved= 8 IEnMin= 8 EnMin=-0.179778588990629     IErMin= 8 ErrMin= 4.62D-06
 ErrMax= 4.62D-06  0.00D+00 EMaxC= 1.00D-01 BMatC= 5.49D-10 BMatP= 1.43D-08
 IDIUse=1 WtCom= 1.00D+00 WtEn= 0.00D+00
 Coeff-Com:  0.133D-03-0.302D-03-0.114D-01 0.305D-01-0.847D-01 0.233D+00
 Coeff-Com: -0.517D+00 0.135D+01
 Coeff:      0.133D-03-0.302D-03-0.114D-01 0.305D-01-0.847D-01 0.233D+00
 Coeff:     -0.517D+00 0.135D+01
 Gap=     0.567 Goal=   None    Shift=    0.000
 RMSDP=3.66D-06 MaxDP=2.19D-05 DE=-9.50D-08 OVMax= 1.81D-05

 Cycle   9  Pass 1  IDiag  3:
 E=-0.179778591671010     Delta-E=       -0.000000002680 Rises=F Damp=F
 DIIS: error= 1.10D-06 at cycle   9 NSaved=   9.
 NSaved= 9 IEnMin= 9 EnMin=-0.179778591671010     IErMin= 9 ErrMin= 1.10D-06
 ErrMax= 1.10D-06  0.00D+00 EMaxC= 1.00D-01 BMatC= 4.03D-11 BMatP= 5.49D-10
 IDIUse=1 WtCom= 1.00D+00 WtEn= 0.00D+00
 Coeff-Com:  0.797D-05-0.892D-04 0.275D-02-0.686D-02 0.201D-01-0.550D-01
 Coeff-Com:  0.111D+00-0.488D+00 0.142D+01
 Coeff:      0.797D-05-0.892D-04 0.275D-02-0.686D-02 0.201D-01-0.550D-01
 Coeff:      0.111D+00-0.488D+00 0.142D+01
 Gap=     0.567 Goal=   None    Shift=    0.000
 RMSDP=1.11D-06 MaxDP=4.97D-06 DE=-2.68D-09 OVMax= 5.93D-06

 Cycle  10  Pass 1  IDiag  3:
 E=-0.179778591888010     Delta-E=       -0.000000000217 Rises=F Damp=F
 DIIS: error= 1.57D-07 at cycle  10 NSaved=  10.
 NSaved=10 IEnMin=10 EnMin=-0.179778591888010     IErMin=10 ErrMin= 1.57D-07
 ErrMax= 1.57D-07  0.00D+00 EMaxC= 1.00D-01 BMatC= 1.93D-12 BMatP= 4.03D-11
 IDIUse=1 WtCom= 1.00D+00 WtEn= 0.00D+00
 Coeff-Com: -0.405D-05 0.401D-04-0.960D-03 0.233D-02-0.759D-02 0.215D-01
 Coeff-Com: -0.412D-01 0.210D+00-0.773D+00 0.159D+01
 Coeff:     -0.405D-05 0.401D-04-0.960D-03 0.233D-02-0.759D-02 0.215D-01
 Coeff:     -0.412D-01 0.210D+00-0.773D+00 0.159D+01
 Gap=     0.567 Goal=   None    Shift=    0.000
 RMSDP=2.78D-07 MaxDP=1.09D-06 DE=-2.17D-10 OVMax= 2.25D-06

 Cycle  11  Pass 1  IDiag  3:
 E=-0.179778591900728     Delta-E=       -0.000000000013 Rises=F Damp=F
 DIIS: error= 7.12D-08 at cycle  11 NSaved=  11.
 NSaved=11 IEnMin=11 EnMin=-0.179778591900728     IErMin=11 ErrMin= 7.12D-08
 ErrMax= 7.12D-08  0.00D+00 EMaxC= 1.00D-01 BMatC= 2.35D-13 BMatP= 1.93D-12
 IDIUse=1 WtCom= 1.00D+00 WtEn= 0.00D+00
 Coeff-Com:  0.208D-05-0.213D-04 0.369D-03-0.841D-03 0.361D-02-0.112D-01
 Coeff-Com:  0.206D-01-0.128D+00 0.551D+00-0.142D+01 0.198D+01
 Coeff:      0.208D-05-0.213D-04 0.369D-03-0.841D-03 0.361D-02-0.112D-01
 Coeff:      0.206D-01-0.128D+00 0.551D+00-0.142D+01 0.198D+01
 Gap=     0.567 Goal=   None    Shift=    0.000
 RMSDP=1.16D-07 MaxDP=4.79D-07 DE=-1.27D-11 OVMax= 8.45D-07

 Cycle  12  Pass 1  IDiag  3:
 E=-0.179778591902206     Delta-E=       -0.000000000001 Rises=F Damp=F
 DIIS: error= 1.61D-08 at cycle  12 NSaved=  12.
 NSaved=12 IEnMin=12 EnMin=-0.179778591902206     IErMin=12 ErrMin= 1.61D-08
 ErrMax= 1.61D-08  0.00D+00 EMaxC= 1.00D-01 BMatC= 1.31D-14 BMatP= 2.35D-13
 IDIUse=1 WtCom= 1.00D+00 WtEn= 0.00D+00
 Coeff-Com: -0.815D-06 0.560D-05 0.222D-04-0.103D-03-0.351D-03 0.180D-02
 Coeff-Com: -0.297D-02 0.351D-01-0.186D+00 0.542D+00-0.956D+00 0.157D+01
 Coeff:     -0.815D-06 0.560D-05 0.222D-04-0.103D-03-0.351D-03 0.180D-02
 Coeff:     -0.297D-02 0.351D-01-0.186D+00 0.542D+00-0.956D+00 0.157D+01
 Gap=     0.567 Goal=   None    Shift=    0.000
 RMSDP=2.51D-08 MaxDP=1.06D-07 DE=-1.48D-12 OVMax= 1.92D-07

 Cycle  13  Pass 1  IDiag  3:
 E=-0.179778591902547     Delta-E=       -0.000000000000 Rises=F Damp=F
 DIIS: error= 2.72D-09 at cycle  13 NSaved=  13.
 NSaved=13 IEnMin=13 EnMin=-0.179778591902547     IErMin=13 ErrMin= 2.72D-09
 ErrMax= 2.72D-09  0.00D+00 EMaxC= 1.00D-01 BMatC= 4.52D-16 BMatP= 1.31D-14
 IDIUse=1 WtCom= 1.00D+00 WtEn= 0.00D+00
 Coeff-Com:  0.193D-06-0.165D-05 0.741D-05-0.640D-05 0.184D-03-0.702D-03
 Coeff-Com:  0.121D-02-0.109D-01 0.539D-01-0.151D+00 0.261D+00-0.509D+00
 Coeff-Com:  0.135D+01
 Coeff:      0.193D-06-0.165D-05 0.741D-05-0.640D-05 0.184D-03-0.702D-03
 Coeff:      0.121D-02-0.109D-01 0.539D-01-0.151D+00 0.261D+00-0.509D+00
 Coeff:      0.135D+01
 Gap=     0.567 Goal=   None    Shift=    0.000
 RMSDP=3.64D-09 MaxDP=1.54D-08 DE=-3.41D-13 OVMax= 2.66D-08

 Cycle  14  Pass 2  IDiag  1:
 SCF Done:  E(RPM6) = -0.179778591903     A.U. after   14 cycles
            NFock= 13  Conv=0.36D-08     -V/T= 0.9976
 KE=-7.577820921344D+01 PE=-1.270334714033D+02 EE= 9.126550597496D+01
 Leave Link  502 at Tue Mar 31 17:49:15 2026, MaxMem=   536870912 cpu:               0.1 elap:               0.0
 (Enter /Users/asuyarger/Applications/G16/g16/l601.exe)
 Copying SCF densities to generalized density rwf, IOpCl= 0 IROHF=0.

 **********************************************************************

            Population analysis using the SCF density.

 **********************************************************************

 Orbital symmetries:
       Occupied  (A') (A") (A') (A') (A') (A") (A') (A") (A") (A')
                 (A") (A') (A')
       Virtual   (A') (A") (A') (A') (A") (A') (A')
 The electronic state is 1-A'.
 Alpha  occ. eigenvalues --   -1.53370  -1.53234  -1.01983  -0.83582  -0.68230
 Alpha  occ. eigenvalues --   -0.66640  -0.64391  -0.60065  -0.56986  -0.55647
 Alpha  occ. eigenvalues --   -0.52196  -0.50550  -0.47159
 Alpha virt. eigenvalues --    0.09569   0.10546   0.10964   0.17298   0.19546
 Alpha virt. eigenvalues --    0.19864   0.23332
          Condensed to atoms (all electrons):
               1          2          3          4          5          6
     1  C    3.704958   0.000000   0.000000   0.000000   0.000000   0.000000
     2  H    0.000000   0.883122   0.000000   0.000000   0.000000   0.000000
     3  F    0.000000   0.000000   7.195641   0.000000   0.000000   0.000000
     4  F    0.000000   0.000000   0.000000   7.195641   0.000000   0.000000
     5  C    0.000000   0.000000   0.000000   0.000000   4.561735   0.000000
     6  H    0.000000   0.000000   0.000000   0.000000   0.000000   0.821738
     7  H    0.000000   0.000000   0.000000   0.000000   0.000000   0.000000
     8  H    0.000000   0.000000   0.000000   0.000000   0.000000   0.000000
               7          8
     1  C    0.000000   0.000000
     2  H    0.000000   0.000000
     3  F    0.000000   0.000000
     4  F    0.000000   0.000000
     5  C    0.000000   0.000000
     6  H    0.000000   0.000000
     7  H    0.821738   0.000000
     8  H    0.000000   0.815427
 Mulliken charges:
               1
     1  C    0.295042
     2  H    0.116878
     3  F   -0.195641
     4  F   -0.195641
     5  C   -0.561735
     6  H    0.178262
     7  H    0.178262
     8  H    0.184573
 Sum of Mulliken charges =   0.00000
 Mulliken charges with hydrogens summed into heavy atoms:
               1
     1  C    0.411920
     3  F   -0.195641
     4  F   -0.195641
     5  C   -0.020638
 Charge=              0.0000 electrons
 Dipole moment (field-independent basis, Debye):
    X=             -0.2623    Y=              2.0068    Z=              0.0000  Tot=              2.0239
 N-N= 1.113663960498D+02 E-N=-1.270334714263D+02  KE=-7.577820921344D+01
 Symmetry A'   KE=-4.250048714126D+01
 Symmetry A"   KE=-3.327772207218D+01
 Leave Link  601 at Tue Mar 31 17:49:16 2026, MaxMem=   536870912 cpu:               0.1 elap:               0.0
 (Enter /Users/asuyarger/Applications/G16/g16/l701.exe)
 ... and contract with generalized density number  0.
 Compute integral first derivatives.
 Leave Link  701 at Tue Mar 31 17:49:16 2026, MaxMem=   536870912 cpu:               0.1 elap:               0.0
 (Enter /Users/asuyarger/Applications/G16/g16/l702.exe)
 L702 exits ... SP integral derivatives will be done elsewhere.
 Leave Link  702 at Tue Mar 31 17:49:16 2026, MaxMem=   536870912 cpu:               0.0 elap:               0.0
 (Enter /Users/asuyarger/Applications/G16/g16/l703.exe)
 Integral derivatives from FoFJK, PRISM(SPDF).
 Compute integral first derivatives, UseDBF=F ICtDFT=           0.
 Calling FoFJK, ICntrl=      2127 FMM=F ISym2X=1 I1Cent= 0 IOpClX= 0 NMat=1 NMatS=1 NMatT=0.
 FoFJK:  IHMeth=40 ICntrl=    2127 DoSepK=F KAlg= 0 I1Cent=           0 FoldK=F
 IRaf=         0 NMat=       1 IRICut=       1 DoRegI=T DoRafI=F ISym2E= 1 IDoP0=3 IntGTp=3.
 FoFCou: FMM=F IPFlag=           0 FMFlag=      100000 FMFlg1=         800
         NFxFlg=           0 DoJE=F BraDBF=F KetDBF=F FulRan=T
         wScrn=  0.000000 ICntrl=      2127 IOpCl=  0 I1Cent=           0 NGrid=           0
         NMat0=    1 NMatS0=      1 NMatT0=    0 NMatD0=    1 NMtDS0=    0 NMtDT0=    0
 Petite list used in FoFCou.
 Leave Link  703 at Tue Mar 31 17:49:16 2026, MaxMem=   536870912 cpu:               0.1 elap:               0.0
 (Enter /Users/asuyarger/Applications/G16/g16/l716.exe)
 Dipole        =-1.03182639D-01 7.89552766D-01 3.55271368D-15
 ***** Axes restored to original set *****
 -------------------------------------------------------------------
 Center     Atomic                   Forces (Hartrees/Bohr)
 Number     Number              X              Y              Z
 -------------------------------------------------------------------
      1        6           0.012608597   -0.026425202   -0.005333776
      2        1           0.004033316    0.018545995   -0.017293548
      3        9          -0.013893141    0.004092662    0.004763444
      4        9          -0.001187394    0.008584645    0.012544067
      5        6          -0.010733578    0.023135641    0.004171032
      6        1          -0.003312378   -0.010657532   -0.011022125
      7        1           0.015127586   -0.004138278    0.000269963
      8        1          -0.002643008   -0.013137931    0.011900942
 -------------------------------------------------------------------
 Cartesian Forces:  Max     0.026425202 RMS     0.012060779
 Leave Link  716 at Tue Mar 31 17:49:16 2026, MaxMem=   536870912 cpu:               0.1 elap:               0.0
 (Enter /Users/asuyarger/Applications/G16/g16/l103.exe)

 GradGradGradGradGradGradGradGradGradGradGradGradGradGradGradGradGradGrad
 Berny optimization.
 FormGI is forming the generalized inverse of G from B-inverse, IUseBI=4.
 Internal  Forces:  Max     0.024207175 RMS     0.009430111
 Search for a local minimum.
 Step number   1 out of a maximum of   38
 All quantities printed in internal units (Hartrees-Bohrs-Radians)
 RMS Force = .94301D-02 SwitMx=.10000D-02 MixMth= 1
 Mixed Optimization -- RFO/linear search
 Second derivative matrix not updated -- first step.
 ITU=  0
     Eigenvalues ---    0.00237   0.05720   0.05720   0.06082   0.07530
     Eigenvalues ---    0.16000   0.16000   0.16000   0.16000   0.23463
     Eigenvalues ---    0.24168   0.28519   0.37230   0.37230   0.37230
     Eigenvalues ---    0.37230   0.55021   0.55021
 RFO step:  Lambda=-1.10650922D-02 EMin= 2.36824132D-03
 Linear search not attempted -- first point.
 Iteration  1 RMS(Cart)=  0.05688152 RMS(Int)=  0.00219231
 Iteration  2 RMS(Cart)=  0.00175921 RMS(Int)=  0.00125854
 Iteration  3 RMS(Cart)=  0.00000088 RMS(Int)=  0.00125854
 ITry= 1 IFail=0 DXMaxC= 1.58D-01 DCOld= 1.00D+10 DXMaxT= 3.00D-01 DXLimC= 3.00D+00 Rises=F
 ClnCor:  largest displacement from symmetrization is 1.81D-13 for atom     4.
 Variable       Old X    -DE/DX   Delta X   Delta X   Delta X     New X
                                 (Linear)    (Quad)   (Total)
    R1        2.02201   0.02421   0.00000   0.06314   0.06314   2.08515
    R2        2.55113   0.00119   0.00000   0.00212   0.00212   2.55325
    R3        2.55113   0.00119   0.00000   0.00212   0.00212   2.55325
    R4        2.91018   0.00400   0.00000   0.01351   0.01351   2.92369
    R5        2.02201   0.01513   0.00000   0.03946   0.03946   2.06147
    R6        2.02201   0.01513   0.00000   0.03946   0.03946   2.06147
    R7        2.02201   0.01679   0.00000   0.04380   0.04380   2.06581
    A1        1.91063  -0.00550   0.00000  -0.00238  -0.00552   1.90511
    A2        1.91063  -0.00550   0.00000  -0.00238  -0.00552   1.90511
    A3        1.91063   0.01181   0.00000   0.09881   0.09525   2.00588
    A4        1.91063  -0.01955   0.00000  -0.13013  -0.13007   1.78057
    A5        1.91063   0.00937   0.00000   0.01804   0.01617   1.92681
    A6        1.91063   0.00937   0.00000   0.01804   0.01617   1.92681
    A7        1.91063   0.00369   0.00000   0.02101   0.02065   1.93128
    A8        1.91063   0.00369   0.00000   0.02101   0.02065   1.93128
    A9        1.91063   0.00732   0.00000   0.04392   0.04336   1.95400
   A10        1.91063  -0.00401   0.00000  -0.02565  -0.02579   1.88484
   A11        1.91063  -0.00535   0.00000  -0.03015  -0.03068   1.87995
   A12        1.91063  -0.00535   0.00000  -0.03015  -0.03068   1.87995
    D1       -1.04720   0.00019   0.00000   0.00284   0.00294  -1.04426
    D2        1.04720  -0.00019   0.00000  -0.00284  -0.00294   1.04426
    D3        3.14159   0.00000   0.00000  -0.00000   0.00000   3.14159
    D4        3.14159  -0.00604   0.00000  -0.06580  -0.06650   3.07510
    D5       -1.04720  -0.00643   0.00000  -0.07148  -0.07237  -1.11957
    D6        1.04720  -0.00623   0.00000  -0.06864  -0.06944   0.97776
    D7        1.04720   0.00643   0.00000   0.07148   0.07237   1.11957
    D8        3.14159   0.00604   0.00000   0.06580   0.06650  -3.07510
    D9       -1.04720   0.00623   0.00000   0.06864   0.06944  -0.97776
         Item               Value     Threshold  Converged?
 Maximum Force            0.024207     0.000450     NO 
 RMS     Force            0.009430     0.000300     NO 
 Maximum Displacement     0.157857     0.001800     NO 
 RMS     Displacement     0.056786     0.001200     NO 
 Predicted change in Energy=-5.975519D-03
 Lowest energy point so far.  Saving SCF results.
 GradGradGradGradGradGradGradGradGradGradGradGradGradGradGradGradGradGrad

 Leave Link  103 at Tue Mar 31 17:49:16 2026, MaxMem=   536870912 cpu:               0.0 elap:               0.0
 (Enter /Users/asuyarger/Applications/G16/g16/l202.exe)
                          Input orientation:                          
 ---------------------------------------------------------------------
 Center     Atomic      Atomic             Coordinates (Angstroms)
 Number     Number       Type             X           Y           Z
 ---------------------------------------------------------------------
      1          6           0        0.760912    0.100342   -0.029966
      2          1           0        1.090306    0.685369   -0.905618
      3          9           0        1.127563    0.746704    1.098444
      4          9           0       -0.587344    0.140417    0.048285
      5          6           0        1.259579   -1.363913    0.001070
      6          1           0        0.908753   -1.908564   -0.876596
      7          1           0        2.349883   -1.399068    0.005909
      8          1           0        0.905662   -1.897532    0.887090
 ---------------------------------------------------------------------
                    Distance matrix (angstroms):
                    1          2          3          4          5
     1  C    0.000000
     2  H    1.103414   0.000000
     3  F    1.351120   2.005346   0.000000
     4  F    1.351120   2.005346   2.100315   0.000000
     5  C    1.547151   2.247286   2.382511   2.382511   0.000000
     6  H    2.185028   2.600441   3.316491   2.700377   1.090881
     7  H    2.185028   2.600441   2.700377   3.316491   1.090881
     8  H    2.203054   3.149488   2.661934   2.661934   1.093178
                    6          7          8
     6  H    0.000000
     7  H    1.765009   0.000000
     8  H    1.763724   1.763724   0.000000
 Stoichiometry    C2H4F2
 Framework group  CS[SG(C2H2),X(H2F2)]
 Deg. of freedom    11
 Full point group                 CS      NOp   2
 RotChk:  IX=2 Diff= 7.38D-03
 Largest Abelian subgroup         CS      NOp   2
 Largest concise Abelian subgroup CS      NOp   2
                         Standard orientation:                         
 ---------------------------------------------------------------------
 Center     Atomic      Atomic             Coordinates (Angstroms)
 Number     Number       Type             X           Y           Z
 ---------------------------------------------------------------------
      1          6           0        0.341929    0.186779   -0.000000
      2          1           0        1.283417    0.762212   -0.000000
      3          9           0        0.341929   -0.663334   -1.050158
      4          9           0        0.341929   -0.663334    1.050158
      5          6           0       -0.946155    1.043819    0.000000
      6          1           0       -0.982348    1.684051    0.882504
      7          1           0       -0.982348    1.684051   -0.882504
      8          1           0       -1.848086    0.426115    0.000000
 ---------------------------------------------------------------------
 Rotational constants (GHZ):          10.1349479           8.4708818           5.2239074
 Leave Link  202 at Tue Mar 31 17:49:16 2026, MaxMem=   536870912 cpu:               0.0 elap:               0.0
 (Enter /Users/asuyarger/Applications/G16/g16/l301.exe)
 Standard basis: VSTO-6G (5D, 7F)
 Ernie: Thresh=  0.10000D-02 Tol=  0.10000D-05 Strict=F.
  NNHCO=     0 NNPyr=     0 NCTC=     0               EPep=         0.000000000
    EC=        64.374665044  ECS=         1.307105300   EG=         0.126690776
   EHC=         0.000380030  EAt=       -44.529382042  AtH=         0.936986650
 EPDDG=         0.000000000  ECC=        65.808841150 EAtT=        45.466368692
 There are    13 symmetry adapted cartesian basis functions of A'  symmetry.
 There are     7 symmetry adapted cartesian basis functions of A"  symmetry.
 There are    13 symmetry adapted basis functions of A'  symmetry.
 There are     7 symmetry adapted basis functions of A"  symmetry.
    20 basis functions,   120 primitive gaussians,    20 cartesian basis functions
    13 alpha electrons       13 beta electrons
       nuclear repulsion energy       111.2752098416 Hartrees.
 IExCor=    0 DFT=F Ex=HF Corr=None ExCW=0 ScaHFX=  1.000000
 ScaDFX=  1.000000  1.000000  1.000000  1.000000 ScalE2=  1.000000  1.000000
 IRadAn=      5 IRanWt=     -1 IRanGd=            0 ICorTp=0 IEmpDi=  4
 Integral buffers will be    131072 words long.
 Regular integral format.
 Two-electron integral symmetry is turned off.
 Leave Link  301 at Tue Mar 31 17:49:16 2026, MaxMem=   536870912 cpu:               0.1 elap:               0.0
 (Enter /Users/asuyarger/Applications/G16/g16/l302.exe)
 Do NDO integrals.
 NPDir=0 NMtPBC=     1 NCelOv=     1 NCel=       1 NClECP=     1 NCelD=      1
         NCelK=      1 NCelE2=     1 NClLst=     1 CellRange=     0.0.
 One-electron integrals computed using PRISM.
 NBasis=    20 RedAO= T EigKep=  1.00D+00  NBF=    13     7
 NBsUse=    20 1.00D-06 EigRej= -1.00D+00 NBFU=    13     7
 Leave Link  302 at Tue Mar 31 17:49:16 2026, MaxMem=   536870912 cpu:               0.2 elap:               0.1
 (Enter /Users/asuyarger/Applications/G16/g16/l303.exe)
 DipDrv:  MaxL=1.
 Leave Link  303 at Tue Mar 31 17:49:16 2026, MaxMem=   536870912 cpu:               0.1 elap:               0.0
 (Enter /Users/asuyarger/Applications/G16/g16/l401.exe)
 Initial guess from the checkpoint file:  "11Difluoroethane_Opt_Freq_PM6_Gaussian16.chk"
 B after Tr=    -0.000000    0.000000   -0.000000
         Rot=    0.999997    0.000000   -0.000000   -0.002294 Ang=  -0.26 deg.
 Guess basis will be translated and rotated to current coordinates.
 JPrj=0 DoOrth=T DoCkMO=T.
 Initial guess orbital symmetries:
       Occupied  (A') (A") (A') (A') (A') (A") (A') (A") (A") (A')
                 (A") (A') (A')
       Virtual   (A') (A") (A') (A') (A") (A') (A')
 The electronic state of the initial guess is 1-A'.
 Leave Link  401 at Tue Mar 31 17:49:16 2026, MaxMem=   536870912 cpu:               0.2 elap:               0.0
 (Enter /Users/asuyarger/Applications/G16/g16/l502.exe)
 Keep J ints in memory in canonical form, NReq=860217.
 FoFCou: FMM=F IPFlag=           0 FMFlag=           0 FMFlg1=           0
         NFxFlg=           0 DoJE=F BraDBF=F KetDBF=F FulRan=T
         wScrn=  0.000000 ICntrl=       600 IOpCl=  2 I1Cent=           0 NGrid=           0
         NMat0=    1 NMatS0=     44 NMatT0=    0 NMatD0=    1 NMtDS0=    0 NMtDT0=    0
 Symmetry not used in FoFCou.
 Two-electron integral symmetry not used.
 Closed shell SCF:
 Using DIIS extrapolation, IDIIS=  1040.
 Overlap will be assumed to be unity.
 NGot=   536870912 LenX=   536809510 LenY=   536808628
 Requested convergence on RMS density matrix=1.00D-08 within 128 cycles.
 Requested convergence on MAX density matrix=1.00D-06.
 Requested convergence on             energy=1.00D-06.
 No special actions if energy rises.

 Cycle   1  Pass 1  IDiag  1:
 E=-0.181110081001606    
 DIIS: error= 4.83D-03 at cycle   1 NSaved=   1.
 NSaved= 1 IEnMin= 1 EnMin=-0.181110081001606     IErMin= 1 ErrMin= 4.83D-03
 ErrMax= 4.83D-03  0.00D+00 EMaxC= 1.00D-01 BMatC= 8.99D-04 BMatP= 8.99D-04
 IDIUse=3 WtCom= 9.52D-01 WtEn= 4.83D-02
 Coeff-Com:  0.100D+01
 Coeff-En:   0.100D+01
 Coeff:      0.100D+01
 GapD=    2.000 DampG=2.000 DampE=1.000 DampFc=2.0000 IDamp=-1.
 RMSDP=2.60D-03 MaxDP=1.31D-02              OVMax= 0.00D+00

 Cycle   2  Pass 1  IDiag  3:
 E=-0.184272972123864     Delta-E=       -0.003162891122 Rises=F Damp=F
 DIIS: error= 2.82D-03 at cycle   2 NSaved=   2.
 NSaved= 2 IEnMin= 2 EnMin=-0.184272972123864     IErMin= 2 ErrMin= 2.82D-03
 ErrMax= 2.82D-03  0.00D+00 EMaxC= 1.00D-01 BMatC= 2.07D-04 BMatP= 8.99D-04
 IDIUse=3 WtCom= 9.72D-01 WtEn= 2.82D-02
 Coeff-Com: -0.604D+00 0.160D+01
 Coeff-En:   0.000D+00 0.100D+01
 Coeff:     -0.587D+00 0.159D+01
 Fock symm off for IB=2 I1=    1 I=   14 J=   10 Cut=1.00D-07 Err=1.14D-02
 Fock matrix is not symmetric: symmetry in diagonalization turned off.
 Gap=     0.573 Goal=   None    Shift=    0.000
 RMSDP=2.23D-03 MaxDP=1.29D-02 DE=-3.16D-03 OVMax= 1.74D-02

 Cycle   3  Pass 1  IDiag  3:
 E=-0.185478258532072     Delta-E=       -0.001205286408 Rises=F Damp=F
 DIIS: error= 1.12D-03 at cycle   3 NSaved=   3.
 NSaved= 3 IEnMin= 3 EnMin=-0.185478258532072     IErMin= 3 ErrMin= 1.12D-03
 ErrMax= 1.12D-03  0.00D+00 EMaxC= 1.00D-01 BMatC= 2.98D-05 BMatP= 2.07D-04
 IDIUse=3 WtCom= 9.89D-01 WtEn= 1.12D-02
 Coeff-Com:  0.436D+00-0.146D+01 0.203D+01
 Coeff-En:   0.000D+00 0.000D+00 0.100D+01
 Coeff:      0.431D+00-0.145D+01 0.202D+01
 Gap=     0.574 Goal=   None    Shift=    0.000
 RMSDP=1.31D-03 MaxDP=7.87D-03 DE=-1.21D-03 OVMax= 1.09D-02

 Cycle   4  Pass 1  IDiag  3:
 E=-0.185699260014019     Delta-E=       -0.000221001482 Rises=F Damp=F
 DIIS: error= 1.29D-04 at cycle   4 NSaved=   4.
 NSaved= 4 IEnMin= 4 EnMin=-0.185699260014019     IErMin= 4 ErrMin= 1.29D-04
 ErrMax= 1.29D-04  0.00D+00 EMaxC= 1.00D-01 BMatC= 8.10D-07 BMatP= 2.98D-05
 IDIUse=3 WtCom= 9.99D-01 WtEn= 1.29D-03
 Coeff-Com: -0.185D+00 0.646D+00-0.102D+01 0.156D+01
 Coeff-En:   0.000D+00 0.000D+00 0.000D+00 0.100D+01
 Coeff:     -0.185D+00 0.645D+00-0.102D+01 0.156D+01
 Gap=     0.574 Goal=   None    Shift=    0.000
 RMSDP=1.90D-04 MaxDP=1.09D-03 DE=-2.21D-04 OVMax= 1.41D-03

 Cycle   5  Pass 1  IDiag  3:
 E=-0.185704352469074     Delta-E=       -0.000005092455 Rises=F Damp=F
 DIIS: error= 2.72D-05 at cycle   5 NSaved=   5.
 NSaved= 5 IEnMin= 5 EnMin=-0.185704352469074     IErMin= 5 ErrMin= 2.72D-05
 ErrMax= 2.72D-05  0.00D+00 EMaxC= 1.00D-01 BMatC= 3.46D-08 BMatP= 8.10D-07
 IDIUse=1 WtCom= 1.00D+00 WtEn= 0.00D+00
 Coeff-Com:  0.118D+00-0.412D+00 0.656D+00-0.109D+01 0.172D+01
 Coeff:      0.118D+00-0.412D+00 0.656D+00-0.109D+01 0.172D+01
 Gap=     0.574 Goal=   None    Shift=    0.000
 RMSDP=3.52D-05 MaxDP=1.59D-04 DE=-5.09D-06 OVMax= 2.73D-04

 Cycle   6  Pass 1  IDiag  3:
 E=-0.185704559270221     Delta-E=       -0.000000206801 Rises=F Damp=F
 DIIS: error= 6.87D-06 at cycle   6 NSaved=   6.
 NSaved= 6 IEnMin= 6 EnMin=-0.185704559270221     IErMin= 6 ErrMin= 6.87D-06
 ErrMax= 6.87D-06  0.00D+00 EMaxC= 1.00D-01 BMatC= 1.57D-09 BMatP= 3.46D-08
 IDIUse=1 WtCom= 1.00D+00 WtEn= 0.00D+00
 Coeff-Com: -0.432D-01 0.152D+00-0.242D+00 0.406D+00-0.762D+00 0.149D+01
 Coeff:     -0.432D-01 0.152D+00-0.242D+00 0.406D+00-0.762D+00 0.149D+01
 Gap=     0.574 Goal=   None    Shift=    0.000
 RMSDP=7.27D-06 MaxDP=4.41D-05 DE=-2.07D-07 OVMax= 4.56D-05

 Cycle   7  Pass 1  IDiag  3:
 E=-0.185704568989038     Delta-E=       -0.000000009719 Rises=F Damp=F
 DIIS: error= 1.84D-06 at cycle   7 NSaved=   7.
 NSaved= 7 IEnMin= 7 EnMin=-0.185704568989038     IErMin= 7 ErrMin= 1.84D-06
 ErrMax= 1.84D-06  0.00D+00 EMaxC= 1.00D-01 BMatC= 1.33D-10 BMatP= 1.57D-09
 IDIUse=1 WtCom= 1.00D+00 WtEn= 0.00D+00
 Coeff-Com:  0.673D-02-0.237D-01 0.381D-01-0.640D-01 0.145D+00-0.567D+00
 Coeff-Com:  0.146D+01
 Coeff:      0.673D-02-0.237D-01 0.381D-01-0.640D-01 0.145D+00-0.567D+00
 Coeff:      0.146D+01
 Gap=     0.574 Goal=   None    Shift=    0.000
 RMSDP=2.30D-06 MaxDP=1.37D-05 DE=-9.72D-09 OVMax= 1.25D-05

 Cycle   8  Pass 1  IDiag  3:
 E=-0.185704569887292     Delta-E=       -0.000000000898 Rises=F Damp=F
 DIIS: error= 6.53D-07 at cycle   8 NSaved=   8.
 NSaved= 8 IEnMin= 8 EnMin=-0.185704569887292     IErMin= 8 ErrMin= 6.53D-07
 ErrMax= 6.53D-07  0.00D+00 EMaxC= 1.00D-01 BMatC= 1.28D-11 BMatP= 1.33D-10
 IDIUse=1 WtCom= 1.00D+00 WtEn= 0.00D+00
 Coeff-Com: -0.694D-03 0.254D-02-0.422D-02 0.717D-02-0.282D-01 0.227D+00
 Coeff-Com: -0.898D+00 0.169D+01
 Coeff:     -0.694D-03 0.254D-02-0.422D-02 0.717D-02-0.282D-01 0.227D+00
 Coeff:     -0.898D+00 0.169D+01
 Gap=     0.574 Goal=   None    Shift=    0.000
 RMSDP=7.88D-07 MaxDP=5.32D-06 DE=-8.98D-10 OVMax= 5.76D-06

 Cycle   9  Pass 1  IDiag  3:
 E=-0.185704569978284     Delta-E=       -0.000000000091 Rises=F Damp=F
 DIIS: error= 1.55D-07 at cycle   9 NSaved=   9.
 NSaved= 9 IEnMin= 9 EnMin=-0.185704569978284     IErMin= 9 ErrMin= 1.55D-07
 ErrMax= 1.55D-07  0.00D+00 EMaxC= 1.00D-01 BMatC= 8.05D-13 BMatP= 1.28D-11
 IDIUse=1 WtCom= 1.00D+00 WtEn= 0.00D+00
 Coeff-Com:  0.132D-03-0.523D-03 0.913D-03-0.153D-02 0.962D-02-0.101D+00
 Coeff-Com:  0.444D+00-0.103D+01 0.168D+01
 Coeff:      0.132D-03-0.523D-03 0.913D-03-0.153D-02 0.962D-02-0.101D+00
 Coeff:      0.444D+00-0.103D+01 0.168D+01
 Gap=     0.574 Goal=   None    Shift=    0.000
 RMSDP=1.97D-07 MaxDP=1.38D-06 DE=-9.10D-11 OVMax= 1.37D-06

 Cycle  10  Pass 1  IDiag  3:
 E=-0.185704569983628     Delta-E=       -0.000000000005 Rises=F Damp=F
 DIIS: error= 2.73D-08 at cycle  10 NSaved=  10.
 NSaved=10 IEnMin=10 EnMin=-0.185704569983628     IErMin=10 ErrMin= 2.73D-08
 ErrMax= 2.73D-08  0.00D+00 EMaxC= 1.00D-01 BMatC= 3.06D-14 BMatP= 8.05D-13
 IDIUse=1 WtCom= 1.00D+00 WtEn= 0.00D+00
 Coeff-Com: -0.445D-04 0.188D-03-0.339D-03 0.553D-03-0.439D-02 0.501D-01
 Coeff-Com: -0.223D+00 0.534D+00-0.977D+00 0.162D+01
 Coeff:     -0.445D-04 0.188D-03-0.339D-03 0.553D-03-0.439D-02 0.501D-01
 Coeff:     -0.223D+00 0.534D+00-0.977D+00 0.162D+01
 Gap=     0.574 Goal=   None    Shift=    0.000
 RMSDP=3.34D-08 MaxDP=2.44D-07 DE=-5.34D-12 OVMax= 1.85D-07

 Cycle  11  Pass 1  IDiag  3:
 E=-0.185704569983798     Delta-E=       -0.000000000000 Rises=F Damp=F
 DIIS: error= 6.05D-09 at cycle  11 NSaved=  11.
 NSaved=11 IEnMin=11 EnMin=-0.185704569983798     IErMin=11 ErrMin= 6.05D-09
 ErrMax= 6.05D-09  0.00D+00 EMaxC= 1.00D-01 BMatC= 1.38D-15 BMatP= 3.06D-14
 IDIUse=1 WtCom= 1.00D+00 WtEn= 0.00D+00
 Coeff-Com:  0.154D-05-0.158D-04 0.380D-04-0.551D-04 0.116D-02-0.157D-01
 Coeff-Com:  0.717D-01-0.175D+00 0.337D+00-0.704D+00 0.149D+01
 Coeff:      0.154D-05-0.158D-04 0.380D-04-0.551D-04 0.116D-02-0.157D-01
 Coeff:      0.717D-01-0.175D+00 0.337D+00-0.704D+00 0.149D+01
 Gap=     0.574 Goal=   None    Shift=    0.000
 RMSDP=6.74D-09 MaxDP=2.77D-08 DE=-1.71D-13 OVMax= 4.37D-08

 Cycle  12  Pass 2  IDiag  1:
 SCF Done:  E(RPM6) = -0.185704569984     A.U. after   12 cycles
            NFock= 11  Conv=0.67D-08     -V/T= 0.9975
 KE=-7.579014663122D+01 PE=-1.269995386858D+02 EE= 9.132877090543D+01
 Leave Link  502 at Tue Mar 31 17:49:16 2026, MaxMem=   536870912 cpu:               0.1 elap:               0.0
 (Enter /Users/asuyarger/Applications/G16/g16/l701.exe)
 ... and contract with generalized density number  0.
 Compute integral first derivatives.
 Leave Link  701 at Tue Mar 31 17:49:16 2026, MaxMem=   536870912 cpu:               0.1 elap:               0.1
 (Enter /Users/asuyarger/Applications/G16/g16/l702.exe)
 L702 exits ... SP integral derivatives will be done elsewhere.
 Leave Link  702 at Tue Mar 31 17:49:16 2026, MaxMem=   536870912 cpu:               0.1 elap:               0.0
 (Enter /Users/asuyarger/Applications/G16/g16/l703.exe)
 Integral derivatives from FoFJK, PRISM(SPDF).
 Compute integral first derivatives, UseDBF=F ICtDFT=           0.
 Calling FoFJK, ICntrl=      2127 FMM=F ISym2X=1 I1Cent= 0 IOpClX= 0 NMat=1 NMatS=1 NMatT=0.
 FoFJK:  IHMeth=40 ICntrl=    2127 DoSepK=F KAlg= 0 I1Cent=           0 FoldK=F
 IRaf=         0 NMat=       1 IRICut=       1 DoRegI=T DoRafI=F ISym2E= 1 IDoP0=3 IntGTp=3.
 FoFCou: FMM=F IPFlag=           0 FMFlag=      100000 FMFlg1=         800
         NFxFlg=           0 DoJE=F BraDBF=F KetDBF=F FulRan=T
         wScrn=  0.000000 ICntrl=      2127 IOpCl=  0 I1Cent=           0 NGrid=           0
         NMat0=    1 NMatS0=      1 NMatT0=    0 NMatD0=    1 NMtDS0=    0 NMtDT0=    0
 Petite list used in FoFCou.
 Leave Link  703 at Tue Mar 31 17:49:16 2026, MaxMem=   536870912 cpu:               0.1 elap:               0.0
 (Enter /Users/asuyarger/Applications/G16/g16/l716.exe)
 Dipole        =-1.33833950D-01 8.98746035D-01 8.99280650D-15
 ***** Axes restored to original set *****
 -------------------------------------------------------------------
 Center     Atomic                   Forces (Hartrees/Bohr)
 Number     Number              X              Y              Z
 -------------------------------------------------------------------
      1        6           0.009057288   -0.021249836   -0.002522383
      2        1           0.001327488    0.001999217   -0.003321993
      3        9           0.001649416    0.003654847    0.005976806
      4        9          -0.007152747    0.000542936    0.000586622
      5        6          -0.006286770    0.019634204   -0.001069116
      6        1          -0.001034218   -0.002069501   -0.002231389
      7        1           0.003142223   -0.000592965    0.000326140
      8        1          -0.000702680   -0.001918902    0.002255314
 -------------------------------------------------------------------
 Cartesian Forces:  Max     0.021249836 RMS     0.006820442
 Leave Link  716 at Tue Mar 31 17:49:16 2026, MaxMem=   536870912 cpu:               0.1 elap:               0.0
 (Enter /Users/asuyarger/Applications/G16/g16/l103.exe)

 GradGradGradGradGradGradGradGradGradGradGradGradGradGradGradGradGradGrad
 Berny optimization.
 Using GEDIIS/GDIIS optimizer.
 FormGI is forming the generalized inverse of G from B-inverse, IUseBI=4.
 Internal  Forces:  Max     0.015834091 RMS     0.003792017
 Search for a local minimum.
 Step number   2 out of a maximum of   38
 All quantities printed in internal units (Hartrees-Bohrs-Radians)
 RMS Force = .37920D-02 SwitMx=.10000D-02 MixMth= 1
 Mixed Optimization -- RFO/linear search
 Update second derivatives using D2CorX and points    1    2
 DE= -5.93D-03 DEPred=-5.98D-03 R= 9.92D-01
 TightC=F SS=  1.41D+00  RLast= 2.65D-01 DXNew= 5.0454D-01 7.9399D-01
 Trust test= 9.92D-01 RLast= 2.65D-01 DXMaxT set to 5.05D-01
 ITU=  1  0
 Use linear search instead of GDIIS.
     Eigenvalues ---    0.00237   0.05234   0.05352   0.05490   0.07968
     Eigenvalues ---    0.15429   0.16000   0.16000   0.16119   0.22697
     Eigenvalues ---    0.22852   0.30484   0.36638   0.37230   0.37230
     Eigenvalues ---    0.37321   0.55021   0.56598
 RFO step:  Lambda=-1.29989129D-03 EMin= 2.36824132D-03
 Quartic linear search produced a step of  0.05270.
 Iteration  1 RMS(Cart)=  0.01070660 RMS(Int)=  0.00008961
 Iteration  2 RMS(Cart)=  0.00004445 RMS(Int)=  0.00007884
 Iteration  3 RMS(Cart)=  0.00000000 RMS(Int)=  0.00007884
 ITry= 1 IFail=0 DXMaxC= 2.69D-02 DCOld= 1.00D+10 DXMaxT= 5.05D-01 DXLimC= 3.00D+00 Rises=F
 ClnCor:  largest displacement from symmetrization is 3.20D-09 for atom     4.
 Variable       Old X    -DE/DX   Delta X   Delta X   Delta X     New X
                                 (Linear)    (Quad)   (Total)
    R1        2.08515   0.00409   0.00333   0.01562   0.01895   2.10410
    R2        2.55325   0.00719   0.00011   0.01385   0.01396   2.56720
    R3        2.55325   0.00719   0.00011   0.01385   0.01396   2.56720
    R4        2.92369  -0.01583   0.00071  -0.05726  -0.05655   2.86714
    R5        2.06147   0.00316   0.00208   0.01146   0.01354   2.07501
    R6        2.06147   0.00316   0.00208   0.01146   0.01354   2.07501
    R7        2.06581   0.00299   0.00231   0.01126   0.01357   2.07938
    A1        1.90511  -0.00004  -0.00029  -0.00067  -0.00115   1.90396
    A2        1.90511  -0.00004  -0.00029  -0.00067  -0.00115   1.90396
    A3        2.00588  -0.00050   0.00502   0.00227   0.00707   2.01296
    A4        1.78057  -0.00053  -0.00686  -0.00941  -0.01626   1.76431
    A5        1.92681   0.00055   0.00085   0.00354   0.00428   1.93108
    A6        1.92681   0.00055   0.00085   0.00354   0.00428   1.93108
    A7        1.93128   0.00051   0.00109   0.00505   0.00610   1.93738
    A8        1.93128   0.00051   0.00109   0.00505   0.00610   1.93738
    A9        1.95400   0.00049   0.00229   0.00479   0.00703   1.96103
   A10        1.88484  -0.00034  -0.00136  -0.00188  -0.00327   1.88157
   A11        1.87995  -0.00063  -0.00162  -0.00691  -0.00857   1.87138
   A12        1.87995  -0.00063  -0.00162  -0.00691  -0.00857   1.87138
    D1       -1.04426  -0.00012   0.00015  -0.00210  -0.00195  -1.04621
    D2        1.04426   0.00012  -0.00015   0.00210   0.00195   1.04621
    D3        3.14159  -0.00000   0.00000  -0.00000   0.00000  -3.14159
    D4        3.07510  -0.00013  -0.00350  -0.00580  -0.00936   3.06574
    D5       -1.11957   0.00011  -0.00381  -0.00160  -0.00546  -1.12504
    D6        0.97776  -0.00001  -0.00366  -0.00370  -0.00741   0.97035
    D7        1.11957  -0.00011   0.00381   0.00160   0.00546   1.12504
    D8       -3.07510   0.00013   0.00350   0.00580   0.00936  -3.06574
    D9       -0.97776   0.00001   0.00366   0.00370   0.00741  -0.97035
         Item               Value     Threshold  Converged?
 Maximum Force            0.015834     0.000450     NO 
 RMS     Force            0.003792     0.000300     NO 
 Maximum Displacement     0.026874     0.001800     NO 
 RMS     Displacement     0.010699     0.001200     NO 
 Predicted change in Energy=-6.721056D-04
 Lowest energy point so far.  Saving SCF results.
 GradGradGradGradGradGradGradGradGradGradGradGradGradGradGradGradGradGrad

 Leave Link  103 at Tue Mar 31 17:49:16 2026, MaxMem=   536870912 cpu:               0.0 elap:               0.0
 (Enter /Users/asuyarger/Applications/G16/g16/l202.exe)
                          Input orientation:                          
 ---------------------------------------------------------------------
 Center     Atomic      Atomic             Coordinates (Angstroms)
 Number     Number       Type             X           Y           Z
 ---------------------------------------------------------------------
      1          6           0        0.767437    0.086608   -0.032692
      2          1           0        1.096854    0.681724   -0.914207
      3          9           0        1.125447    0.739932    1.103325
      4          9           0       -0.587432    0.134362    0.054409
      5          6           0        1.255235   -1.349692   -0.000046
      6          1           0        0.903547   -1.904876   -0.879700
      7          1           0        2.352414   -1.392644    0.007543
      8          1           0        0.901813   -1.891660    0.889986
 ---------------------------------------------------------------------
                    Distance matrix (angstroms):
                    1          2          3          4          5
     1  C    0.000000
     2  H    1.113440   0.000000
     3  F    1.358506   2.018574   0.000000
     4  F    1.358506   2.018574   2.097831   0.000000
     5  C    1.517225   2.233255   2.366601   2.366601   0.000000
     6  H    2.168400   2.594043   3.313101   2.693338   1.098046
     7  H    2.168400   2.594043   2.693338   3.313101   1.098046
     8  H    2.186993   3.148882   2.649680   2.649680   1.100360
                    6          7          8
     6  H    0.000000
     7  H    1.774485   0.000000
     8  H    1.769736   1.769736   0.000000
 Stoichiometry    C2H4F2
 Framework group  CS[SG(C2H2),X(H2F2)]
 Deg. of freedom    11
 Full point group                 CS      NOp   2
 RotChk:  IX=2 Diff= 3.76D-03
 Largest Abelian subgroup         CS      NOp   2
 Largest concise Abelian subgroup CS      NOp   2
                         Standard orientation:                         
 ---------------------------------------------------------------------
 Center     Atomic      Atomic             Coordinates (Angstroms)
 Number     Number       Type             X           Y           Z
 ---------------------------------------------------------------------
      1          6           0        0.335427    0.197497    0.000000
      2          1           0        1.290111    0.770495    0.000000
      3          9           0        0.335427   -0.665819   -1.048916
      4          9           0        0.335427   -0.665819    1.048916
      5          6           0       -0.926921    1.039190    0.000000
      6          1           0       -0.969553    1.684703    0.887242
      7          1           0       -0.969553    1.684703   -0.887242
      8          1           0       -1.839729    0.424720    0.000000
 ---------------------------------------------------------------------
 Rotational constants (GHZ):          10.1388734           8.5625202           5.2665604
 Leave Link  202 at Tue Mar 31 17:49:16 2026, MaxMem=   536870912 cpu:               0.0 elap:               0.0
 (Enter /Users/asuyarger/Applications/G16/g16/l301.exe)
 Standard basis: VSTO-6G (5D, 7F)
 Ernie: Thresh=  0.10000D-02 Tol=  0.10000D-05 Strict=F.
  NNHCO=     0 NNPyr=     0 NCTC=     0               EPep=         0.000000000
    EC=        64.449783843  ECS=         1.295658019   EG=         0.128010166
   EHC=         0.000357216  EAt=       -44.529382042  AtH=         0.936986650
 EPDDG=         0.000000000  ECC=        65.873809244 EAtT=        45.466368692
 There are    13 symmetry adapted cartesian basis functions of A'  symmetry.
 There are     7 symmetry adapted cartesian basis functions of A"  symmetry.
 There are    13 symmetry adapted basis functions of A'  symmetry.
 There are     7 symmetry adapted basis functions of A"  symmetry.
    20 basis functions,   120 primitive gaussians,    20 cartesian basis functions
    13 alpha electrons       13 beta electrons
       nuclear repulsion energy       111.3401779356 Hartrees.
 IExCor=    0 DFT=F Ex=HF Corr=None ExCW=0 ScaHFX=  1.000000
 ScaDFX=  1.000000  1.000000  1.000000  1.000000 ScalE2=  1.000000  1.000000
 IRadAn=      5 IRanWt=     -1 IRanGd=            0 ICorTp=0 IEmpDi=  4
 Integral buffers will be    131072 words long.
 Regular integral format.
 Two-electron integral symmetry is turned off.
 Leave Link  301 at Tue Mar 31 17:49:16 2026, MaxMem=   536870912 cpu:               0.1 elap:               0.0
 (Enter /Users/asuyarger/Applications/G16/g16/l302.exe)
 Do NDO integrals.
 NPDir=0 NMtPBC=     1 NCelOv=     1 NCel=       1 NClECP=     1 NCelD=      1
         NCelK=      1 NCelE2=     1 NClLst=     1 CellRange=     0.0.
 One-electron integrals computed using PRISM.
 NBasis=    20 RedAO= T EigKep=  1.00D+00  NBF=    13     7
 NBsUse=    20 1.00D-06 EigRej= -1.00D+00 NBFU=    13     7
 Leave Link  302 at Tue Mar 31 17:49:17 2026, MaxMem=   536870912 cpu:               0.2 elap:               0.1
 (Enter /Users/asuyarger/Applications/G16/g16/l303.exe)
 DipDrv:  MaxL=1.
 Leave Link  303 at Tue Mar 31 17:49:17 2026, MaxMem=   536870912 cpu:               0.1 elap:               0.0
 (Enter /Users/asuyarger/Applications/G16/g16/l401.exe)
 Initial guess from the checkpoint file:  "11Difluoroethane_Opt_Freq_PM6_Gaussian16.chk"
 B after Tr=    -0.000000   -0.000000    0.000000
         Rot=    0.999996   -0.000000   -0.000000    0.002738 Ang=   0.31 deg.
 Guess basis will be translated and rotated to current coordinates.
 JPrj=0 DoOrth=T DoCkMO=T.
 Initial guess orbital symmetries:
       Occupied  (A') (A") (A') (A') (A') (A") (A') (A") (A") (A')
                 (A") (A') (A')
       Virtual   (A") (A') (A') (A') (A") (A') (A')
 The electronic state of the initial guess is 1-A'.
 Leave Link  401 at Tue Mar 31 17:49:17 2026, MaxMem=   536870912 cpu:               0.2 elap:               0.0
 (Enter /Users/asuyarger/Applications/G16/g16/l502.exe)
 Keep J ints in memory in canonical form, NReq=860217.
 FoFCou: FMM=F IPFlag=           0 FMFlag=           0 FMFlg1=           0
         NFxFlg=           0 DoJE=F BraDBF=F KetDBF=F FulRan=T
         wScrn=  0.000000 ICntrl=       600 IOpCl=  2 I1Cent=           0 NGrid=           0
         NMat0=    1 NMatS0=     44 NMatT0=    0 NMatD0=    1 NMtDS0=    0 NMtDT0=    0
 Symmetry not used in FoFCou.
 Two-electron integral symmetry not used.
 Closed shell SCF:
 Using DIIS extrapolation, IDIIS=  1040.
 Overlap will be assumed to be unity.
 NGot=   536870912 LenX=   536809510 LenY=   536808628
 Requested convergence on RMS density matrix=1.00D-08 within 128 cycles.
 Requested convergence on MAX density matrix=1.00D-06.
 Requested convergence on             energy=1.00D-06.
 No special actions if energy rises.

 Cycle   1  Pass 1  IDiag  1:
 E=-0.186054241038022    
 DIIS: error= 1.71D-03 at cycle   1 NSaved=   1.
 NSaved= 1 IEnMin= 1 EnMin=-0.186054241038022     IErMin= 1 ErrMin= 1.71D-03
 ErrMax= 1.71D-03  0.00D+00 EMaxC= 1.00D-01 BMatC= 1.13D-04 BMatP= 1.13D-04
 IDIUse=3 WtCom= 9.83D-01 WtEn= 1.71D-02
 Coeff-Com:  0.100D+01
 Coeff-En:   0.100D+01
 Coeff:      0.100D+01
 GapD=    2.000 DampG=2.000 DampE=1.000 DampFc=2.0000 IDamp=-1.
 RMSDP=8.42D-04 MaxDP=3.50D-03              OVMax= 0.00D+00

 Cycle   2  Pass 1  IDiag  3:
 E=-0.186380791647807     Delta-E=       -0.000326550610 Rises=F Damp=F
 DIIS: error= 5.77D-04 at cycle   2 NSaved=   2.
 NSaved= 2 IEnMin= 2 EnMin=-0.186380791647807     IErMin= 2 ErrMin= 5.77D-04
 ErrMax= 5.77D-04  0.00D+00 EMaxC= 1.00D-01 BMatC= 1.27D-05 BMatP= 1.13D-04
 IDIUse=3 WtCom= 9.94D-01 WtEn= 5.77D-03
 Coeff-Com: -0.446D+00 0.145D+01
 Coeff-En:   0.000D+00 0.100D+01
 Coeff:     -0.444D+00 0.144D+01
 Fock symm off for IB=2 I1=    1 I=   14 J=   11 Cut=1.00D-07 Err=1.15D-03
 Fock matrix is not symmetric: symmetry in diagonalization turned off.
 Gap=     0.573 Goal=   None    Shift=    0.000
 RMSDP=4.38D-04 MaxDP=1.65D-03 DE=-3.27D-04 OVMax= 2.96D-03

 Cycle   3  Pass 1  IDiag  3:
 E=-0.186429828082666     Delta-E=       -0.000049036435 Rises=F Damp=F
 DIIS: error= 1.37D-04 at cycle   3 NSaved=   3.
 NSaved= 3 IEnMin= 3 EnMin=-0.186429828082666     IErMin= 3 ErrMin= 1.37D-04
 ErrMax= 1.37D-04  0.00D+00 EMaxC= 1.00D-01 BMatC= 5.98D-07 BMatP= 1.27D-05
 IDIUse=3 WtCom= 9.99D-01 WtEn= 1.37D-03
 Coeff-Com:  0.301D+00-0.104D+01 0.174D+01
 Coeff-En:   0.000D+00 0.000D+00 0.100D+01
 Coeff:      0.300D+00-0.104D+01 0.174D+01
 Gap=     0.573 Goal=   None    Shift=    0.000
 RMSDP=1.39D-04 MaxDP=7.20D-04 DE=-4.90D-05 OVMax= 8.25D-04

 Cycle   4  Pass 1  IDiag  3:
 E=-0.186433725009678     Delta-E=       -0.000003896927 Rises=F Damp=F
 DIIS: error= 4.82D-05 at cycle   4 NSaved=   4.
 NSaved= 4 IEnMin= 4 EnMin=-0.186433725009678     IErMin= 4 ErrMin= 4.82D-05
 ErrMax= 4.82D-05  0.00D+00 EMaxC= 1.00D-01 BMatC= 6.75D-08 BMatP= 5.98D-07
 IDIUse=1 WtCom= 1.00D+00 WtEn= 0.00D+00
 Coeff-Com: -0.184D+00 0.644D+00-0.137D+01 0.191D+01
 Coeff:     -0.184D+00 0.644D+00-0.137D+01 0.191D+01
 Gap=     0.573 Goal=   None    Shift=    0.000
 RMSDP=6.57D-05 MaxDP=3.45D-04 DE=-3.90D-06 OVMax= 4.77D-04

 Cycle   5  Pass 1  IDiag  3:
 E=-0.186434230110521     Delta-E=       -0.000000505101 Rises=F Damp=F
 DIIS: error= 4.60D-06 at cycle   5 NSaved=   5.
 NSaved= 5 IEnMin= 5 EnMin=-0.186434230110521     IErMin= 5 ErrMin= 4.60D-06
 ErrMax= 4.60D-06  0.00D+00 EMaxC= 1.00D-01 BMatC= 1.24D-09 BMatP= 6.75D-08
 IDIUse=1 WtCom= 1.00D+00 WtEn= 0.00D+00
 Coeff-Com:  0.840D-01-0.294D+00 0.640D+00-0.965D+00 0.154D+01
 Coeff:      0.840D-01-0.294D+00 0.640D+00-0.965D+00 0.154D+01
 Gap=     0.573 Goal=   None    Shift=    0.000
 RMSDP=6.66D-06 MaxDP=3.40D-05 DE=-5.05D-07 OVMax= 5.46D-05

 Cycle   6  Pass 1  IDiag  3:
 E=-0.186434237386777     Delta-E=       -0.000000007276 Rises=F Damp=F
 DIIS: error= 1.12D-06 at cycle   6 NSaved=   6.
 NSaved= 6 IEnMin= 6 EnMin=-0.186434237386777     IErMin= 6 ErrMin= 1.12D-06
 ErrMax= 1.12D-06  0.00D+00 EMaxC= 1.00D-01 BMatC= 7.47D-11 BMatP= 1.24D-09
 IDIUse=1 WtCom= 1.00D+00 WtEn= 0.00D+00
 Coeff-Com: -0.390D-01 0.137D+00-0.300D+00 0.463D+00-0.876D+00 0.162D+01
 Coeff:     -0.390D-01 0.137D+00-0.300D+00 0.463D+00-0.876D+00 0.162D+01
 Gap=     0.573 Goal=   None    Shift=    0.000
 RMSDP=1.59D-06 MaxDP=8.74D-06 DE=-7.28D-09 OVMax= 9.57D-06

 Cycle   7  Pass 1  IDiag  3:
 E=-0.186434237836352     Delta-E=       -0.000000000450 Rises=F Damp=F
 DIIS: error= 3.00D-07 at cycle   7 NSaved=   7.
 NSaved= 7 IEnMin= 7 EnMin=-0.186434237836352     IErMin= 7 ErrMin= 3.00D-07
 ErrMax= 3.00D-07  0.00D+00 EMaxC= 1.00D-01 BMatC= 5.13D-12 BMatP= 7.47D-11
 IDIUse=1 WtCom= 1.00D+00 WtEn= 0.00D+00
 Coeff-Com:  0.144D-01-0.504D-01 0.111D+00-0.174D+00 0.351D+00-0.832D+00
 Coeff-Com:  0.158D+01
 Coeff:      0.144D-01-0.504D-01 0.111D+00-0.174D+00 0.351D+00-0.832D+00
 Coeff:      0.158D+01
 Gap=     0.573 Goal=   None    Shift=    0.000
 RMSDP=4.31D-07 MaxDP=2.24D-06 DE=-4.50D-10 OVMax= 2.57D-06

 Cycle   8  Pass 1  IDiag  3:
 E=-0.186434237868781     Delta-E=       -0.000000000032 Rises=F Damp=F
 DIIS: error= 9.87D-08 at cycle   8 NSaved=   8.
 NSaved= 8 IEnMin= 8 EnMin=-0.186434237868781     IErMin= 8 ErrMin= 9.87D-08
 ErrMax= 9.87D-08  0.00D+00 EMaxC= 1.00D-01 BMatC= 4.03D-13 BMatP= 5.13D-12
 IDIUse=1 WtCom= 1.00D+00 WtEn= 0.00D+00
 Coeff-Com: -0.334D-02 0.117D-01-0.262D-01 0.419D-01-0.867D-01 0.231D+00
 Coeff-Com: -0.650D+00 0.148D+01
 Coeff:     -0.334D-02 0.117D-01-0.262D-01 0.419D-01-0.867D-01 0.231D+00
 Coeff:     -0.650D+00 0.148D+01
 Gap=     0.573 Goal=   None    Shift=    0.000
 RMSDP=1.19D-07 MaxDP=5.44D-07 DE=-3.24D-11 OVMax= 9.00D-07

 Cycle   9  Pass 1  IDiag  3:
 E=-0.186434237871424     Delta-E=       -0.000000000003 Rises=F Damp=F
 DIIS: error= 3.12D-08 at cycle   9 NSaved=   9.
 NSaved= 9 IEnMin= 9 EnMin=-0.186434237871424     IErMin= 9 ErrMin= 3.12D-08
 ErrMax= 3.12D-08  0.00D+00 EMaxC= 1.00D-01 BMatC= 4.66D-14 BMatP= 4.03D-13
 IDIUse=1 WtCom= 1.00D+00 WtEn= 0.00D+00
 Coeff-Com:  0.897D-03-0.316D-02 0.718D-02-0.119D-01 0.255D-01-0.754D-01
 Coeff-Com:  0.266D+00-0.942D+00 0.173D+01
 Coeff:      0.897D-03-0.316D-02 0.718D-02-0.119D-01 0.255D-01-0.754D-01
 Coeff:      0.266D+00-0.942D+00 0.173D+01
 Gap=     0.573 Goal=   None    Shift=    0.000
 RMSDP=5.09D-08 MaxDP=2.17D-07 DE=-2.64D-12 OVMax= 3.71D-07

 Cycle  10  Pass 1  IDiag  3:
 E=-0.186434237871708     Delta-E=       -0.000000000000 Rises=F Damp=F
 DIIS: error= 6.61D-09 at cycle  10 NSaved=  10.
 NSaved=10 IEnMin=10 EnMin=-0.186434237871708     IErMin=10 ErrMin= 6.61D-09
 ErrMax= 6.61D-09  0.00D+00 EMaxC= 1.00D-01 BMatC= 2.68D-15 BMatP= 4.66D-14
 IDIUse=1 WtCom= 1.00D+00 WtEn= 0.00D+00
 Coeff-Com: -0.152D-03 0.539D-03-0.127D-02 0.223D-02-0.503D-02 0.170D-01
 Coeff-Com: -0.726D-01 0.333D+00-0.837D+00 0.156D+01
 Coeff:     -0.152D-03 0.539D-03-0.127D-02 0.223D-02-0.503D-02 0.170D-01
 Coeff:     -0.726D-01 0.333D+00-0.837D+00 0.156D+01
 Gap=     0.573 Goal=   None    Shift=    0.000
 RMSDP=1.15D-08 MaxDP=4.11D-08 DE=-2.84D-13 OVMax= 6.97D-08

 Cycle  11  Pass 1  IDiag  3:
 E=-0.186434237871708     Delta-E=        0.000000000000 Rises=F Damp=F
 DIIS: error= 1.63D-09 at cycle  11 NSaved=  11.
 NSaved=11 IEnMin=10 EnMin=-0.186434237871708     IErMin=11 ErrMin= 1.63D-09
 ErrMax= 1.63D-09  0.00D+00 EMaxC= 1.00D-01 BMatC= 1.19D-16 BMatP= 2.68D-15
 IDIUse=1 WtCom= 1.00D+00 WtEn= 0.00D+00
 Coeff-Com:  0.175D-04-0.635D-04 0.171D-03-0.363D-03 0.921D-03-0.394D-02
 Coeff-Com:  0.211D-01-0.117D+00 0.333D+00-0.786D+00 0.155D+01
 Coeff:      0.175D-04-0.635D-04 0.171D-03-0.363D-03 0.921D-03-0.394D-02
 Coeff:      0.211D-01-0.117D+00 0.333D+00-0.786D+00 0.155D+01
 Gap=     0.573 Goal=   None    Shift=    0.000
 RMSDP=2.10D-09 MaxDP=8.92D-09 DE= 0.00D+00 OVMax= 1.54D-08

 Cycle  12  Pass 2  IDiag  1:
 SCF Done:  E(RPM6) = -0.186434237872     A.U. after   12 cycles
            NFock= 11  Conv=0.21D-08     -V/T= 0.9975
 KE=-7.580751926554D+01 PE=-1.271500179878D+02 EE= 9.143092507988D+01
 Leave Link  502 at Tue Mar 31 17:49:17 2026, MaxMem=   536870912 cpu:               0.2 elap:               0.0
 (Enter /Users/asuyarger/Applications/G16/g16/l701.exe)
 ... and contract with generalized density number  0.
 Compute integral first derivatives.
 Leave Link  701 at Tue Mar 31 17:49:17 2026, MaxMem=   536870912 cpu:               0.2 elap:               0.0
 (Enter /Users/asuyarger/Applications/G16/g16/l702.exe)
 L702 exits ... SP integral derivatives will be done elsewhere.
 Leave Link  702 at Tue Mar 31 17:49:17 2026, MaxMem=   536870912 cpu:               0.1 elap:               0.0
 (Enter /Users/asuyarger/Applications/G16/g16/l703.exe)
 Integral derivatives from FoFJK, PRISM(SPDF).
 Compute integral first derivatives, UseDBF=F ICtDFT=           0.
 Calling FoFJK, ICntrl=      2127 FMM=F ISym2X=1 I1Cent= 0 IOpClX= 0 NMat=1 NMatS=1 NMatT=0.
 FoFJK:  IHMeth=40 ICntrl=    2127 DoSepK=F KAlg= 0 I1Cent=           0 FoldK=F
 IRaf=         0 NMat=       1 IRICut=       1 DoRegI=T DoRafI=F ISym2E= 1 IDoP0=3 IntGTp=3.
 FoFCou: FMM=F IPFlag=           0 FMFlag=      100000 FMFlg1=         800
         NFxFlg=           0 DoJE=F BraDBF=F KetDBF=F FulRan=T
         wScrn=  0.000000 ICntrl=      2127 IOpCl=  0 I1Cent=           0 NGrid=           0
         NMat0=    1 NMatS0=      1 NMatT0=    0 NMatD0=    1 NMtDS0=    0 NMtDT0=    0
 Petite list used in FoFCou.
 Leave Link  703 at Tue Mar 31 17:49:17 2026, MaxMem=   536870912 cpu:               0.1 elap:               0.0
 (Enter /Users/asuyarger/Applications/G16/g16/l716.exe)
 Dipole        =-1.51124554D-01 9.33870001D-01-1.22124533D-15
 ***** Axes restored to original set *****
 -------------------------------------------------------------------
 Center     Atomic                   Forces (Hartrees/Bohr)
 Number     Number              X              Y              Z
 -------------------------------------------------------------------
      1        6           0.001428702   -0.003086722   -0.000551013
      2        1          -0.000484895    0.000337649    0.000596898
      3        9           0.001362192    0.002096924    0.001550619
      4        9          -0.002708629    0.000657728   -0.000942232
      5        6          -0.000590092    0.003155811   -0.000858323
      6        1           0.000230729   -0.001115991   -0.000016178
      7        1           0.000462364   -0.001034098    0.000125668
      8        1           0.000299629   -0.001011301    0.000094560
 -------------------------------------------------------------------
 Cartesian Forces:  Max     0.003155811 RMS     0.001364057
 Leave Link  716 at Tue Mar 31 17:49:17 2026, MaxMem=   536870912 cpu:               0.1 elap:               0.0
 (Enter /Users/asuyarger/Applications/G16/g16/l103.exe)

 GradGradGradGradGradGradGradGradGradGradGradGradGradGradGradGradGradGrad
 Berny optimization.
 Using GEDIIS/GDIIS optimizer.
 FormGI is forming the generalized inverse of G from B-inverse, IUseBI=4.
 Internal  Forces:  Max     0.002664088 RMS     0.000988565
 Search for a local minimum.
 Step number   3 out of a maximum of   38
 All quantities printed in internal units (Hartrees-Bohrs-Radians)
 RMS Force = .98856D-03 SwitMx=.10000D-02 MixMth= 2
 Mixed Optimization -- En-DIIS/RFO-DIIS
 Update second derivatives using D2CorX and points    1    2    3
 DE= -7.30D-04 DEPred=-6.72D-04 R= 1.09D+00
 TightC=F SS=  1.41D+00  RLast= 7.41D-02 DXNew= 8.4853D-01 2.2218D-01
 Trust test= 1.09D+00 RLast= 7.41D-02 DXMaxT set to 5.05D-01
 ITU=  1  1  0
 Use linear search instead of GDIIS.
     Eigenvalues ---    0.00237   0.05144   0.05289   0.05410   0.09122
     Eigenvalues ---    0.12527   0.16000   0.16008   0.16174   0.22178
     Eigenvalues ---    0.22797   0.32306   0.37107   0.37230   0.37305
     Eigenvalues ---    0.37699   0.53851   0.55021
 RFO step:  Lambda=-1.36212912D-04 EMin= 2.36824132D-03
 Quartic linear search produced a step of  0.08082.
 Iteration  1 RMS(Cart)=  0.00686047 RMS(Int)=  0.00003753
 Iteration  2 RMS(Cart)=  0.00002742 RMS(Int)=  0.00002331
 Iteration  3 RMS(Cart)=  0.00000000 RMS(Int)=  0.00002331
 ITry= 1 IFail=0 DXMaxC= 1.71D-02 DCOld= 1.00D+10 DXMaxT= 5.05D-01 DXLimC= 3.00D+00 Rises=F
 ClnCor:  largest displacement from symmetrization is 2.19D-13 for atom     7.
 Variable       Old X    -DE/DX   Delta X   Delta X   Delta X     New X
                                 (Linear)    (Quad)   (Total)
    R1        2.10410  -0.00044   0.00153   0.00043   0.00196   2.10605
    R2        2.56720   0.00266   0.00113   0.00552   0.00664   2.57385
    R3        2.56720   0.00266   0.00113   0.00552   0.00664   2.57385
    R4        2.86714   0.00012  -0.00457  -0.00016  -0.00473   2.86241
    R5        2.07501   0.00050   0.00109   0.00254   0.00363   2.07864
    R6        2.07501   0.00050   0.00109   0.00254   0.00363   2.07864
    R7        2.07938   0.00048   0.00110   0.00256   0.00366   2.08304
    A1        1.90396  -0.00112  -0.00009  -0.00988  -0.00997   1.89399
    A2        1.90396  -0.00112  -0.00009  -0.00988  -0.00997   1.89399
    A3        2.01296   0.00022   0.00057   0.00107   0.00164   2.01460
    A4        1.76431   0.00009  -0.00131   0.00482   0.00344   1.76775
    A5        1.93108   0.00093   0.00035   0.00698   0.00729   1.93837
    A6        1.93108   0.00093   0.00035   0.00698   0.00729   1.93837
    A7        1.93738   0.00102   0.00049   0.00759   0.00805   1.94543
    A8        1.93738   0.00102   0.00049   0.00759   0.00805   1.94543
    A9        1.96103   0.00085   0.00057   0.00627   0.00681   1.96784
   A10        1.88157  -0.00099  -0.00026  -0.00642  -0.00672   1.87484
   A11        1.87138  -0.00105  -0.00069  -0.00826  -0.00897   1.86241
   A12        1.87138  -0.00105  -0.00069  -0.00826  -0.00897   1.86241
    D1       -1.04621  -0.00005  -0.00016  -0.00099  -0.00115  -1.04736
    D2        1.04621   0.00005   0.00016   0.00099   0.00115   1.04736
    D3        3.14159   0.00000   0.00000  -0.00000   0.00000  -3.14159
    D4        3.06574   0.00052  -0.00076   0.00575   0.00500   3.07074
    D5       -1.12504   0.00062  -0.00044   0.00773   0.00731  -1.11773
    D6        0.97035   0.00057  -0.00060   0.00674   0.00616   0.97651
    D7        1.12504  -0.00062   0.00044  -0.00773  -0.00731   1.11773
    D8       -3.06574  -0.00052   0.00076  -0.00575  -0.00500  -3.07074
    D9       -0.97035  -0.00057   0.00060  -0.00674  -0.00616  -0.97651
         Item               Value     Threshold  Converged?
 Maximum Force            0.002664     0.000450     NO 
 RMS     Force            0.000989     0.000300     NO 
 Maximum Displacement     0.017108     0.001800     NO 
 RMS     Displacement     0.006860     0.001200     NO 
 Predicted change in Energy=-7.319081D-05
 Lowest energy point so far.  Saving SCF results.
 GradGradGradGradGradGradGradGradGradGradGradGradGradGradGradGradGradGrad

 Leave Link  103 at Tue Mar 31 17:49:17 2026, MaxMem=   536870912 cpu:               0.0 elap:               0.0
 (Enter /Users/asuyarger/Applications/G16/g16/l202.exe)
                          Input orientation:                          
 ---------------------------------------------------------------------
 Center     Atomic      Atomic             Coordinates (Angstroms)
 Number     Number       Type             X           Y           Z
 ---------------------------------------------------------------------
      1          6           0        0.766185    0.085373   -0.029934
      2          1           0        1.093641    0.684665   -0.910659
      3          9           0        1.127399    0.748985    1.103312
      4          9           0       -0.592339    0.140990    0.050195
      5          6           0        1.254959   -1.348021   -0.000561
      6          1           0        0.905900   -1.910401   -0.879093
      7          1           0        2.353738   -1.398533    0.007521
      8          1           0        0.905831   -1.899305    0.887838
 ---------------------------------------------------------------------
                    Distance matrix (angstroms):
                    1          2          3          4          5
     1  C    0.000000
     2  H    1.114475   0.000000
     3  F    1.362021   2.015280   0.000000
     4  F    1.362021   2.015280   2.106232   0.000000
     5  C    1.514722   2.232961   2.373235   2.373235   0.000000
     6  H    2.173408   2.602040   3.324353   2.704903   1.099969
     7  H    2.173408   2.602040   2.704903   3.324353   1.099969
     8  H    2.191062   3.153850   2.666264   2.666264   1.102297
                    6          7          8
     6  H    0.000000
     7  H    1.773226   0.000000
     8  H    1.766966   1.766966   0.000000
 Stoichiometry    C2H4F2
 Framework group  CS[SG(C2H2),X(H2F2)]
 Deg. of freedom    11
 Full point group                 CS      NOp   2
 RotChk:  IX=2 Diff= 1.69D-02
 Largest Abelian subgroup         CS      NOp   2
 Largest concise Abelian subgroup CS      NOp   2
                         Standard orientation:                         
 ---------------------------------------------------------------------
 Center     Atomic      Atomic             Coordinates (Angstroms)
 Number     Number       Type             X           Y           Z
 ---------------------------------------------------------------------
      1          6           0        0.331721    0.192965   -0.000000
      2          1           0        1.296357    0.751116   -0.000000
      3          9           0        0.331721   -0.670776   -1.053116
      4          9           0        0.331721   -0.670776    1.053116
      5          6           0       -0.916335    1.051300    0.000000
      6          1           0       -0.958027    1.701001    0.886613
      7          1           0       -0.958027    1.701001   -0.886613
      8          1           0       -1.843585    0.455259    0.000000
 ---------------------------------------------------------------------
 Rotational constants (GHZ):          10.0884446           8.5243190           5.2294030
 Leave Link  202 at Tue Mar 31 17:49:17 2026, MaxMem=   536870912 cpu:               0.0 elap:               0.0
 (Enter /Users/asuyarger/Applications/G16/g16/l301.exe)
 Standard basis: VSTO-6G (5D, 7F)
 Ernie: Thresh=  0.10000D-02 Tol=  0.10000D-05 Strict=F.
  NNHCO=     0 NNPyr=     0 NCTC=     0               EPep=         0.000000000
    EC=        64.334504042  ECS=         1.287732063   EG=         0.128061078
   EHC=         0.000348308  EAt=       -44.529382042  AtH=         0.936986650
 EPDDG=         0.000000000  ECC=        65.750645491 EAtT=        45.466368692
 There are    13 symmetry adapted cartesian basis functions of A'  symmetry.
 There are     7 symmetry adapted cartesian basis functions of A"  symmetry.
 There are    13 symmetry adapted basis functions of A'  symmetry.
 There are     7 symmetry adapted basis functions of A"  symmetry.
    20 basis functions,   120 primitive gaussians,    20 cartesian basis functions
    13 alpha electrons       13 beta electrons
       nuclear repulsion energy       111.2170141833 Hartrees.
 IExCor=    0 DFT=F Ex=HF Corr=None ExCW=0 ScaHFX=  1.000000
 ScaDFX=  1.000000  1.000000  1.000000  1.000000 ScalE2=  1.000000  1.000000
 IRadAn=      5 IRanWt=     -1 IRanGd=            0 ICorTp=0 IEmpDi=  4
 Integral buffers will be    131072 words long.
 Regular integral format.
 Two-electron integral symmetry is turned off.
 Leave Link  301 at Tue Mar 31 17:49:17 2026, MaxMem=   536870912 cpu:               0.1 elap:               0.0
 (Enter /Users/asuyarger/Applications/G16/g16/l302.exe)
 Do NDO integrals.
 NPDir=0 NMtPBC=     1 NCelOv=     1 NCel=       1 NClECP=     1 NCelD=      1
         NCelK=      1 NCelE2=     1 NClLst=     1 CellRange=     0.0.
 One-electron integrals computed using PRISM.
 NBasis=    20 RedAO= T EigKep=  1.00D+00  NBF=    13     7
 NBsUse=    20 1.00D-06 EigRej= -1.00D+00 NBFU=    13     7
 Leave Link  302 at Tue Mar 31 17:49:17 2026, MaxMem=   536870912 cpu:               0.2 elap:               0.1
 (Enter /Users/asuyarger/Applications/G16/g16/l303.exe)
 DipDrv:  MaxL=1.
 Leave Link  303 at Tue Mar 31 17:49:17 2026, MaxMem=   536870912 cpu:               0.1 elap:               0.0
 (Enter /Users/asuyarger/Applications/G16/g16/l401.exe)
 Initial guess from the checkpoint file:  "11Difluoroethane_Opt_Freq_PM6_Gaussian16.chk"
 B after Tr=    -0.000000    0.000000    0.000000
         Rot=    0.999987    0.000000   -0.000000    0.005098 Ang=   0.58 deg.
 Guess basis will be translated and rotated to current coordinates.
 JPrj=0 DoOrth=T DoCkMO=T.
 Initial guess orbital symmetries:
       Occupied  (A') (A") (A') (A') (A') (A") (A') (A") (A") (A')
                 (A") (A') (A')
       Virtual   (A") (A') (A') (A') (A") (A') (A')
 The electronic state of the initial guess is 1-A'.
 Leave Link  401 at Tue Mar 31 17:49:17 2026, MaxMem=   536870912 cpu:               0.2 elap:               0.0
 (Enter /Users/asuyarger/Applications/G16/g16/l502.exe)
 Keep J ints in memory in canonical form, NReq=860217.
 FoFCou: FMM=F IPFlag=           0 FMFlag=           0 FMFlg1=           0
         NFxFlg=           0 DoJE=F BraDBF=F KetDBF=F FulRan=T
         wScrn=  0.000000 ICntrl=       600 IOpCl=  2 I1Cent=           0 NGrid=           0
         NMat0=    1 NMatS0=     44 NMatT0=    0 NMatD0=    1 NMtDS0=    0 NMtDT0=    0
 Symmetry not used in FoFCou.
 Two-electron integral symmetry not used.
 Closed shell SCF:
 Using DIIS extrapolation, IDIIS=  1040.
 Overlap will be assumed to be unity.
 NGot=   536870912 LenX=   536809510 LenY=   536808628
 Requested convergence on RMS density matrix=1.00D-08 within 128 cycles.
 Requested convergence on MAX density matrix=1.00D-06.
 Requested convergence on             energy=1.00D-06.
 No special actions if energy rises.

 Cycle   1  Pass 1  IDiag  1:
 E=-0.186428595878752    
 DIIS: error= 6.56D-04 at cycle   1 NSaved=   1.
 NSaved= 1 IEnMin= 1 EnMin=-0.186428595878752     IErMin= 1 ErrMin= 6.56D-04
 ErrMax= 6.56D-04  0.00D+00 EMaxC= 1.00D-01 BMatC= 1.62D-05 BMatP= 1.62D-05
 IDIUse=3 WtCom= 9.93D-01 WtEn= 6.56D-03
 Coeff-Com:  0.100D+01
 Coeff-En:   0.100D+01
 Coeff:      0.100D+01
 RMSDP=3.29D-04 MaxDP=1.37D-03              OVMax= 0.00D+00

 Cycle   2  Pass 1  IDiag  3:
 E=-0.186479562586072     Delta-E=       -0.000050966707 Rises=F Damp=F
 DIIS: error= 2.29D-04 at cycle   2 NSaved=   2.
 NSaved= 2 IEnMin= 2 EnMin=-0.186479562586072     IErMin= 2 ErrMin= 2.29D-04
 ErrMax= 2.29D-04  0.00D+00 EMaxC= 1.00D-01 BMatC= 2.78D-06 BMatP= 1.62D-05
 IDIUse=3 WtCom= 9.98D-01 WtEn= 2.29D-03
 Coeff-Com: -0.524D+00 0.152D+01
 Coeff-En:   0.000D+00 0.100D+01
 Coeff:     -0.523D+00 0.152D+01
 Fock symm off for IB=2 I1=    1 I=   14 J=    8 Cut=1.00D-07 Err=1.26D-03
 Fock matrix is not symmetric: symmetry in diagonalization turned off.
 Gap=     0.572 Goal=   None    Shift=    0.000
 RMSDP=2.37D-04 MaxDP=1.01D-03 DE=-5.10D-05 OVMax= 1.82D-03

 Cycle   3  Pass 1  IDiag  3:
 E=-0.186493642096608     Delta-E=       -0.000014079511 Rises=F Damp=F
 DIIS: error= 1.01D-04 at cycle   3 NSaved=   3.
 NSaved= 3 IEnMin= 3 EnMin=-0.186493642096608     IErMin= 3 ErrMin= 1.01D-04
 ErrMax= 1.01D-04  0.00D+00 EMaxC= 1.00D-01 BMatC= 3.22D-07 BMatP= 2.78D-06
 IDIUse=3 WtCom= 9.99D-01 WtEn= 1.01D-03
 Coeff-Com:  0.425D+00-0.142D+01 0.199D+01
 Coeff-En:   0.000D+00 0.000D+00 0.100D+01
 Coeff:      0.424D+00-0.142D+01 0.199D+01
 Gap=     0.572 Goal=   None    Shift=    0.000
 RMSDP=1.27D-04 MaxDP=6.43D-04 DE=-1.41D-05 OVMax= 1.15D-03

 Cycle   4  Pass 1  IDiag  3:
 E=-0.186496065327717     Delta-E=       -0.000002423231 Rises=F Damp=F
 DIIS: error= 2.12D-05 at cycle   4 NSaved=   4.
 NSaved= 4 IEnMin= 4 EnMin=-0.186496065327717     IErMin= 4 ErrMin= 2.12D-05
 ErrMax= 2.12D-05  0.00D+00 EMaxC= 1.00D-01 BMatC= 2.21D-08 BMatP= 3.22D-07
 IDIUse=1 WtCom= 1.00D+00 WtEn= 0.00D+00
 Coeff-Com: -0.254D+00 0.867D+00-0.142D+01 0.181D+01
 Coeff:     -0.254D+00 0.867D+00-0.142D+01 0.181D+01
 Gap=     0.572 Goal=   None    Shift=    0.000
 RMSDP=3.89D-05 MaxDP=1.72D-04 DE=-2.42D-06 OVMax= 3.12D-04

 Cycle   5  Pass 1  IDiag  3:
 E=-0.186496240981384     Delta-E=       -0.000000175654 Rises=F Damp=F
 DIIS: error= 4.85D-06 at cycle   5 NSaved=   5.
 NSaved= 5 IEnMin= 5 EnMin=-0.186496240981384     IErMin= 5 ErrMin= 4.85D-06
 ErrMax= 4.85D-06  0.00D+00 EMaxC= 1.00D-01 BMatC= 6.44D-10 BMatP= 2.21D-08
 IDIUse=1 WtCom= 1.00D+00 WtEn= 0.00D+00
 Coeff-Com:  0.110D+00-0.376D+00 0.629D+00-0.908D+00 0.155D+01
 Coeff:      0.110D+00-0.376D+00 0.629D+00-0.908D+00 0.155D+01
 Gap=     0.572 Goal=   None    Shift=    0.000
 RMSDP=5.56D-06 MaxDP=1.76D-05 DE=-1.76D-07 OVMax= 4.88D-05

 Cycle   6  Pass 1  IDiag  3:
 E=-0.186496245223268     Delta-E=       -0.000000004242 Rises=F Damp=F
 DIIS: error= 7.22D-07 at cycle   6 NSaved=   6.
 NSaved= 6 IEnMin= 6 EnMin=-0.186496245223268     IErMin= 6 ErrMin= 7.22D-07
 ErrMax= 7.22D-07  0.00D+00 EMaxC= 1.00D-01 BMatC= 2.48D-11 BMatP= 6.44D-10
 IDIUse=1 WtCom= 1.00D+00 WtEn= 0.00D+00
 Coeff-Com: -0.438D-01 0.150D+00-0.253D+00 0.372D+00-0.749D+00 0.152D+01
 Coeff:     -0.438D-01 0.150D+00-0.253D+00 0.372D+00-0.749D+00 0.152D+01
 Gap=     0.572 Goal=   None    Shift=    0.000
 RMSDP=9.49D-07 MaxDP=4.19D-06 DE=-4.24D-09 OVMax= 5.69D-06

 Cycle   7  Pass 1  IDiag  3:
 E=-0.186496245372496     Delta-E=       -0.000000000149 Rises=F Damp=F
 DIIS: error= 1.97D-07 at cycle   7 NSaved=   7.
 NSaved= 7 IEnMin= 7 EnMin=-0.186496245372496     IErMin= 7 ErrMin= 1.97D-07
 ErrMax= 1.97D-07  0.00D+00 EMaxC= 1.00D-01 BMatC= 1.81D-12 BMatP= 2.48D-11
 IDIUse=1 WtCom= 1.00D+00 WtEn= 0.00D+00
 Coeff-Com:  0.253D-01-0.869D-01 0.146D+00-0.216D+00 0.446D+00-0.105D+01
 Coeff-Com:  0.173D+01
 Coeff:      0.253D-01-0.869D-01 0.146D+00-0.216D+00 0.446D+00-0.105D+01
 Coeff:      0.173D+01
 Gap=     0.572 Goal=   None    Shift=    0.000
 RMSDP=2.66D-07 MaxDP=1.40D-06 DE=-1.49D-10 OVMax= 2.04D-06

 Cycle   8  Pass 1  IDiag  3:
 E=-0.186496245384703     Delta-E=       -0.000000000012 Rises=F Damp=F
 DIIS: error= 6.21D-08 at cycle   8 NSaved=   8.
 NSaved= 8 IEnMin= 8 EnMin=-0.186496245384703     IErMin= 8 ErrMin= 6.21D-08
 ErrMax= 6.21D-08  0.00D+00 EMaxC= 1.00D-01 BMatC= 1.67D-13 BMatP= 1.81D-12
 IDIUse=1 WtCom= 1.00D+00 WtEn= 0.00D+00
 Coeff-Com: -0.132D-01 0.452D-01-0.760D-01 0.112D+00-0.233D+00 0.569D+00
 Coeff-Com: -0.119D+01 0.179D+01
 Coeff:     -0.132D-01 0.452D-01-0.760D-01 0.112D+00-0.233D+00 0.569D+00
 Coeff:     -0.119D+01 0.179D+01
 Gap=     0.572 Goal=   None    Shift=    0.000
 RMSDP=9.70D-08 MaxDP=5.16D-07 DE=-1.22D-11 OVMax= 7.56D-07

 Cycle   9  Pass 1  IDiag  3:
 E=-0.186496245386124     Delta-E=       -0.000000000001 Rises=F Damp=F
 DIIS: error= 8.40D-09 at cycle   9 NSaved=   9.
 NSaved= 9 IEnMin= 9 EnMin=-0.186496245386124     IErMin= 9 ErrMin= 8.40D-09
 ErrMax= 8.40D-09  0.00D+00 EMaxC= 1.00D-01 BMatC= 4.77D-15 BMatP= 1.67D-13
 IDIUse=1 WtCom= 1.00D+00 WtEn= 0.00D+00
 Coeff-Com:  0.404D-02-0.139D-01 0.233D-01-0.346D-01 0.718D-01-0.178D+00
 Coeff-Com:  0.396D+00-0.724D+00 0.145D+01
 Coeff:      0.404D-02-0.139D-01 0.233D-01-0.346D-01 0.718D-01-0.178D+00
 Coeff:      0.396D+00-0.724D+00 0.145D+01
 Gap=     0.572 Goal=   None    Shift=    0.000
 RMSDP=1.40D-08 MaxDP=7.06D-08 DE=-1.42D-12 OVMax= 7.93D-08

 Cycle  10  Pass 1  IDiag  3:
 E=-0.186496245386067     Delta-E=        0.000000000000 Rises=F Damp=F
 DIIS: error= 1.84D-09 at cycle  10 NSaved=  10.
 NSaved=10 IEnMin= 9 EnMin=-0.186496245386124     IErMin=10 ErrMin= 1.84D-09
 ErrMax= 1.84D-09  0.00D+00 EMaxC= 1.00D-01 BMatC= 1.62D-16 BMatP= 4.77D-15
 IDIUse=1 WtCom= 1.00D+00 WtEn= 0.00D+00
 Coeff-Com: -0.986D-03 0.339D-02-0.570D-02 0.848D-02-0.175D-01 0.436D-01
 Coeff-Com: -0.100D+00 0.197D+00-0.514D+00 0.139D+01
 Coeff:     -0.986D-03 0.339D-02-0.570D-02 0.848D-02-0.175D-01 0.436D-01
 Coeff:     -0.100D+00 0.197D+00-0.514D+00 0.139D+01
 Gap=     0.572 Goal=   None    Shift=    0.000
 RMSDP=2.08D-09 MaxDP=9.44D-09 DE= 5.68D-14 OVMax= 1.16D-08

 Cycle  11  Pass 2  IDiag  1:
 SCF Done:  E(RPM6) = -0.186496245386     A.U. after   11 cycles
            NFock= 10  Conv=0.21D-08     -V/T= 0.9975
 KE=-7.580493258951D+01 PE=-1.269237978953D+02 EE= 9.132522005613D+01
 Leave Link  502 at Tue Mar 31 17:49:17 2026, MaxMem=   536870912 cpu:               0.1 elap:               0.0
 (Enter /Users/asuyarger/Applications/G16/g16/l701.exe)
 ... and contract with generalized density number  0.
 Compute integral first derivatives.
 Leave Link  701 at Tue Mar 31 17:49:17 2026, MaxMem=   536870912 cpu:               0.1 elap:               0.0
 (Enter /Users/asuyarger/Applications/G16/g16/l702.exe)
 L702 exits ... SP integral derivatives will be done elsewhere.
 Leave Link  702 at Tue Mar 31 17:49:17 2026, MaxMem=   536870912 cpu:               0.1 elap:               0.0
 (Enter /Users/asuyarger/Applications/G16/g16/l703.exe)
 Integral derivatives from FoFJK, PRISM(SPDF).
 Compute integral first derivatives, UseDBF=F ICtDFT=           0.
 Calling FoFJK, ICntrl=      2127 FMM=F ISym2X=1 I1Cent= 0 IOpClX= 0 NMat=1 NMatS=1 NMatT=0.
 FoFJK:  IHMeth=40 ICntrl=    2127 DoSepK=F KAlg= 0 I1Cent=           0 FoldK=F
 IRaf=         0 NMat=       1 IRICut=       1 DoRegI=T DoRafI=F ISym2E= 1 IDoP0=3 IntGTp=3.
 FoFCou: FMM=F IPFlag=           0 FMFlag=      100000 FMFlg1=         800
         NFxFlg=           0 DoJE=F BraDBF=F KetDBF=F FulRan=T
         wScrn=  0.000000 ICntrl=      2127 IOpCl=  0 I1Cent=           0 NGrid=           0
         NMat0=    1 NMatS0=      1 NMatT0=    0 NMatD0=    1 NMtDS0=    0 NMtDT0=    0
 Petite list used in FoFCou.
 Leave Link  703 at Tue Mar 31 17:49:17 2026, MaxMem=   536870912 cpu:               0.1 elap:               0.0
 (Enter /Users/asuyarger/Applications/G16/g16/l716.exe)
 Dipole        =-1.59611522D-01 9.44802532D-01 1.77635684D-15
 ***** Axes restored to original set *****
 -------------------------------------------------------------------
 Center     Atomic                   Forces (Hartrees/Bohr)
 Number     Number              X              Y              Z
 -------------------------------------------------------------------
      1        6          -0.000032502    0.000145554   -0.000030958
      2        1          -0.000215085   -0.000282202    0.000514157
      3        9          -0.000480406   -0.000617044   -0.000798815
      4        9           0.001103241   -0.000057162    0.000170964
      5        6          -0.000237191    0.000578114    0.000053571
      6        1           0.000143356    0.000156664    0.000383762
      7        1          -0.000434978   -0.000047800    0.000029607
      8        1           0.000153564    0.000123876   -0.000322288
 -------------------------------------------------------------------
 Cartesian Forces:  Max     0.001103241 RMS     0.000399667
 Leave Link  716 at Tue Mar 31 17:49:18 2026, MaxMem=   536870912 cpu:               0.1 elap:               0.0
 (Enter /Users/asuyarger/Applications/G16/g16/l103.exe)

 GradGradGradGradGradGradGradGradGradGradGradGradGradGradGradGradGradGrad
 Berny optimization.
 Using GEDIIS/GDIIS optimizer.
 FormGI is forming the generalized inverse of G from B-inverse, IUseBI=4.
 Internal  Forces:  Max     0.001092685 RMS     0.000391567
 Search for a local minimum.
 Step number   4 out of a maximum of   38
 All quantities printed in internal units (Hartrees-Bohrs-Radians)
 RMS Force = .39157D-03 SwitMx=.10000D-02 MixMth= 2
 Mixed Optimization -- En-DIIS/RFO-DIIS
 Swapping is turned off.
 Update second derivatives using D2CorX and points    1    2    3    4
 DE= -6.20D-05 DEPred=-7.32D-05 R= 8.47D-01
 TightC=F SS=  1.41D+00  RLast= 3.30D-02 DXNew= 8.4853D-01 9.9101D-02
 Trust test= 8.47D-01 RLast= 3.30D-02 DXMaxT set to 5.05D-01
 ITU=  1  1  1  0
     Eigenvalues ---    0.00237   0.05125   0.05216   0.05307   0.09045
     Eigenvalues ---    0.11096   0.16000   0.16002   0.16157   0.22181
     Eigenvalues ---    0.22796   0.33109   0.37162   0.37230   0.37244
     Eigenvalues ---    0.40155   0.55021   0.60515
 En-DIIS/RFO-DIIS/Sim-DIIS IScMMF=       -3 using points:     4    3
 RFO step:  Lambda=-9.76316716D-06.
 NNeg= 0 NGDIIS= 2 SimSw=  2.50D-01 Rises=F DC= -6.20D-05 SmlDif=  1.00D-05
 NRisDI= 0 DoIntr=F SqrtH=F CThrHd= 10.0 CDAdj=  3.0
 RMS Error=  0.1099484594D-02 NUsed= 2 OKEnD=T EnDIS=F
 InvSVX:  RCond= 1.23D-03 Info=           0 Equed=N FErr=  9.74D-16 BErr=  1.04D-17
 DidBck=F Rises=F RFO-DIIS coefs:    0.95822    0.04178
 Iteration  1 RMS(Cart)=  0.00115160 RMS(Int)=  0.00000105
 Iteration  2 RMS(Cart)=  0.00000089 RMS(Int)=  0.00000072
 ITry= 1 IFail=0 DXMaxC= 2.68D-03 DCOld= 1.00D+10 DXMaxT= 5.05D-01 DXLimC= 3.00D+00 Rises=F
 ClnCor:  largest displacement from symmetrization is 3.70D-10 for atom     4.
 Variable       Old X    -DE/DX   Delta X   Delta X   Delta X     New X
                                 (Linear)    (Quad)   (Total)
    R1        2.10605  -0.00062  -0.00008  -0.00153  -0.00161   2.10444
    R2        2.57385  -0.00109  -0.00028  -0.00128  -0.00156   2.57229
    R3        2.57385  -0.00109  -0.00028  -0.00128  -0.00156   2.57229
    R4        2.86241  -0.00089   0.00020  -0.00272  -0.00253   2.85988
    R5        2.07864  -0.00043  -0.00015  -0.00086  -0.00101   2.07763
    R6        2.07864  -0.00043  -0.00015  -0.00086  -0.00101   2.07763
    R7        2.08304  -0.00037  -0.00015  -0.00071  -0.00086   2.08217
    A1        1.89399   0.00005   0.00042  -0.00014   0.00027   1.89427
    A2        1.89399   0.00005   0.00042  -0.00014   0.00027   1.89427
    A3        2.01460   0.00019  -0.00007   0.00163   0.00156   2.01616
    A4        1.76775  -0.00014  -0.00014  -0.00134  -0.00149   1.76626
    A5        1.93837  -0.00009  -0.00030  -0.00019  -0.00050   1.93788
    A6        1.93837  -0.00009  -0.00030  -0.00019  -0.00050   1.93788
    A7        1.94543   0.00007  -0.00034   0.00109   0.00075   1.94618
    A8        1.94543   0.00007  -0.00034   0.00109   0.00075   1.94618
    A9        1.96784   0.00007  -0.00028   0.00079   0.00051   1.96835
   A10        1.87484  -0.00005   0.00028  -0.00068  -0.00039   1.87445
   A11        1.86241  -0.00008   0.00037  -0.00127  -0.00089   1.86152
   A12        1.86241  -0.00008   0.00037  -0.00127  -0.00089   1.86152
    D1       -1.04736  -0.00001   0.00005  -0.00031  -0.00026  -1.04762
    D2        1.04736   0.00001  -0.00005   0.00031   0.00026   1.04762
    D3       -3.14159   0.00000  -0.00000  -0.00000  -0.00000   3.14159
    D4        3.07074  -0.00015  -0.00021  -0.00124  -0.00145   3.06930
    D5       -1.11773  -0.00013  -0.00031  -0.00062  -0.00092  -1.11865
    D6        0.97651  -0.00014  -0.00026  -0.00093  -0.00118   0.97532
    D7        1.11773   0.00013   0.00031   0.00062   0.00092   1.11865
    D8       -3.07074   0.00015   0.00021   0.00124   0.00145  -3.06930
    D9       -0.97651   0.00014   0.00026   0.00093   0.00118  -0.97532
         Item               Value     Threshold  Converged?
 Maximum Force            0.001093     0.000450     NO 
 RMS     Force            0.000392     0.000300     NO 
 Maximum Displacement     0.002684     0.001800     NO 
 RMS     Displacement     0.001152     0.001200     YES
 Predicted change in Energy=-4.881538D-06
 Lowest energy point so far.  Saving SCF results.
 GradGradGradGradGradGradGradGradGradGradGradGradGradGradGradGradGradGrad

 Leave Link  103 at Tue Mar 31 17:49:18 2026, MaxMem=   536870912 cpu:               0.0 elap:               0.0
 (Enter /Users/asuyarger/Applications/G16/g16/l202.exe)
                          Input orientation:                          
 ---------------------------------------------------------------------
 Center     Atomic      Atomic             Coordinates (Angstroms)
 Number     Number       Type             X           Y           Z
 ---------------------------------------------------------------------
      1          6           0        0.766717    0.085092   -0.030640
      2          1           0        1.093302    0.684913   -0.910247
      3          9           0        1.126733    0.747647    1.102617
      4          9           0       -0.590919    0.140389    0.050778
      5          6           0        1.254742   -1.347134   -0.000719
      6          1           0        0.906009   -1.910224   -0.878256
      7          1           0        2.352936   -1.398678    0.007799
      8          1           0        0.905795   -1.898252    0.887288
 ---------------------------------------------------------------------
                    Distance matrix (angstroms):
                    1          2          3          4          5
     1  C    0.000000
     2  H    1.113621   0.000000
     3  F    1.361198   2.014119   0.000000
     4  F    1.361198   2.014119   2.103676   0.000000
     5  C    1.513385   2.232155   2.371042   2.371042   0.000000
     6  H    2.172359   2.602083   3.322176   2.703500   1.099435
     7  H    2.172359   2.602083   2.703500   3.322176   1.099435
     8  H    2.189882   3.152622   2.663824   2.663824   1.101839
                    6          7          8
     6  H    0.000000
     7  H    1.772109   0.000000
     8  H    1.765585   1.765585   0.000000
 Stoichiometry    C2H4F2
 Framework group  CS[SG(C2H2),X(H2F2)]
 Deg. of freedom    11
 Full point group                 CS      NOp   2
 RotChk:  IX=2 Diff= 1.51D-03
 Largest Abelian subgroup         CS      NOp   2
 Largest concise Abelian subgroup CS      NOp   2
                         Standard orientation:                         
 ---------------------------------------------------------------------
 Center     Atomic      Atomic             Coordinates (Angstroms)
 Number     Number       Type             X           Y           Z
 ---------------------------------------------------------------------
      1          6           0        0.331869    0.193850   -0.000000
      2          1           0        1.295795    0.751524   -0.000000
      3          9           0        0.331869   -0.670151   -1.051838
      4          9           0        0.331869   -0.670151    1.051838
      5          6           0       -0.916376    1.049547    0.000000
      6          1           0       -0.959877    1.698988    0.886055
      7          1           0       -0.959877    1.698988   -0.886055
      8          1           0       -1.842646    0.452827    0.000000
 ---------------------------------------------------------------------
 Rotational constants (GHZ):          10.1088243           8.5355984           5.2394767
 Leave Link  202 at Tue Mar 31 17:49:18 2026, MaxMem=   536870912 cpu:               0.0 elap:               0.0
 (Enter /Users/asuyarger/Applications/G16/g16/l301.exe)
 Standard basis: VSTO-6G (5D, 7F)
 Ernie: Thresh=  0.10000D-02 Tol=  0.10000D-05 Strict=F.
  NNHCO=     0 NNPyr=     0 NCTC=     0               EPep=         0.000000000
    EC=        64.371143578  ECS=         1.291013456   EG=         0.128124911
   EHC=         0.000350799  EAt=       -44.529382042  AtH=         0.936986650
 EPDDG=         0.000000000  ECC=        65.790632744 EAtT=        45.466368692
 There are    13 symmetry adapted cartesian basis functions of A'  symmetry.
 There are     7 symmetry adapted cartesian basis functions of A"  symmetry.
 There are    13 symmetry adapted basis functions of A'  symmetry.
 There are     7 symmetry adapted basis functions of A"  symmetry.
    20 basis functions,   120 primitive gaussians,    20 cartesian basis functions
    13 alpha electrons       13 beta electrons
       nuclear repulsion energy       111.2570014355 Hartrees.
 IExCor=    0 DFT=F Ex=HF Corr=None ExCW=0 ScaHFX=  1.000000
 ScaDFX=  1.000000  1.000000  1.000000  1.000000 ScalE2=  1.000000  1.000000
 IRadAn=      5 IRanWt=     -1 IRanGd=            0 ICorTp=0 IEmpDi=  4
 Integral buffers will be    131072 words long.
 Regular integral format.
 Two-electron integral symmetry is turned off.
 Leave Link  301 at Tue Mar 31 17:49:18 2026, MaxMem=   536870912 cpu:               0.1 elap:               0.0
 (Enter /Users/asuyarger/Applications/G16/g16/l302.exe)
 Do NDO integrals.
 NPDir=0 NMtPBC=     1 NCelOv=     1 NCel=       1 NClECP=     1 NCelD=      1
         NCelK=      1 NCelE2=     1 NClLst=     1 CellRange=     0.0.
 One-electron integrals computed using PRISM.
 NBasis=    20 RedAO= T EigKep=  1.00D+00  NBF=    13     7
 NBsUse=    20 1.00D-06 EigRej= -1.00D+00 NBFU=    13     7
 Leave Link  302 at Tue Mar 31 17:49:18 2026, MaxMem=   536870912 cpu:               0.2 elap:               0.1
 (Enter /Users/asuyarger/Applications/G16/g16/l303.exe)
 DipDrv:  MaxL=1.
 Leave Link  303 at Tue Mar 31 17:49:18 2026, MaxMem=   536870912 cpu:               0.1 elap:               0.0
 (Enter /Users/asuyarger/Applications/G16/g16/l401.exe)
 Initial guess from the checkpoint file:  "11Difluoroethane_Opt_Freq_PM6_Gaussian16.chk"
 B after Tr=    -0.000000    0.000000    0.000000
         Rot=    1.000000    0.000000    0.000000   -0.000446 Ang=  -0.05 deg.
 Guess basis will be translated and rotated to current coordinates.
 JPrj=0 DoOrth=T DoCkMO=T.
 Initial guess orbital symmetries:
       Occupied  (A') (A") (A') (A') (A') (A") (A') (A") (A") (A')
                 (A") (A') (A')
       Virtual   (A") (A') (A') (A') (A") (A') (A')
 The electronic state of the initial guess is 1-A'.
 Leave Link  401 at Tue Mar 31 17:49:18 2026, MaxMem=   536870912 cpu:               0.2 elap:               0.0
 (Enter /Users/asuyarger/Applications/G16/g16/l502.exe)
 Keep J ints in memory in canonical form, NReq=860217.
 FoFCou: FMM=F IPFlag=           0 FMFlag=           0 FMFlg1=           0
         NFxFlg=           0 DoJE=F BraDBF=F KetDBF=F FulRan=T
         wScrn=  0.000000 ICntrl=       600 IOpCl=  2 I1Cent=           0 NGrid=           0
         NMat0=    1 NMatS0=     44 NMatT0=    0 NMatD0=    1 NMtDS0=    0 NMtDT0=    0
 Symmetry not used in FoFCou.
 Two-electron integral symmetry not used.
 Closed shell SCF:
 Using DIIS extrapolation, IDIIS=  1040.
 Overlap will be assumed to be unity.
 NGot=   536870912 LenX=   536809510 LenY=   536808628
 Requested convergence on RMS density matrix=1.00D-08 within 128 cycles.
 Requested convergence on MAX density matrix=1.00D-06.
 Requested convergence on             energy=1.00D-06.
 No special actions if energy rises.

 Cycle   1  Pass 1  IDiag  1:
 E=-0.186499260758239    
 DIIS: error= 8.97D-05 at cycle   1 NSaved=   1.
 NSaved= 1 IEnMin= 1 EnMin=-0.186499260758239     IErMin= 1 ErrMin= 8.97D-05
 ErrMax= 8.97D-05  0.00D+00 EMaxC= 1.00D-01 BMatC= 4.91D-07 BMatP= 4.91D-07
 IDIUse=1 WtCom= 1.00D+00 WtEn= 0.00D+00
 Coeff-Com:  0.100D+01
 Coeff:      0.100D+01
 RMSDP=5.46D-05 MaxDP=2.03D-04              OVMax= 0.00D+00

 Cycle   2  Pass 1  IDiag  3:
 E=-0.186500702244373     Delta-E=       -0.000001441486 Rises=F Damp=F
 DIIS: error= 3.70D-05 at cycle   2 NSaved=   2.
 NSaved= 2 IEnMin= 2 EnMin=-0.186500702244373     IErMin= 2 ErrMin= 3.70D-05
 ErrMax= 3.70D-05  0.00D+00 EMaxC= 1.00D-01 BMatC= 7.67D-08 BMatP= 4.91D-07
 IDIUse=1 WtCom= 1.00D+00 WtEn= 0.00D+00
 Coeff-Com: -0.481D+00 0.148D+01
 Coeff:     -0.481D+00 0.148D+01
 Fock symm off for IB=2 I1=    1 I=   14 J=    9 Cut=1.00D-07 Err=1.41D-04
 Fock matrix is not symmetric: symmetry in diagonalization turned off.
 Gap=     0.573 Goal=   None    Shift=    0.000
 RMSDP=3.81D-05 MaxDP=1.53D-04 DE=-1.44D-06 OVMax= 2.14D-04

 Cycle   3  Pass 1  IDiag  3:
 E=-0.186501076192343     Delta-E=       -0.000000373948 Rises=F Damp=F
 DIIS: error= 1.47D-05 at cycle   3 NSaved=   3.
 NSaved= 3 IEnMin= 3 EnMin=-0.186501076192343     IErMin= 3 ErrMin= 1.47D-05
 ErrMax= 1.47D-05  0.00D+00 EMaxC= 1.00D-01 BMatC= 8.39D-09 BMatP= 7.67D-08
 IDIUse=1 WtCom= 1.00D+00 WtEn= 0.00D+00
 Coeff-Com:  0.367D+00-0.130D+01 0.194D+01
 Coeff:      0.367D+00-0.130D+01 0.194D+01
 Gap=     0.573 Goal=   None    Shift=    0.000
 RMSDP=1.98D-05 MaxDP=9.55D-05 DE=-3.74D-07 OVMax= 1.31D-04

 Cycle   4  Pass 1  IDiag  3:
 E=-0.186501135180990     Delta-E=       -0.000000058989 Rises=F Damp=F
 DIIS: error= 3.39D-06 at cycle   4 NSaved=   4.
 NSaved= 4 IEnMin= 4 EnMin=-0.186501135180990     IErMin= 4 ErrMin= 3.39D-06
 ErrMax= 3.39D-06  0.00D+00 EMaxC= 1.00D-01 BMatC= 4.81D-10 BMatP= 8.39D-09
 IDIUse=1 WtCom= 1.00D+00 WtEn= 0.00D+00
 Coeff-Com: -0.197D+00 0.718D+00-0.123D+01 0.171D+01
 Coeff:     -0.197D+00 0.718D+00-0.123D+01 0.171D+01
 Gap=     0.573 Goal=   None    Shift=    0.000
 RMSDP=4.92D-06 MaxDP=2.31D-05 DE=-5.90D-08 OVMax= 3.28D-05

 Cycle   5  Pass 1  IDiag  3:
 E=-0.186501138573846     Delta-E=       -0.000000003393 Rises=F Damp=F
 DIIS: error= 8.59D-07 at cycle   5 NSaved=   5.
 NSaved= 5 IEnMin= 5 EnMin=-0.186501138573846     IErMin= 5 ErrMin= 8.59D-07
 ErrMax= 8.59D-07  0.00D+00 EMaxC= 1.00D-01 BMatC= 2.27D-11 BMatP= 4.81D-10
 IDIUse=1 WtCom= 1.00D+00 WtEn= 0.00D+00
 Coeff-Com:  0.863D-01-0.317D+00 0.560D+00-0.935D+00 0.161D+01
 Coeff:      0.863D-01-0.317D+00 0.560D+00-0.935D+00 0.161D+01
 Gap=     0.573 Goal=   None    Shift=    0.000
 RMSDP=1.03D-06 MaxDP=3.67D-06 DE=-3.39D-09 OVMax= 6.36D-06

 Cycle   6  Pass 1  IDiag  3:
 E=-0.186501138721638     Delta-E=       -0.000000000148 Rises=F Damp=F
 DIIS: error= 1.22D-07 at cycle   6 NSaved=   6.
 NSaved= 6 IEnMin= 6 EnMin=-0.186501138721638     IErMin= 6 ErrMin= 1.22D-07
 ErrMax= 1.22D-07  0.00D+00 EMaxC= 1.00D-01 BMatC= 7.78D-13 BMatP= 2.27D-11
 IDIUse=1 WtCom= 1.00D+00 WtEn= 0.00D+00
 Coeff-Com: -0.333D-01 0.122D+00-0.217D+00 0.372D+00-0.738D+00 0.149D+01
 Coeff:     -0.333D-01 0.122D+00-0.217D+00 0.372D+00-0.738D+00 0.149D+01
 Gap=     0.573 Goal=   None    Shift=    0.000
 RMSDP=1.64D-07 MaxDP=8.25D-07 DE=-1.48D-10 OVMax= 1.20D-06

 Cycle   7  Pass 1  IDiag  3:
 E=-0.186501138726570     Delta-E=       -0.000000000005 Rises=F Damp=F
 DIIS: error= 4.02D-08 at cycle   7 NSaved=   7.
 NSaved= 7 IEnMin= 7 EnMin=-0.186501138726570     IErMin= 7 ErrMin= 4.02D-08
 ErrMax= 4.02D-08  0.00D+00 EMaxC= 1.00D-01 BMatC= 9.02D-14 BMatP= 7.78D-13
 IDIUse=1 WtCom= 1.00D+00 WtEn= 0.00D+00
 Coeff-Com:  0.216D-01-0.795D-01 0.141D+00-0.242D+00 0.492D+00-0.119D+01
 Coeff-Com:  0.186D+01
 Coeff:      0.216D-01-0.795D-01 0.141D+00-0.242D+00 0.492D+00-0.119D+01
 Coeff:      0.186D+01
 Gap=     0.573 Goal=   None    Shift=    0.000
 RMSDP=6.67D-08 MaxDP=3.48D-07 DE=-4.93D-12 OVMax= 4.95D-07

 Cycle   8  Pass 1  IDiag  3:
 E=-0.186501138727564     Delta-E=       -0.000000000001 Rises=F Damp=F
 DIIS: error= 1.13D-08 at cycle   8 NSaved=   8.
 NSaved= 8 IEnMin= 8 EnMin=-0.186501138727564     IErMin= 8 ErrMin= 1.13D-08
 ErrMax= 1.13D-08  0.00D+00 EMaxC= 1.00D-01 BMatC= 7.76D-15 BMatP= 9.02D-14
 IDIUse=1 WtCom= 1.00D+00 WtEn= 0.00D+00
 Coeff-Com: -0.986D-02 0.362D-01-0.640D-01 0.110D+00-0.227D+00 0.587D+00
 Coeff-Com: -0.119D+01 0.175D+01
 Coeff:     -0.986D-02 0.362D-01-0.640D-01 0.110D+00-0.227D+00 0.587D+00
 Coeff:     -0.119D+01 0.175D+01
 Gap=     0.573 Goal=   None    Shift=    0.000
 RMSDP=2.25D-08 MaxDP=1.15D-07 DE=-9.95D-13 OVMax= 1.52D-07

 Cycle   9  Pass 1  IDiag  3:
 E=-0.186501138727394     Delta-E=        0.000000000000 Rises=F Damp=F
 DIIS: error= 1.64D-09 at cycle   9 NSaved=   9.
 NSaved= 9 IEnMin= 8 EnMin=-0.186501138727564     IErMin= 9 ErrMin= 1.64D-09
 ErrMax= 1.64D-09  0.00D+00 EMaxC= 1.00D-01 BMatC= 2.18D-16 BMatP= 7.76D-15
 IDIUse=1 WtCom= 1.00D+00 WtEn= 0.00D+00
 Coeff-Com:  0.565D-02-0.207D-01 0.367D-01-0.631D-01 0.130D+00-0.339D+00
 Coeff-Com:  0.703D+00-0.113D+01 0.168D+01
 Coeff:      0.565D-02-0.207D-01 0.367D-01-0.631D-01 0.130D+00-0.339D+00
 Coeff:      0.703D+00-0.113D+01 0.168D+01
 Gap=     0.573 Goal=   None    Shift=    0.000
 RMSDP=2.87D-09 MaxDP=1.13D-08 DE= 1.71D-13 OVMax= 1.79D-08

 Cycle  10  Pass 2  IDiag  1:
 SCF Done:  E(RPM6) = -0.186501138727     A.U. after   10 cycles
            NFock=  9  Conv=0.29D-08     -V/T= 0.9975
 KE=-7.580808925106D+01 PE=-1.269950387726D+02 EE= 9.135962544941D+01
 Leave Link  502 at Tue Mar 31 17:49:18 2026, MaxMem=   536870912 cpu:               0.1 elap:               0.1
 (Enter /Users/asuyarger/Applications/G16/g16/l701.exe)
 ... and contract with generalized density number  0.
 Compute integral first derivatives.
 Leave Link  701 at Tue Mar 31 17:49:18 2026, MaxMem=   536870912 cpu:               0.1 elap:               0.1
 (Enter /Users/asuyarger/Applications/G16/g16/l702.exe)
 L702 exits ... SP integral derivatives will be done elsewhere.
 Leave Link  702 at Tue Mar 31 17:49:18 2026, MaxMem=   536870912 cpu:               0.1 elap:               0.0
 (Enter /Users/asuyarger/Applications/G16/g16/l703.exe)
 Integral derivatives from FoFJK, PRISM(SPDF).
 Compute integral first derivatives, UseDBF=F ICtDFT=           0.
 Calling FoFJK, ICntrl=      2127 FMM=F ISym2X=1 I1Cent= 0 IOpClX= 0 NMat=1 NMatS=1 NMatT=0.
 FoFJK:  IHMeth=40 ICntrl=    2127 DoSepK=F KAlg= 0 I1Cent=           0 FoldK=F
 IRaf=         0 NMat=       1 IRICut=       1 DoRegI=T DoRafI=F ISym2E= 1 IDoP0=3 IntGTp=3.
 FoFCou: FMM=F IPFlag=           0 FMFlag=      100000 FMFlg1=         800
         NFxFlg=           0 DoJE=F BraDBF=F KetDBF=F FulRan=T
         wScrn=  0.000000 ICntrl=      2127 IOpCl=  0 I1Cent=           0 NGrid=           0
         NMat0=    1 NMatS0=      1 NMatT0=    0 NMatD0=    1 NMtDS0=    0 NMtDT0=    0
 Petite list used in FoFCou.
 Leave Link  703 at Tue Mar 31 17:49:18 2026, MaxMem=   536870912 cpu:               0.1 elap:               0.0
 (Enter /Users/asuyarger/Applications/G16/g16/l716.exe)
 Dipole        =-1.60740470D-01 9.44631569D-01-2.22044605D-15
 ***** Axes restored to original set *****
 -------------------------------------------------------------------
 Center     Atomic                   Forces (Hartrees/Bohr)
 Number     Number              X              Y              Z
 -------------------------------------------------------------------
      1        6          -0.000052915    0.000367510   -0.000125764
      2        1          -0.000038693   -0.000097210    0.000119307
      3        9           0.000072772   -0.000030711    0.000020352
      4        9          -0.000026398   -0.000065772   -0.000040377
      5        6           0.000049974   -0.000103035   -0.000022122
      6        1           0.000042676   -0.000001839    0.000085813
      7        1          -0.000083425   -0.000046421    0.000008592
      8        1           0.000036010   -0.000022523   -0.000045801
 -------------------------------------------------------------------
 Cartesian Forces:  Max     0.000367510 RMS     0.000097478
 Leave Link  716 at Tue Mar 31 17:49:18 2026, MaxMem=   536870912 cpu:               0.1 elap:               0.0
 (Enter /Users/asuyarger/Applications/G16/g16/l103.exe)

 GradGradGradGradGradGradGradGradGradGradGradGradGradGradGradGradGradGrad
 Berny optimization.
 Using GEDIIS/GDIIS optimizer.
 FormGI is forming the generalized inverse of G from B-inverse, IUseBI=4.
 Internal  Forces:  Max     0.000179607 RMS     0.000065796
 Search for a local minimum.
 Step number   5 out of a maximum of   38
 All quantities printed in internal units (Hartrees-Bohrs-Radians)
 RMS Force = .65796D-04 SwitMx=.10000D-02 MixMth= 2
 Mixed Optimization -- En-DIIS/RFO-DIIS
 Swapping is turned off.
 Update second derivatives using D2CorX and points    1    2    3    4    5
 DE= -4.89D-06 DEPred=-4.88D-06 R= 1.00D+00
 TightC=F SS=  1.41D+00  RLast= 5.82D-03 DXNew= 8.4853D-01 1.7449D-02
 Trust test= 1.00D+00 RLast= 5.82D-03 DXMaxT set to 5.05D-01
 ITU=  1  1  1  1  0
     Eigenvalues ---    0.00237   0.05114   0.05210   0.05286   0.09173
     Eigenvalues ---    0.11352   0.16000   0.16002   0.16226   0.21642
     Eigenvalues ---    0.22787   0.31099   0.36711   0.37230   0.37245
     Eigenvalues ---    0.41601   0.55021   0.63201
 En-DIIS/RFO-DIIS/Sim-DIIS IScMMF=       -3 using points:     5    4    3
 RFO step:  Lambda=-5.01222155D-07.
 NNeg= 0 NGDIIS= 3 SimSw=  2.50D-01 Rises=F DC= -4.89D-06 SmlDif=  1.00D-05
 NRisDI= 0 DoIntr=F SqrtH=F CThrHd= 10.0 CDAdj=  3.0
 RMS Error=  0.2851241475D-03 NUsed= 3 OKEnD=F EnDIS=F
 InvSVX:  RCond= 5.28D-06 Info=           0 Equed=N FErr=  1.44D-15 BErr=  8.36D-17
 DidBck=F Rises=F RFO-DIIS coefs:    1.02025   -0.02313    0.00288
 Iteration  1 RMS(Cart)=  0.00027649 RMS(Int)=  0.00000009
 Iteration  2 RMS(Cart)=  0.00000009 RMS(Int)=  0.00000004
 ITry= 1 IFail=0 DXMaxC= 7.11D-04 DCOld= 1.00D+10 DXMaxT= 5.05D-01 DXLimC= 3.00D+00 Rises=F
 ClnCor:  largest displacement from symmetrization is 1.73D-10 for atom     4.
 Variable       Old X    -DE/DX   Delta X   Delta X   Delta X     New X
                                 (Linear)    (Quad)   (Total)
    R1        2.10444  -0.00016  -0.00004  -0.00055  -0.00059   2.10385
    R2        2.57229   0.00002  -0.00005  -0.00005  -0.00010   2.57219
    R3        2.57229   0.00002  -0.00005  -0.00005  -0.00010   2.57219
    R4        2.85988   0.00018  -0.00004   0.00061   0.00057   2.86045
    R5        2.07763  -0.00008  -0.00003  -0.00031  -0.00034   2.07729
    R6        2.07763  -0.00008  -0.00003  -0.00031  -0.00034   2.07729
    R7        2.08217  -0.00004  -0.00003  -0.00020  -0.00022   2.08195
    A1        1.89427   0.00004   0.00003   0.00021   0.00024   1.89451
    A2        1.89427   0.00004   0.00003   0.00021   0.00024   1.89451
    A3        2.01616   0.00001   0.00003  -0.00009  -0.00006   2.01609
    A4        1.76626   0.00011  -0.00004   0.00062   0.00058   1.76684
    A5        1.93788  -0.00009  -0.00003  -0.00042  -0.00045   1.93743
    A6        1.93788  -0.00009  -0.00003  -0.00042  -0.00045   1.93743
    A7        1.94618   0.00005  -0.00001   0.00027   0.00026   1.94644
    A8        1.94618   0.00005  -0.00001   0.00027   0.00026   1.94644
    A9        1.96835   0.00005  -0.00001   0.00018   0.00017   1.96852
   A10        1.87445  -0.00005   0.00001  -0.00018  -0.00017   1.87428
   A11        1.86152  -0.00005   0.00001  -0.00030  -0.00029   1.86123
   A12        1.86152  -0.00005   0.00001  -0.00030  -0.00029   1.86123
    D1       -1.04762  -0.00000  -0.00000  -0.00007  -0.00007  -1.04769
    D2        1.04762   0.00000   0.00000   0.00007   0.00007   1.04769
    D3        3.14159   0.00000  -0.00000   0.00000  -0.00000   3.14159
    D4        3.06930   0.00001  -0.00004   0.00007   0.00003   3.06933
    D5       -1.11865   0.00002  -0.00004   0.00020   0.00016  -1.11848
    D6        0.97532   0.00001  -0.00004   0.00014   0.00010   0.97542
    D7        1.11865  -0.00002   0.00004  -0.00020  -0.00016   1.11848
    D8       -3.06930  -0.00001   0.00004  -0.00007  -0.00003  -3.06933
    D9       -0.97532  -0.00001   0.00004  -0.00014  -0.00010  -0.97542
         Item               Value     Threshold  Converged?
 Maximum Force            0.000180     0.000450     YES
 RMS     Force            0.000066     0.000300     YES
 Maximum Displacement     0.000711     0.001800     YES
 RMS     Displacement     0.000276     0.001200     YES
 Predicted change in Energy=-2.506058D-07
 Optimization completed.
    -- Stationary point found.
                           ----------------------------
                           !   Optimized Parameters   !
                           ! (Angstroms and Degrees)  !
 --------------------------                            --------------------------
 ! Name  Definition              Value          Derivative Info.                !
 --------------------------------------------------------------------------------
 ! R1    R(1,2)                  1.1136         -DE/DX =   -0.0002              !
 ! R2    R(1,3)                  1.3612         -DE/DX =    0.0                 !
 ! R3    R(1,4)                  1.3612         -DE/DX =    0.0                 !
 ! R4    R(1,5)                  1.5134         -DE/DX =    0.0002              !
 ! R5    R(5,6)                  1.0994         -DE/DX =   -0.0001              !
 ! R6    R(5,7)                  1.0994         -DE/DX =   -0.0001              !
 ! R7    R(5,8)                  1.1018         -DE/DX =    0.0                 !
 ! A1    A(2,1,3)              108.5336         -DE/DX =    0.0                 !
 ! A2    A(2,1,4)              108.5336         -DE/DX =    0.0                 !
 ! A3    A(2,1,5)              115.5173         -DE/DX =    0.0                 !
 ! A4    A(3,1,4)              101.1993         -DE/DX =    0.0001              !
 ! A5    A(3,1,5)              111.0321         -DE/DX =   -0.0001              !
 ! A6    A(4,1,5)              111.0321         -DE/DX =   -0.0001              !
 ! A7    A(1,5,6)              111.5079         -DE/DX =    0.0                 !
 ! A8    A(1,5,7)              111.5079         -DE/DX =    0.0                 !
 ! A9    A(1,5,8)              112.7782         -DE/DX =    0.0                 !
 ! A10   A(6,5,7)              107.398          -DE/DX =    0.0                 !
 ! A11   A(6,5,8)              106.6571         -DE/DX =   -0.0001              !
 ! A12   A(7,5,8)              106.6571         -DE/DX =   -0.0001              !
 ! D1    D(2,1,5,6)            -60.0242         -DE/DX =    0.0                 !
 ! D2    D(2,1,5,7)             60.0242         -DE/DX =    0.0                 !
 ! D3    D(2,1,5,8)            180.0            -DE/DX =    0.0                 !
 ! D4    D(3,1,5,6)            175.8577         -DE/DX =    0.0                 !
 ! D5    D(3,1,5,7)            -64.0938         -DE/DX =    0.0                 !
 ! D6    D(3,1,5,8)             55.882          -DE/DX =    0.0                 !
 ! D7    D(4,1,5,6)             64.0938         -DE/DX =    0.0                 !
 ! D8    D(4,1,5,7)           -175.8577         -DE/DX =    0.0                 !
 ! D9    D(4,1,5,8)            -55.882          -DE/DX =    0.0                 !
 --------------------------------------------------------------------------------
 Lowest energy point so far.  Saving SCF results.
 Largest change from initial coordinates is atom    2       0.060 Angstoms.
 GradGradGradGradGradGradGradGradGradGradGradGradGradGradGradGradGradGrad

 Leave Link  103 at Tue Mar 31 17:49:18 2026, MaxMem=   536870912 cpu:               0.0 elap:               0.0
 (Enter /Users/asuyarger/Applications/G16/g16/l202.exe)
                          Input orientation:                          
 ---------------------------------------------------------------------
 Center     Atomic      Atomic             Coordinates (Angstroms)
 Number     Number       Type             X           Y           Z
 ---------------------------------------------------------------------
      1          6           0        0.766717    0.085092   -0.030640
      2          1           0        1.093302    0.684913   -0.910247
      3          9           0        1.126733    0.747647    1.102617
      4          9           0       -0.590919    0.140389    0.050778
      5          6           0        1.254742   -1.347134   -0.000719
      6          1           0        0.906009   -1.910224   -0.878256
      7          1           0        2.352936   -1.398678    0.007799
      8          1           0        0.905795   -1.898252    0.887288
 ---------------------------------------------------------------------
                    Distance matrix (angstroms):
                    1          2          3          4          5
     1  C    0.000000
     2  H    1.113621   0.000000
     3  F    1.361198   2.014119   0.000000
     4  F    1.361198   2.014119   2.103676   0.000000
     5  C    1.513385   2.232155   2.371042   2.371042   0.000000
     6  H    2.172359   2.602083   3.322176   2.703500   1.099435
     7  H    2.172359   2.602083   2.703500   3.322176   1.099435
     8  H    2.189882   3.152622   2.663824   2.663824   1.101839
                    6          7          8
     6  H    0.000000
     7  H    1.772109   0.000000
     8  H    1.765585   1.765585   0.000000
 Stoichiometry    C2H4F2
 Framework group  CS[SG(C2H2),X(H2F2)]
 Deg. of freedom    11
 Full point group                 CS      NOp   2
 RotChk:  IX=2 Diff= 1.38D-15
 Largest Abelian subgroup         CS      NOp   2
 Largest concise Abelian subgroup CS      NOp   2
                         Standard orientation:                         
 ---------------------------------------------------------------------
 Center     Atomic      Atomic             Coordinates (Angstroms)
 Number     Number       Type             X           Y           Z
 ---------------------------------------------------------------------
      1          6           0        0.331869    0.193850    0.000000
      2          1           0        1.295795    0.751524    0.000000
      3          9           0        0.331869   -0.670151   -1.051838
      4          9           0        0.331869   -0.670151    1.051838
      5          6           0       -0.916376    1.049547    0.000000
      6          1           0       -0.959877    1.698988    0.886055
      7          1           0       -0.959877    1.698988   -0.886055
      8          1           0       -1.842646    0.452827    0.000000
 ---------------------------------------------------------------------
 Rotational constants (GHZ):          10.1088243           8.5355984           5.2394767
 Leave Link  202 at Tue Mar 31 17:49:18 2026, MaxMem=   536870912 cpu:               0.0 elap:               0.0
 (Enter /Users/asuyarger/Applications/G16/g16/l601.exe)
 Copying SCF densities to generalized density rwf, IOpCl= 0 IROHF=0.

 **********************************************************************

            Population analysis using the SCF density.

 **********************************************************************

 Orbital symmetries:
       Occupied  (A') (A") (A') (A') (A') (A") (A') (A") (A") (A')
                 (A") (A') (A')
       Virtual   (A") (A') (A') (A') (A") (A') (A')
 The electronic state is 1-A'.
 Alpha  occ. eigenvalues --   -1.52653  -1.51756  -1.00446  -0.82792  -0.67489
 Alpha  occ. eigenvalues --   -0.65369  -0.64012  -0.59304  -0.55930  -0.55284
 Alpha  occ. eigenvalues --   -0.51302  -0.50255  -0.47603
 Alpha virt. eigenvalues --    0.09661   0.10488   0.11903   0.16305   0.18633
 Alpha virt. eigenvalues --    0.18972   0.22378
          Condensed to atoms (all electrons):
               1          2          3          4          5          6
     1  C    3.691988   0.000000   0.000000   0.000000   0.000000   0.000000
     2  H    0.000000   0.874990   0.000000   0.000000   0.000000   0.000000
     3  F    0.000000   0.000000   7.210304   0.000000   0.000000   0.000000
     4  F    0.000000   0.000000   0.000000   7.210304   0.000000   0.000000
     5  C    0.000000   0.000000   0.000000   0.000000   4.569741   0.000000
     6  H    0.000000   0.000000   0.000000   0.000000   0.000000   0.816946
     7  H    0.000000   0.000000   0.000000   0.000000   0.000000   0.000000
     8  H    0.000000   0.000000   0.000000   0.000000   0.000000   0.000000
               7          8
     1  C    0.000000   0.000000
     2  H    0.000000   0.000000
     3  F    0.000000   0.000000
     4  F    0.000000   0.000000
     5  C    0.000000   0.000000
     6  H    0.000000   0.000000
     7  H    0.816946   0.000000
     8  H    0.000000   0.808782
 Mulliken charges:
               1
     1  C    0.308012
     2  H    0.125010
     3  F   -0.210304
     4  F   -0.210304
     5  C   -0.569741
     6  H    0.183054
     7  H    0.183054
     8  H    0.191218
 Sum of Mulliken charges =  -0.00000
 Mulliken charges with hydrogens summed into heavy atoms:
               1
     1  C    0.433023
     3  F   -0.210304
     4  F   -0.210304
     5  C   -0.012415
 Charge=             -0.0000 electrons
 Dipole moment (field-independent basis, Debye):
    X=             -0.4086    Y=              2.4010    Z=             -0.0000  Tot=              2.4355
 N-N= 1.112570014355D+02 E-N=-1.269950387492D+02  KE=-7.580808925106D+01
 Symmetry A'   KE=-4.253951648967D+01
 Symmetry A"   KE=-3.326857276139D+01
 Leave Link  601 at Tue Mar 31 17:49:18 2026, MaxMem=   536870912 cpu:               0.1 elap:               0.0
 (Enter /Users/asuyarger/Applications/G16/g16/l9999.exe)
 1\1\GINC-JEFFSMACSTUDIO\FOpt\RPM6\ZDO\C2H4F2\ROOT\31-Mar-2026\0\\#p op
 t freq=raman pm6 guess=save geom=connectivity polar\\R52a - 1,1-difluo
 roethane\\0,1\C,0.7667167508,0.0850919784,-0.0306397906\H,1.0933021536
 ,0.6849125605,-0.910247382\F,1.1267325607,0.7476468768,1.1026166772\F,
 -0.5909186734,0.1403894212,0.0507779371\C,1.2547422183,-1.3471337674,-
 0.000718649\H,0.9060085701,-1.9102239481,-0.8782564278\H,2.3529356853,
 -1.3986781459,0.0077988805\H,0.9057954474,-1.898251633,0.8872875148\\V
 ersion=EM64M-G16RevA.03\State=1-A'\HF=-0.1865011\RMSD=2.866e-09\RMSF=9
 .748e-05\Dipole=0.5445886,-0.5310784,-0.5827052\PG=CS [SG(C2H2),X(H2F2
 )]\\@


 MAN IS A SINGULAR CREATURE.  HE HAS A SET OF GIFTS
 WHICH MAKE HIM UNIQUE AMONG THE ANIMALS: SO THAT, 
 UNLIKE THEM, HE IS NOT A FIGURE IN THE LANDSCAPE --
 HE IS A SHAPER OF THE LANDSCAPE.

                       -- JACOB BRONOWSKI
 Leave Link 9999 at Tue Mar 31 17:49:18 2026, MaxMem=   536870912 cpu:               0.1 elap:               0.0
 Job cpu time:       0 days  0 hours  0 minutes  7.2 seconds.
 Elapsed time:       0 days  0 hours  0 minutes  2.0 seconds.
 File lengths (MBytes):  RWF=      6 Int=      0 D2E=      0 Chk=      2 Scr=      1
 Normal termination of Gaussian 16 at Tue Mar 31 17:49:18 2026.
 (Enter /Users/asuyarger/Applications/G16/g16/l1.exe)
 Link1:  Proceeding to internal job step number  2.
 -------------------------------------------------------------
 #P Geom=AllCheck Guess=TCheck SCRF=Check GenChk RPM6/ZDO Freq
 -------------------------------------------------------------
 1/10=4,29=7,30=1,38=1,40=1/1,3;
 2/12=2,40=1/2;
 3/5=2,14=-4,25=1,41=3900000,70=2,71=2,116=1,135=40,140=1/1,2,3;
 4/5=101,35=1/1;
 5/5=2,35=1,38=6,98=1/2;
 8/6=4,10=90,11=11/1;
 10/13=10,15=4/2;
 11/6=3,8=1,9=11,15=111,16=1/1,2,10;
 10/6=1/2;
 6/7=2,8=2,9=2,10=2,28=1/1;
 7/8=1,10=1,25=1/1,2,3,16;
 1/10=4,30=1/3;
 99//99;
 Leave Link    1 at Tue Mar 31 17:49:18 2026, MaxMem=   536870912 cpu:               0.1 elap:               0.0
 (Enter /Users/asuyarger/Applications/G16/g16/l101.exe)
 Structure from the checkpoint file:  "11Difluoroethane_Opt_Freq_PM6_Gaussian16.chk"
 -------------------------
 R52a - 1,1-difluoroethane
 -------------------------
 Charge =  0 Multiplicity = 1
 Redundant internal coordinates found in file.  (old form).
 C,0,0.7667167508,0.0850919784,-0.0306397906
 H,0,1.0933021536,0.6849125605,-0.910247382
 F,0,1.1267325607,0.7476468768,1.1026166772
 F,0,-0.5909186734,0.1403894212,0.0507779371
 C,0,1.2547422183,-1.3471337674,-0.000718649
 H,0,0.9060085701,-1.9102239481,-0.8782564278
 H,0,2.3529356853,-1.3986781459,0.0077988805
 H,0,0.9057954474,-1.898251633,0.8872875148
 Recover connectivity data from disk.
 ITRead=  0  0  0  0  0  0  0  0
 MicOpt= -1 -1 -1 -1 -1 -1 -1 -1
 NAtoms=      8 NQM=        8 NQMF=       0 NMMI=      0 NMMIF=      0
                NMic=       0 NMicF=      0.
                    Isotopes and Nuclear Properties:
 (Nuclear quadrupole moments (NQMom) in fm**2, nuclear magnetic moments (NMagM)
  in nuclear magnetons)

  Atom         1           2           3           4           5           6           7           8
 IAtWgt=          12           1          19          19          12           1           1           1
 AtmWgt=  12.0000000   1.0078250  18.9984033  18.9984033  12.0000000   1.0078250   1.0078250   1.0078250
 NucSpn=           0           1           1           1           0           1           1           1
 AtZEff=   3.9000000   1.0000000   7.2000000   7.2000000   3.9000000   1.0000000   1.0000000   1.0000000
 NQMom=    0.0000000   0.0000000   0.0000000   0.0000000   0.0000000   0.0000000   0.0000000   0.0000000
 NMagM=    0.0000000   2.7928460   2.6288670   2.6288670   0.0000000   2.7928460   2.7928460   2.7928460
 AtZNuc=   6.0000000   1.0000000   9.0000000   9.0000000   6.0000000   1.0000000   1.0000000   1.0000000
 Leave Link  101 at Tue Mar 31 17:49:18 2026, MaxMem=   536870912 cpu:               0.5 elap:               0.1
 (Enter /Users/asuyarger/Applications/G16/g16/l103.exe)

 GradGradGradGradGradGradGradGradGradGradGradGradGradGradGradGradGradGrad
 Berny optimization.
 Initialization pass.
                           ----------------------------
                           !    Initial Parameters    !
                           ! (Angstroms and Degrees)  !
 --------------------------                            --------------------------
 ! Name  Definition              Value          Derivative Info.                !
 --------------------------------------------------------------------------------
 ! R1    R(1,2)                  1.1136         calculate D2E/DX2 analytically  !
 ! R2    R(1,3)                  1.3612         calculate D2E/DX2 analytically  !
 ! R3    R(1,4)                  1.3612         calculate D2E/DX2 analytically  !
 ! R4    R(1,5)                  1.5134         calculate D2E/DX2 analytically  !
 ! R5    R(5,6)                  1.0994         calculate D2E/DX2 analytically  !
 ! R6    R(5,7)                  1.0994         calculate D2E/DX2 analytically  !
 ! R7    R(5,8)                  1.1018         calculate D2E/DX2 analytically  !
 ! A1    A(2,1,3)              108.5336         calculate D2E/DX2 analytically  !
 ! A2    A(2,1,4)              108.5336         calculate D2E/DX2 analytically  !
 ! A3    A(2,1,5)              115.5173         calculate D2E/DX2 analytically  !
 ! A4    A(3,1,4)              101.1993         calculate D2E/DX2 analytically  !
 ! A5    A(3,1,5)              111.0321         calculate D2E/DX2 analytically  !
 ! A6    A(4,1,5)              111.0321         calculate D2E/DX2 analytically  !
 ! A7    A(1,5,6)              111.5079         calculate D2E/DX2 analytically  !
 ! A8    A(1,5,7)              111.5079         calculate D2E/DX2 analytically  !
 ! A9    A(1,5,8)              112.7782         calculate D2E/DX2 analytically  !
 ! A10   A(6,5,7)              107.398          calculate D2E/DX2 analytically  !
 ! A11   A(6,5,8)              106.6571         calculate D2E/DX2 analytically  !
 ! A12   A(7,5,8)              106.6571         calculate D2E/DX2 analytically  !
 ! D1    D(2,1,5,6)            -60.0242         calculate D2E/DX2 analytically  !
 ! D2    D(2,1,5,7)             60.0242         calculate D2E/DX2 analytically  !
 ! D3    D(2,1,5,8)            180.0            calculate D2E/DX2 analytically  !
 ! D4    D(3,1,5,6)            175.8577         calculate D2E/DX2 analytically  !
 ! D5    D(3,1,5,7)            -64.0938         calculate D2E/DX2 analytically  !
 ! D6    D(3,1,5,8)             55.882          calculate D2E/DX2 analytically  !
 ! D7    D(4,1,5,6)             64.0938         calculate D2E/DX2 analytically  !
 ! D8    D(4,1,5,7)           -175.8577         calculate D2E/DX2 analytically  !
 ! D9    D(4,1,5,8)            -55.882          calculate D2E/DX2 analytically  !
 --------------------------------------------------------------------------------
 Trust Radius=3.00D-01 FncErr=1.00D-07 GrdErr=1.00D-07 EigMax=2.50D+02 EigMin=1.00D-04
 Number of steps in this run=      2 maximum allowed number of steps=      2.
 GradGradGradGradGradGradGradGradGradGradGradGradGradGradGradGradGradGrad

 Leave Link  103 at Tue Mar 31 17:49:19 2026, MaxMem=   536870912 cpu:               0.0 elap:               0.0
 (Enter /Users/asuyarger/Applications/G16/g16/l202.exe)
                          Input orientation:                          
 ---------------------------------------------------------------------
 Center     Atomic      Atomic             Coordinates (Angstroms)
 Number     Number       Type             X           Y           Z
 ---------------------------------------------------------------------
      1          6           0        0.766717    0.085092   -0.030640
      2          1           0        1.093302    0.684913   -0.910247
      3          9           0        1.126733    0.747647    1.102617
      4          9           0       -0.590919    0.140389    0.050778
      5          6           0        1.254742   -1.347134   -0.000719
      6          1           0        0.906009   -1.910224   -0.878256
      7          1           0        2.352936   -1.398678    0.007799
      8          1           0        0.905795   -1.898252    0.887288
 ---------------------------------------------------------------------
                    Distance matrix (angstroms):
                    1          2          3          4          5
     1  C    0.000000
     2  H    1.113621   0.000000
     3  F    1.361198   2.014119   0.000000
     4  F    1.361198   2.014119   2.103676   0.000000
     5  C    1.513385   2.232155   2.371042   2.371042   0.000000
     6  H    2.172359   2.602083   3.322176   2.703500   1.099435
     7  H    2.172359   2.602083   2.703500   3.322176   1.099435
     8  H    2.189882   3.152622   2.663824   2.663824   1.101839
                    6          7          8
     6  H    0.000000
     7  H    1.772109   0.000000
     8  H    1.765585   1.765585   0.000000
 Stoichiometry    C2H4F2
 Framework group  CS[SG(C2H2),X(H2F2)]
 Deg. of freedom    11
 Full point group                 CS      NOp   2
 RotChk:  IX=2 Diff= 7.68D-15
 Largest Abelian subgroup         CS      NOp   2
 Largest concise Abelian subgroup CS      NOp   2
                         Standard orientation:                         
 ---------------------------------------------------------------------
 Center     Atomic      Atomic             Coordinates (Angstroms)
 Number     Number       Type             X           Y           Z
 ---------------------------------------------------------------------
      1          6           0        0.331869    0.193850   -0.000000
      2          1           0        1.295795    0.751524   -0.000000
      3          9           0        0.331869   -0.670151   -1.051838
      4          9           0        0.331869   -0.670151    1.051838
      5          6           0       -0.916376    1.049547   -0.000000
      6          1           0       -0.959877    1.698988    0.886055
      7          1           0       -0.959877    1.698988   -0.886055
      8          1           0       -1.842646    0.452827    0.000000
 ---------------------------------------------------------------------
 Rotational constants (GHZ):          10.1088243           8.5355984           5.2394767
 Leave Link  202 at Tue Mar 31 17:49:19 2026, MaxMem=   536870912 cpu:               0.0 elap:               0.0
 (Enter /Users/asuyarger/Applications/G16/g16/l301.exe)
 Standard basis: VSTO-6G (5D, 7F)
 Ernie: Thresh=  0.10000D-02 Tol=  0.10000D-05 Strict=F.
  NNHCO=     0 NNPyr=     0 NCTC=     0               EPep=         0.000000000
    EC=        64.371143578  ECS=         1.291013456   EG=         0.128124911
   EHC=         0.000350799  EAt=       -44.529382042  AtH=         0.936986650
 EPDDG=         0.000000000  ECC=        65.790632744 EAtT=        45.466368692
 There are    13 symmetry adapted cartesian basis functions of A'  symmetry.
 There are     7 symmetry adapted cartesian basis functions of A"  symmetry.
 There are    13 symmetry adapted basis functions of A'  symmetry.
 There are     7 symmetry adapted basis functions of A"  symmetry.
    20 basis functions,   120 primitive gaussians,    20 cartesian basis functions
    13 alpha electrons       13 beta electrons
       nuclear repulsion energy       111.2570014355 Hartrees.
 IExCor=    0 DFT=F Ex=HF Corr=None ExCW=0 ScaHFX=  1.000000
 ScaDFX=  1.000000  1.000000  1.000000  1.000000 ScalE2=  1.000000  1.000000
 IRadAn=      5 IRanWt=     -1 IRanGd=            0 ICorTp=0 IEmpDi=  4
 Integral buffers will be    131072 words long.
 Regular integral format.
 Two-electron integral symmetry is turned off.
 Leave Link  301 at Tue Mar 31 17:49:19 2026, MaxMem=   536870912 cpu:               0.1 elap:               0.0
 (Enter /Users/asuyarger/Applications/G16/g16/l302.exe)
 Do NDO integrals.
 NPDir=0 NMtPBC=     1 NCelOv=     1 NCel=       1 NClECP=     1 NCelD=      1
         NCelK=      1 NCelE2=     1 NClLst=     1 CellRange=     0.0.
 One-electron integrals computed using PRISM.
 NBasis=    20 RedAO= T EigKep=  1.00D+00  NBF=    13     7
 NBsUse=    20 1.00D-06 EigRej= -1.00D+00 NBFU=    13     7
 Leave Link  302 at Tue Mar 31 17:49:19 2026, MaxMem=   536870912 cpu:               0.2 elap:               0.1
 (Enter /Users/asuyarger/Applications/G16/g16/l303.exe)
 DipDrv:  MaxL=1.
 Leave Link  303 at Tue Mar 31 17:49:19 2026, MaxMem=   536870912 cpu:               0.1 elap:               0.0
 (Enter /Users/asuyarger/Applications/G16/g16/l401.exe)
 Initial guess from the checkpoint file:  "11Difluoroethane_Opt_Freq_PM6_Gaussian16.chk"
 B after Tr=     0.000000   -0.000000   -0.000000
         Rot=    1.000000   -0.000000    0.000000    0.000000 Ang=   0.00 deg.
 Guess basis will be translated and rotated to current coordinates.
 JPrj=0 DoOrth=T DoCkMO=T.
 Initial guess orbital symmetries:
       Occupied  (A') (A") (A') (A') (A') (A") (A') (A") (A") (A')
                 (A") (A') (A')
       Virtual   (A") (A') (A') (A') (A") (A') (A')
 The electronic state of the initial guess is 1-A'.
 Leave Link  401 at Tue Mar 31 17:49:19 2026, MaxMem=   536870912 cpu:               0.2 elap:               0.0
 (Enter /Users/asuyarger/Applications/G16/g16/l502.exe)
 Keep J ints in memory in canonical form, NReq=860217.
 FoFCou: FMM=F IPFlag=           0 FMFlag=           0 FMFlg1=           0
         NFxFlg=           0 DoJE=F BraDBF=F KetDBF=F FulRan=T
         wScrn=  0.000000 ICntrl=       600 IOpCl=  2 I1Cent=           0 NGrid=           0
         NMat0=    1 NMatS0=     44 NMatT0=    0 NMatD0=    1 NMtDS0=    0 NMtDT0=    0
 Symmetry not used in FoFCou.
 Two-electron integral symmetry not used.
 Closed shell SCF:
 Using DIIS extrapolation, IDIIS=  1040.
 Overlap will be assumed to be unity.
 NGot=   536870912 LenX=   536809510 LenY=   536808628
 Requested convergence on RMS density matrix=1.00D-08 within 128 cycles.
 Requested convergence on MAX density matrix=1.00D-06.
 Requested convergence on             energy=1.00D-06.
 No special actions if energy rises.

 Cycle   1  Pass 1  IDiag  1:
 E=-0.186501138727422    
 DIIS: error= 3.61D-10 at cycle   1 NSaved=   1.
 NSaved= 1 IEnMin= 1 EnMin=-0.186501138727422     IErMin= 1 ErrMin= 3.61D-10
 ErrMax= 3.61D-10  0.00D+00 EMaxC= 1.00D-01 BMatC= 7.82D-18 BMatP= 7.82D-18
 IDIUse=1 WtCom= 1.00D+00 WtEn= 0.00D+00
 Coeff-Com:  0.100D+01
 Coeff:      0.100D+01
 RMSDP=2.80D-10 MaxDP=1.31D-09              OVMax= 0.00D+00

 Cycle   2  Pass 2  IDiag  1:
 SCF Done:  E(RPM6) = -0.186501138727     A.U. after    2 cycles
            NFock=  1  Conv=0.28D-09     -V/T= 0.9975
 KE=-7.580808925029D+01 PE=-1.269950387499D+02 EE= 9.135962542596D+01
 Leave Link  502 at Tue Mar 31 17:49:19 2026, MaxMem=   536870912 cpu:               0.1 elap:               0.0
 (Enter /Users/asuyarger/Applications/G16/g16/l801.exe)
 Range of M.O.s used for correlation:     1    20
 NBasis=    20 NAE=    13 NBE=    13 NFC=     0 NFV=     0
 NROrb=     20 NOA=    13 NOB=    13 NVA=     7 NVB=     7
 Leave Link  801 at Tue Mar 31 17:49:19 2026, MaxMem=   536870912 cpu:               0.1 elap:               0.0
 (Enter /Users/asuyarger/Applications/G16/g16/l1002.exe)
 Minotr:  Closed shell wavefunction.
          Direct CPHF calculation.
          Differentiating once with respect to electric field.
                with respect to dipole field.
          Electric field/nuclear overlap derivatives assumed to be zero.
          Using symmetry in CPHF.
          Requested convergence is 1.0D-08 RMS, and 1.0D-07 maximum.
          NewPWx=F KeepS1=T KeepF1=T KeepIn=T MapXYZ=F SortEE=F KeepMc=T.
 Keep J ints in memory in canonical form, NReq=860917.
 FoFCou: FMM=F IPFlag=           0 FMFlag=           0 FMFlg1=           0
         NFxFlg=           0 DoJE=F BraDBF=F KetDBF=F FulRan=T
         wScrn=  0.000000 ICntrl=       600 IOpCl=  2 I1Cent=           0 NGrid=           0
         NMat0=    1 NMatS0=     44 NMatT0=    0 NMatD0=    1 NMtDS0=    0 NMtDT0=    0
 Symmetry not used in FoFCou.
 Two-electron integral symmetry not used.
          MDV=     536870912 using IRadAn=       1.
          Solving linear equations separately, MaxMat=       0.
          There are     3 degrees of freedom in the 1st order CPHF.  IDoFFX=0 NUNeed=     3.
 LinEq1:  Iter=  0 NonCon=     3 RMS=2.33D-01 Max=1.04D+00 NDo=     3
 AX will form     3 AO Fock derivatives at one time.
 LinEq1:  Iter=  1 NonCon=     3 RMS=2.28D-02 Max=7.96D-02 NDo=     3
 LinEq1:  Iter=  2 NonCon=     3 RMS=2.81D-03 Max=9.53D-03 NDo=     3
 LinEq1:  Iter=  3 NonCon=     3 RMS=4.51D-04 Max=1.55D-03 NDo=     3
 LinEq1:  Iter=  4 NonCon=     3 RMS=4.53D-05 Max=1.53D-04 NDo=     3
 LinEq1:  Iter=  5 NonCon=     3 RMS=6.21D-06 Max=2.48D-05 NDo=     3
 LinEq1:  Iter=  6 NonCon=     3 RMS=8.29D-07 Max=2.62D-06 NDo=     3
 LinEq1:  Iter=  7 NonCon=     3 RMS=1.24D-07 Max=4.96D-07 NDo=     3
 LinEq1:  Iter=  8 NonCon=     2 RMS=2.03D-08 Max=1.09D-07 NDo=     3
 LinEq1:  Iter=  9 NonCon=     0 RMS=2.22D-09 Max=8.37D-09 NDo=     3
 Linear equations converged to 1.000D-08 1.000D-07 after     9 iterations.
 End of Minotr F.D. properties file   721 does not exist.
 End of Minotr F.D. properties file   722 does not exist.
 End of Minotr F.D. properties file   788 does not exist.
 Leave Link 1002 at Tue Mar 31 17:49:19 2026, MaxMem=   536870912 cpu:               0.1 elap:               0.0
 (Enter /Users/asuyarger/Applications/G16/g16/l1101.exe)
 Using compressed storage, NAtomX=     8.
 Will process      9 centers per pass.
 Leave Link 1101 at Tue Mar 31 17:49:19 2026, MaxMem=   536870912 cpu:               0.1 elap:               0.1
 (Enter /Users/asuyarger/Applications/G16/g16/l1102.exe)
 Symmetrizing basis deriv contribution to polar:
 IMax=3 JMax=2 DiffMx= 0.00D+00
 Leave Link 1102 at Tue Mar 31 17:49:19 2026, MaxMem=   536870912 cpu:               0.1 elap:               0.0
 (Enter /Users/asuyarger/Applications/G16/g16/l1110.exe)
 Forming Gx(P) for the SCF density, NAtomX=     8.
 Integral derivatives from FoFJK, PRISM(SPDF).
 Do as many integral derivatives as possible in FoFJK.
 G2DrvN: MDV=     536811324.
 G2DrvN: will do     9 centers at a time, making    1 passes.
 PxScal for G2LodP:  IOpCl= 0 ISclPx=1 IMOff=     1 NMtTot=     4 NTT=     210 ScalPx= 1.67D+00
 Calling FoFCou, ICntrl=  3107 FMM=F I1Cent=   0 AccDes= 0.00D+00.
 FoFJK:  IHMeth=40 ICntrl=    3107 DoSepK=F KAlg= 0 I1Cent=           0 FoldK=F
 IRaf=         0 NMat=       1 IRICut=       1 DoRegI=T DoRafI=F ISym2E= 0 IDoP0=3 IntGTp=3.
 FoFCou: FMM=F IPFlag=           0 FMFlag=      100000 FMFlg1=           0
         NFxFlg=           0 DoJE=F BraDBF=F KetDBF=F FulRan=T
         wScrn=  0.000000 ICntrl=      3107 IOpCl=  0 I1Cent=           0 NGrid=           0
         NMat0=    1 NMatS0=      1 NMatT0=    0 NMatD0=    4 NMtDS0=    3 NMtDT0=    0
 Symmetry not used in FoFCou.
 End of G2Drv F.D. properties file   721 does not exist.
 End of G2Drv F.D. properties file   722 does not exist.
 End of G2Drv F.D. properties file   788 does not exist.
 Leave Link 1110 at Tue Mar 31 17:49:19 2026, MaxMem=   536870912 cpu:               0.1 elap:               0.0
 (Enter /Users/asuyarger/Applications/G16/g16/l1002.exe)
 Minotr:  Closed shell wavefunction.
          IDoAtm=11111111
          Direct CPHF calculation.
          Differentiating once with respect to electric field.
                with respect to dipole field.
          Differentiating once with respect to nuclear coordinates.
          Electric field/nuclear overlap derivatives assumed to be zero.
          Using symmetry in CPHF.
          Requested convergence is 1.0D-08 RMS, and 1.0D-07 maximum.
          NewPWx=T KeepS1=F KeepF1=F KeepIn=T MapXYZ=F SortEE=F KeepMc=T.
 Keep J ints in memory in canonical form, NReq=861104.
 FoFCou: FMM=F IPFlag=           0 FMFlag=           0 FMFlg1=           0
         NFxFlg=           0 DoJE=F BraDBF=F KetDBF=F FulRan=T
         wScrn=  0.000000 ICntrl=       600 IOpCl=  2 I1Cent=           0 NGrid=           0
         NMat0=    1 NMatS0=     44 NMatT0=    0 NMatD0=    1 NMtDS0=    0 NMtDT0=    0
 Symmetry not used in FoFCou.
 Two-electron integral symmetry not used.
          MDV=     536870912 using IRadAn=       1.
          Solving linear equations separately, MaxMat=       0.
          There are    21 degrees of freedom in the 1st order CPHF.  IDoFFX=4 NUNeed=    21.
 Recover   3 previous solutions.
 LinEq1:  Iter=  0 NonCon=    18 RMS=3.27D-02 Max=1.13D-01 NDo=    18
 AX will form    18 AO Fock derivatives at one time.
 LinEq1:  Iter=  1 NonCon=    18 RMS=4.12D-03 Max=2.12D-02 NDo=    18
 LinEq1:  Iter=  2 NonCon=    18 RMS=6.42D-04 Max=2.91D-03 NDo=    18
 LinEq1:  Iter=  3 NonCon=    18 RMS=7.15D-05 Max=2.98D-04 NDo=    18
 LinEq1:  Iter=  4 NonCon=    18 RMS=6.91D-06 Max=3.56D-05 NDo=    18
 LinEq1:  Iter=  5 NonCon=    18 RMS=8.85D-07 Max=3.71D-06 NDo=    18
 LinEq1:  Iter=  6 NonCon=    17 RMS=1.10D-07 Max=4.55D-07 NDo=    18
 LinEq1:  Iter=  7 NonCon=     7 RMS=1.44D-08 Max=6.26D-08 NDo=    18
 LinEq1:  Iter=  8 NonCon=     0 RMS=2.13D-09 Max=7.44D-09 NDo=    18
 Linear equations converged to 1.000D-08 1.000D-07 after     8 iterations.
 FullF1:  Do perturbations      1 to       3.
 Isotropic polarizability for W=    0.000000       17.96 Bohr**3.
 FullF1:  Do perturbations      1 to       6.
 End of Minotr F.D. properties file   721 does not exist.
 End of Minotr F.D. properties file   722 does not exist.
 End of Minotr F.D. properties file   788 does not exist.
 Leave Link 1002 at Tue Mar 31 17:49:19 2026, MaxMem=   536870912 cpu:               0.2 elap:               0.1
 (Enter /Users/asuyarger/Applications/G16/g16/l601.exe)
 Copying SCF densities to generalized density rwf, IOpCl= 0 IROHF=0.

 **********************************************************************

            Population analysis using the SCF density.

 **********************************************************************

 Orbital symmetries:
       Occupied  (A') (A") (A') (A') (A') (A") (A') (A") (A") (A')
                 (A") (A') (A')
       Virtual   (A") (A') (A') (A') (A") (A') (A')
 The electronic state is 1-A'.
 Alpha  occ. eigenvalues --   -1.52653  -1.51756  -1.00446  -0.82792  -0.67489
 Alpha  occ. eigenvalues --   -0.65369  -0.64012  -0.59304  -0.55930  -0.55284
 Alpha  occ. eigenvalues --   -0.51302  -0.50255  -0.47603
 Alpha virt. eigenvalues --    0.09661   0.10488   0.11903   0.16305   0.18633
 Alpha virt. eigenvalues --    0.18972   0.22378
          Condensed to atoms (all electrons):
               1          2          3          4          5          6
     1  C    3.691988   0.000000   0.000000   0.000000   0.000000   0.000000
     2  H    0.000000   0.874990   0.000000   0.000000   0.000000   0.000000
     3  F    0.000000   0.000000   7.210304   0.000000   0.000000   0.000000
     4  F    0.000000   0.000000   0.000000   7.210304   0.000000   0.000000
     5  C    0.000000   0.000000   0.000000   0.000000   4.569741   0.000000
     6  H    0.000000   0.000000   0.000000   0.000000   0.000000   0.816946
     7  H    0.000000   0.000000   0.000000   0.000000   0.000000   0.000000
     8  H    0.000000   0.000000   0.000000   0.000000   0.000000   0.000000
               7          8
     1  C    0.000000   0.000000
     2  H    0.000000   0.000000
     3  F    0.000000   0.000000
     4  F    0.000000   0.000000
     5  C    0.000000   0.000000
     6  H    0.000000   0.000000
     7  H    0.816946   0.000000
     8  H    0.000000   0.808782
 Mulliken charges:
               1
     1  C    0.308012
     2  H    0.125010
     3  F   -0.210304
     4  F   -0.210304
     5  C   -0.569741
     6  H    0.183054
     7  H    0.183054
     8  H    0.191218
 Sum of Mulliken charges =   0.00000
 Mulliken charges with hydrogens summed into heavy atoms:
               1
     1  C    0.433023
     3  F   -0.210304
     4  F   -0.210304
     5  C   -0.012415
 APT charges:
               1
     1  C    0.901394
     2  H    0.045422
     3  F   -0.400591
     4  F   -0.400591
     5  C   -0.820844
     6  H    0.223288
     7  H    0.223288
     8  H    0.228634
 Sum of APT charges =  -0.00000
 APT charges with hydrogens summed into heavy atoms:
               1
     1  C    0.946815
     3  F   -0.400591
     4  F   -0.400591
     5  C   -0.145635
 Charge=              0.0000 electrons
 Dipole moment (field-independent basis, Debye):
    X=             -0.4086    Y=              2.4010    Z=             -0.0000  Tot=              2.4355
 N-N= 1.112570014355D+02 E-N=-1.269950387508D+02  KE=-7.580808925029D+01
 Symmetry A'   KE=-4.253951648664D+01
 Symmetry A"   KE=-3.326857276365D+01
  Exact polarizability:  14.127  -1.409  19.120  -0.000   0.000  20.622
 Approx polarizability:   8.645  -0.460  11.732  -0.000   0.000  13.263
 Leave Link  601 at Tue Mar 31 17:49:19 2026, MaxMem=   536870912 cpu:               0.1 elap:               0.0
 (Enter /Users/asuyarger/Applications/G16/g16/l701.exe)
 ... and contract with generalized density number  0.
 Compute integral second derivatives.
 Leave Link  701 at Tue Mar 31 17:49:19 2026, MaxMem=   536870912 cpu:               0.2 elap:               0.1
 (Enter /Users/asuyarger/Applications/G16/g16/l702.exe)
 L702 exits ... SP integral derivatives will be done elsewhere.
 Leave Link  702 at Tue Mar 31 17:49:19 2026, MaxMem=   536870912 cpu:               0.1 elap:               0.0
 (Enter /Users/asuyarger/Applications/G16/g16/l703.exe)
 Integral derivatives from FoFJK, PRISM(SPDF).
 Compute integral second derivatives, UseDBF=F ICtDFT=           0.
 Calling FoFJK, ICntrl=    100127 FMM=F ISym2X=1 I1Cent= 0 IOpClX= 0 NMat=1 NMatS=1 NMatT=0.
 FoFJK:  IHMeth=40 ICntrl=  100127 DoSepK=F KAlg= 0 I1Cent=           0 FoldK=F
 IRaf=         0 NMat=       1 IRICut=       1 DoRegI=T DoRafI=F ISym2E= 1 IDoP0=3 IntGTp=3.
 FoFCou: FMM=F IPFlag=           0 FMFlag=      100000 FMFlg1=         800
         NFxFlg=           0 DoJE=F BraDBF=F KetDBF=F FulRan=T
         wScrn=  0.000000 ICntrl=    100127 IOpCl=  0 I1Cent=           0 NGrid=           0
         NMat0=    1 NMatS0=      1 NMatT0=    0 NMatD0=    1 NMtDS0=    0 NMtDT0=    0
 Petite list used in FoFCou.
 Leave Link  703 at Tue Mar 31 17:49:19 2026, MaxMem=   536870912 cpu:               0.1 elap:               0.0
 (Enter /Users/asuyarger/Applications/G16/g16/l716.exe)
 Dipole        =-1.60740474D-01 9.44631567D-01-1.51185342D-15
 Polarizability= 1.41273301D+01-1.40932061D+00 1.91202753D+01
                -1.45279247D-14 5.42469887D-15 2.06215812D+01
 HyperPolar    = 8.24697857D+00 1.66751255D+00 8.31896304D+00
                 9.95068696D+00 6.13339298D-15-1.23435612D-14
                 2.07250416D-14-1.44372057D+00 1.97730856D+01
                 4.63609963D-14
 Full mass-weighted force constant matrix:
 Low frequencies ---   -5.5637   -0.0753   -0.0017    0.0510    3.3662    8.1292
 Low frequencies ---  132.2761  361.8844  449.2130
 Diagonal vibrational polarizability:
        3.8860181       4.7667191       5.1257148
 Diagonal vibrational hyperpolarizability:
       -5.8952900      53.0384554       0.0000000
 Harmonic frequencies (cm**-1), IR intensities (KM/Mole), Raman scattering
 activities (A**4/AMU), depolarization ratios for plane and unpolarized
 incident light, reduced masses (AMU), force constants (mDyne/A),
 and normal coordinates:
                      1                      2                      3
                     A"                     A"                     A'
 Frequencies --    132.2618               361.8844               449.2129
 Red. masses --      1.0658                 3.7010                 5.0902
 Frc consts  --      0.0110                 0.2856                 0.6052
 IR Inten    --      0.0112                 0.0749                10.7971
 Raman Activ --      0.0019                 1.9211                 4.5338
 Depolar (P) --      0.7500                 0.7500                 0.6868
 Depolar (U) --      0.8571                 0.8571                 0.8143
  Atom  AN      X      Y      Z        X      Y      Z        X      Y      Z
     1   6    -0.00   0.00   0.01    -0.00  -0.00  -0.16    -0.23   0.07   0.00
     2   1    -0.00   0.00   0.05    -0.00  -0.00  -0.21    -0.31   0.26  -0.00
     3   9     0.03   0.03  -0.01     0.16  -0.15  -0.05     0.13  -0.15   0.17
     4   9    -0.03  -0.03  -0.01    -0.16   0.15  -0.05     0.13  -0.15  -0.17
     5   6    -0.00  -0.00   0.01    -0.00   0.00   0.24    -0.14   0.27  -0.00
     6   1     0.28   0.41  -0.29     0.28  -0.20   0.42     0.06   0.30  -0.00
     7   1    -0.28  -0.41  -0.29    -0.28   0.20   0.42     0.06   0.30   0.00
     8   1    -0.00   0.00   0.57    -0.00   0.00   0.42    -0.29   0.53  -0.00
                      4                      5                      6
                     A'                     A'                     A"
 Frequencies --    553.0676               960.1976               967.9817
 Red. masses --      5.2455                 1.7369                 1.4689
 Frc consts  --      0.9454                 0.9435                 0.8109
 IR Inten    --      2.9691                16.9849                 4.8367
 Raman Activ --      3.2245                 7.9563                 8.5299
 Depolar (P) --      0.7086                 0.2132                 0.7500
 Depolar (U) --      0.8295                 0.3515                 0.8571
  Atom  AN      X      Y      Z        X      Y      Z        X      Y      Z
     1   6     0.26   0.26  -0.00     0.04   0.03   0.00     0.00   0.00  -0.07
     2   1     0.28   0.14  -0.00     0.17  -0.22  -0.00     0.00  -0.00   0.10
     3   9    -0.10  -0.04   0.25     0.01  -0.06  -0.07    -0.01   0.04   0.05
     4   9    -0.10  -0.04  -0.25     0.01  -0.06   0.07     0.01  -0.04   0.05
     5   6     0.05  -0.09   0.00    -0.04   0.18   0.00    -0.00   0.00  -0.15
     6   1    -0.30  -0.13   0.01    -0.53   0.09   0.00     0.52  -0.37   0.20
     7   1    -0.30  -0.13  -0.01    -0.53   0.09  -0.00    -0.52   0.37   0.20
     8   1     0.32  -0.55   0.00     0.32  -0.44  -0.00     0.00  -0.00   0.22
                      7                      8                      9
                     A'                     A"                     A'
 Frequencies --   1130.9008              1144.6437              1176.8103
 Red. masses --      3.0718                 1.2587                 1.2900
 Frc consts  --      2.3147                 0.9717                 1.0526
 IR Inten    --     59.9824                20.4678                 6.2985
 Raman Activ --      6.9782                16.5266                21.0572
 Depolar (P) --      0.0784                 0.7500                 0.7103
 Depolar (U) --      0.1454                 0.8571                 0.8306
  Atom  AN      X      Y      Z        X      Y      Z        X      Y      Z
     1   6     0.31   0.07   0.00    -0.00   0.00   0.07     0.03   0.07   0.00
     2   1     0.27   0.02   0.00     0.00  -0.00   0.99    -0.46   0.87   0.00
     3   9    -0.01  -0.05  -0.06    -0.02  -0.05  -0.05    -0.02  -0.04  -0.05
     4   9    -0.01  -0.05   0.06     0.02   0.05  -0.05    -0.02  -0.04   0.05
     5   6    -0.27   0.01  -0.00     0.00  -0.00  -0.01     0.06  -0.01  -0.00
     6   1     0.19   0.11  -0.05     0.05  -0.04   0.04     0.02   0.01  -0.01
     7   1     0.19   0.11   0.05    -0.05   0.04   0.04     0.02   0.01   0.01
     8   1    -0.55   0.59   0.00     0.00  -0.00   0.05     0.09  -0.06   0.00
                     10                     11                     12
                     A'                     A"                     A"
 Frequencies --   1234.0467              1236.4750              1276.8070
 Red. masses --      1.0594                 1.0628                 3.5411
 Frc consts  --      0.9505                 0.9574                 3.4012
 IR Inten    --     56.3338                59.5353               188.3856
 Raman Activ --     24.9066                23.2717                22.1244
 Depolar (P) --      0.7449                 0.7500                 0.7500
 Depolar (U) --      0.8538                 0.8571                 0.8571
  Atom  AN      X      Y      Z        X      Y      Z        X      Y      Z
     1   6    -0.01   0.01   0.00    -0.00   0.00  -0.01    -0.00   0.00   0.42
     2   1     0.01  -0.04   0.00     0.00  -0.00  -0.01     0.00  -0.00  -0.70
     3   9     0.00  -0.00  -0.00     0.00   0.00   0.00     0.01  -0.06  -0.09
     4   9     0.00  -0.00   0.00    -0.00  -0.00   0.00    -0.01   0.06  -0.09
     5   6    -0.04  -0.06   0.00    -0.00  -0.00  -0.07     0.00  -0.00  -0.10
     6   1     0.19   0.50  -0.38    -0.43  -0.17   0.07     0.28  -0.21   0.12
     7   1     0.19   0.50   0.38     0.43   0.17   0.07    -0.28   0.21   0.12
     8   1     0.17  -0.33  -0.00     0.00  -0.00   0.75     0.00  -0.00   0.14
                     13                     14                     15
                     A'                     A'                     A'
 Frequencies --   1310.9604              1332.6728              2648.2915
 Red. masses --      4.7870                 1.1770                 1.0649
 Frc consts  --      4.8472                 1.2316                 4.4005
 IR Inten    --    132.2962                87.1543                 7.9988
 Raman Activ --     17.3761                 5.2075               117.3137
 Depolar (P) --      0.1477                 0.7487                 0.4594
 Depolar (U) --      0.2573                 0.8563                 0.6296
  Atom  AN      X      Y      Z        X      Y      Z        X      Y      Z
     1   6    -0.19   0.46  -0.00     0.01  -0.03   0.00    -0.06  -0.03   0.00
     2   1     0.40  -0.60   0.00    -0.03   0.05  -0.00     0.84   0.49   0.00
     3   9     0.01  -0.08  -0.09    -0.00   0.01   0.01    -0.00  -0.00  -0.00
     4   9     0.01  -0.08   0.09    -0.00   0.01  -0.01    -0.00  -0.00   0.00
     5   6     0.12  -0.16   0.00     0.09  -0.07  -0.00     0.01   0.01   0.00
     6   1     0.12  -0.07   0.01    -0.48   0.22  -0.23     0.01  -0.04  -0.06
     7   1     0.12  -0.07  -0.01    -0.48   0.22   0.23     0.01  -0.04   0.06
     8   1    -0.19   0.28   0.00    -0.27   0.49   0.00    -0.16  -0.10   0.00
                     16                     17                     18
                     A'                     A"                     A'
 Frequencies --   2686.9278              2691.5241              2789.0584
 Red. masses --      1.0872                 1.0876                 1.0315
 Frc consts  --      4.6246                 4.6421                 4.7277
 IR Inten    --    129.8778               101.2384                48.7958
 Raman Activ --     47.2031                80.5567                78.2517
 Depolar (P) --      0.6886                 0.7500                 0.0223
 Depolar (U) --      0.8156                 0.8571                 0.0437
  Atom  AN      X      Y      Z        X      Y      Z        X      Y      Z
     1   6    -0.01  -0.01  -0.00     0.00   0.00  -0.00    -0.01   0.01  -0.00
     2   1     0.18   0.10  -0.00    -0.00  -0.00  -0.00     0.02   0.01  -0.00
     3   9    -0.00  -0.00  -0.00    -0.00   0.00   0.00     0.00  -0.00  -0.00
     4   9    -0.00  -0.00   0.00     0.00  -0.00   0.00     0.00  -0.00   0.00
     5   6    -0.05  -0.07  -0.00     0.00   0.00  -0.09    -0.04   0.03  -0.00
     6   1    -0.05   0.22   0.33    -0.04   0.44   0.55     0.02  -0.34  -0.47
     7   1    -0.05   0.22  -0.33     0.04  -0.44   0.55     0.02  -0.34   0.47
     8   1     0.69   0.40  -0.00    -0.00  -0.00  -0.04     0.48   0.31  -0.00

 -------------------
 - Thermochemistry -
 -------------------
 Temperature   298.150 Kelvin.  Pressure   1.00000 Atm.
 Atom     1 has atomic number  6 and mass  12.00000
 Atom     2 has atomic number  1 and mass   1.00783
 Atom     3 has atomic number  9 and mass  18.99840
 Atom     4 has atomic number  9 and mass  18.99840
 Atom     5 has atomic number  6 and mass  12.00000
 Atom     6 has atomic number  1 and mass   1.00783
 Atom     7 has atomic number  1 and mass   1.00783
 Atom     8 has atomic number  1 and mass   1.00783
 Molecular mass:    66.02811 amu.
 Principal axes and moments of inertia in atomic units:
                           1         2         3
     Eigenvalues --   178.53127 211.43699 344.45066
           X           -0.58747   0.00000   0.80924
           Y            0.80924  -0.00000   0.58747
           Z            0.00000   1.00000   0.00000
 This molecule is an asymmetric top.
 Rotational symmetry number  1.
 Rotational temperatures (Kelvin)      0.48515     0.40964     0.25146
 Rotational constants (GHZ):          10.10882     8.53560     5.23948
 Zero-point vibrational energy     144052.7 (Joules/Mol)
                                   34.42941 (Kcal/Mol)
 Warning -- explicit consideration of   4 degrees of freedom as
           vibrations may cause significant error
 Vibrational temperatures:    190.30   520.67   646.32   795.74  1381.51
          (Kelvin)           1392.71  1627.11  1646.89  1693.17  1775.52
                             1779.01  1837.04  1886.18  1917.42  3810.30
                             3865.89  3872.50  4012.83
 
 Zero-point correction=                           0.054867 (Hartree/Particle)
 Thermal correction to Energy=                    0.059383
 Thermal correction to Enthalpy=                  0.060327
 Thermal correction to Gibbs Free Energy=         0.027807
 Sum of electronic and zero-point Energies=             -0.131634
 Sum of electronic and thermal Energies=                -0.127119
 Sum of electronic and thermal Enthalpies=              -0.126174
 Sum of electronic and thermal Free Energies=           -0.158694
 
                     E (Thermal)             CV                S
                      KCal/Mol        Cal/Mol-Kelvin    Cal/Mol-Kelvin
 Total                   37.263             14.289             68.443
 Electronic               0.000              0.000              0.000
 Translational            0.889              2.981             38.481
 Rotational               0.889              2.981             24.079
 Vibrational             35.486              8.327              5.883
 Vibration     1          0.612              1.921              2.913
 Vibration     2          0.736              1.551              1.114
 Vibration     3          0.808              1.363              0.798
 Vibration     4          0.908              1.133              0.538
                       Q            Log10(Q)             Ln(Q)
 Total Bot       0.161990D-12        -12.790513        -29.451245
 Total V=0       0.279527D+13         12.446423         28.658948
 Vib (Bot)       0.188184D-24        -24.725417        -56.932377
 Vib (Bot)    1  0.154049D+01          0.187660          0.432103
 Vib (Bot)    2  0.505852D+00         -0.295976         -0.681511
 Vib (Bot)    3  0.381994D+00         -0.417944         -0.962351
 Vib (Bot)    4  0.282913D+00         -0.548348         -1.262617
 Vib (V=0)       0.324728D+01          0.511519          1.177816
 Vib (V=0)    1  0.211961D+01          0.326255          0.751230
 Vib (V=0)    2  0.121126D+01          0.083236          0.191659
 Vib (V=0)    3  0.112922D+01          0.052779          0.121528
 Vib (V=0)    4  0.107449D+01          0.031203          0.071847
 Electronic      0.100000D+01          0.000000          0.000000
 Translational   0.210886D+08          7.324047         16.864242
 Rotational      0.408185D+05          4.610857         10.616890
 
                                                      R52a - 1,1-difluoroethane
                                                             IR Spectrum
 
     2   22 2                                                           11111  111                                                   
     7   66 6                                                           33222  111      99                 5    4   3         1      
     8   98 4                                                           31733  743      66                 5    4   6         3      
     9   27 8                                                           31764  751      80                 3    9   2         2      
 
     X   XX X                                                           XXXXX  XXX      XX                 X    X   X                
     X   XX                                                             XXXXX   XX       X                                           
     X   XX                                                             XXXXX    X                                                   
     X   XX                                                             XXXXX    X                                                   
     X   XX                                                             XXXXX    X                                                   
         XX                                                             XXXXX    X                                                   
         XX                                                             XXX                                                          
         XX                                                             XXX                                                          
         XX                                                             XXX                                                          
         XX                                                              XX                                                          
         XX                                                              XX                                                          
          X                                                              XX                                                          
          X                                                              XX                                                          
          X                                                              XX                                                          
                                                                          X                                                          
                                                                          X                                                          
                                                                          X                                                          
                                                                          X                                                          
                                                                          X                                                          
                                                                          X                                                          
 
 
                                                      R52a - 1,1-difluoroethane
                                                            Raman Spectrum
 
     2   22 2                                                           11111  111                                                   
     7   66 6                                                           33222  111      99                 5    4   3         1      
     8   98 4                                                           31733  743      66                 5    4   6         3      
     9   27 8                                                           31764  751      80                 3    9   2         2      
 
     X   XX X                                                           XXXXX  XXX      XX                 X    X   X                
     X   XX X                                                            XXXX  XX                                                    
     X   XX X                                                            XXXX  XX                                                    
     X   XX X                                                             XXX  X                                                     
     X   XX X                                                                                                                        
     X   XX X                                                                                                                        
     X   XX X                                                                                                                        
     X   XX X                                                                                                                        
     X   X  X                                                                                                                        
     X   X  X                                                                                                                        
     X   X  X                                                                                                                        
     X   X  X                                                                                                                        
     X   X  X                                                                                                                        
         X  X                                                                                                                        
            X                                                                                                                        
            X                                                                                                                        
            X                                                                                                                        
            X                                                                                                                        
            X                                                                                                                        
            X                                                                                                                        
 
 ***** Axes restored to original set *****
 -------------------------------------------------------------------
 Center     Atomic                   Forces (Hartrees/Bohr)
 Number     Number              X              Y              Z
 -------------------------------------------------------------------
      1        6          -0.000052915    0.000367510   -0.000125764
      2        1          -0.000038693   -0.000097210    0.000119307
      3        9           0.000072772   -0.000030711    0.000020352
      4        9          -0.000026398   -0.000065772   -0.000040377
      5        6           0.000049974   -0.000103034   -0.000022122
      6        1           0.000042676   -0.000001839    0.000085813
      7        1          -0.000083425   -0.000046421    0.000008592
      8        1           0.000036010   -0.000022523   -0.000045801
 -------------------------------------------------------------------
 Cartesian Forces:  Max     0.000367510 RMS     0.000097478
 Force constants in Cartesian coordinates: 
                1             2             3             4             5 
      1  0.512568D+00
      2 -0.207119D-01  0.504082D+00
      3 -0.115752D-01  0.304019D-01  0.499508D+00
      4 -0.458960D-01 -0.240336D-01  0.347272D-01  0.665071D-01
      5 -0.264376D-01 -0.873856D-01  0.744977D-01  0.319313D-01  0.106624D+00
      6  0.361151D-01  0.705720D-01 -0.132846D+00 -0.488218D-01 -0.860476D-01
      7 -0.500671D-01 -0.345086D-01 -0.614486D-01  0.588939D-02  0.318059D-03
      8 -0.283978D-01 -0.107544D+00 -0.122459D+00  0.313088D-03  0.642940D-02
      9 -0.498115D-01 -0.117660D+00 -0.260155D+00 -0.743347D-02 -0.124360D-01
     10 -0.335486D+00  0.146489D-01  0.418612D-01 -0.320658D-01 -0.571882D-02
     11  0.121526D-01 -0.401544D-01  0.689064D-03 -0.150727D-01  0.359965D-02
     12  0.281374D-01  0.179256D-02 -0.421261D-01  0.249656D-01  0.353870D-02
     13 -0.769606D-01  0.398594D-01 -0.355840D-02  0.542629D-02 -0.134109D-02
     14  0.388409D-01 -0.201156D+00  0.151522D-01  0.592404D-02 -0.254415D-01
     15 -0.297040D-02  0.134890D-01 -0.679847D-01 -0.319285D-02  0.200912D-01
     16  0.693209D-02  0.364545D-02  0.465248D-02  0.922359D-05  0.182496D-04
     17 -0.262675D-02 -0.288932D-01 -0.233251D-01 -0.531492D-04 -0.531508D-03
     18  0.158437D-02 -0.124577D-01 -0.140756D-02 -0.334893D-03  0.382721D-03
     19 -0.185033D-01  0.168714D-01  0.711752D-03  0.385346D-03 -0.362357D-04
     20  0.297664D-01 -0.958588D-02  0.624963D-03  0.615630D-04 -0.557227D-03
     21 -0.436872D-04  0.572578D-03  0.472048D-02 -0.229553D-03  0.305169D-03
     22  0.741136D-02  0.422858D-02 -0.537051D-02 -0.255627D-03  0.126606D-02
     23 -0.258589D-02 -0.293629D-01  0.244180D-01  0.929406D-03 -0.273744D-02
     24 -0.143632D-02  0.132900D-01  0.290375D-03  0.319775D-03 -0.331904D-03
                6             7             8             9            10 
      6  0.177303D+00
      7  0.584450D-03  0.100227D+00
      8  0.185779D-02  0.582618D-01  0.141969D+00
      9 -0.424683D-01  0.104788D+00  0.165870D+00  0.324732D+00
     10  0.115445D-01 -0.624522D-01 -0.288650D-01 -0.490255D-01  0.462208D+00
     11  0.452796D-02 -0.260090D-01 -0.235819D-02 -0.119476D-01 -0.659764D-02
     12 -0.168334D-02 -0.471238D-01 -0.130242D-01 -0.158774D-01 -0.554918D-02
     13  0.100153D-02  0.733721D-02 -0.262768D-02  0.113834D-02 -0.293862D-01
     14  0.822727D-02  0.139618D-02 -0.323091D-01 -0.219239D-01  0.230319D-01
     15 -0.819862D-03  0.327520D-02 -0.315221D-01 -0.518853D-02  0.131701D-02
     16 -0.509914D-04 -0.247934D-03  0.183905D-02  0.636109D-03 -0.147068D-02
     17  0.407036D-03  0.709061D-03 -0.403254D-02 -0.936561D-03  0.359282D-03
     18  0.463449D-03  0.000000D+00  0.828098D-03  0.590229D-03 -0.953835D-04
     19 -0.498213D-03 -0.545807D-03 -0.752799D-04 -0.222086D-03  0.161069D-05
     20  0.237743D-03  0.272615D-03 -0.105928D-02 -0.749226D-03  0.289070D-02
     21  0.113046D-03  0.885388D-04 -0.810393D-03 -0.853533D-03 -0.729186D-04
     22  0.125413D-03 -0.139512D-03 -0.448432D-03 -0.698548D-04 -0.134898D-02
     23  0.217855D-03 -0.440335D-03 -0.109470D-02 -0.215948D-03  0.250878D-03
     24 -0.617984D-04 -0.163442D-03 -0.739915D-03 -0.778750D-03  0.201908D-04
               11            12            13            14            15 
     11  0.508637D-01
     12  0.877509D-02  0.538549D-01
     13  0.334975D-01 -0.265168D-03  0.419875D+00
     14 -0.729832D-02 -0.122053D-02 -0.178498D-01  0.461334D+00
     15 -0.214184D-02  0.652405D-02  0.293576D-02  0.260762D-02  0.409063D+00
     16  0.672838D-03  0.235066D-03 -0.536846D-01 -0.303200D-01 -0.480385D-01
     17 -0.648552D-03 -0.334300D-03 -0.286661D-01 -0.807413D-01 -0.726768D-01
     18 -0.217059D-03 -0.339390D-03 -0.474483D-01 -0.760566D-01 -0.152524D+00
     19  0.701184D-03 -0.975162D-04 -0.218094D+00  0.836225D-02 -0.170407D-02
     20 -0.369471D-02  0.860171D-04  0.460530D-02 -0.347533D-01 -0.327096D-03
     21  0.515648D-04  0.286058D-05 -0.108008D-02 -0.381571D-03 -0.341022D-01
     22  0.655730D-03 -0.302455D-03 -0.545130D-01 -0.293854D-01  0.483778D-01
     23 -0.308794D-03  0.386944D-03 -0.274775D-01 -0.796350D-01  0.704801D-01
     24  0.263010D-03 -0.355188D-03  0.472763D-01  0.735956D-01 -0.154968D+00
               16            17            18            19            20 
     16  0.567853D-01
     17  0.330120D-01  0.106665D+00
     18  0.575517D-01  0.955358D-01  0.179094D+00
     19 -0.138268D-01 -0.442344D-02 -0.698620D-02  0.264654D+00
     20 -0.106274D-01  0.206505D-02 -0.279128D-02 -0.169178D-01  0.453793D-01
     21 -0.193231D-01 -0.335375D-02 -0.128745D-02  0.151334D-02  0.145629D-03
     22  0.550342D-02  0.168915D-02 -0.427109D-02 -0.140705D-01 -0.100514D-01
     23  0.175982D-02  0.611698D-02 -0.522394D-02 -0.448208D-02  0.220604D-02
     24  0.433727D-02  0.468366D-02 -0.245898D-01  0.728300D-02  0.277326D-02
               21            22            23            24 
     21  0.325116D-01
     22  0.191475D-01  0.574130D-01
     23  0.347080D-02  0.320457D-01  0.104816D+00
     24 -0.110486D-02 -0.576368D-01 -0.935338D-01  0.181568D+00
 FormGI is forming the generalized inverse of G from B-inverse, IUseBI=4.
 Force constants in internal coordinates: 
                1             2             3             4             5 
      1  0.253190D+00
      2  0.219314D-01  0.461308D+00
      3  0.219314D-01  0.685510D-01  0.461308D+00
      4  0.203746D-01  0.363619D-01  0.363619D-01  0.383201D+00
      5  0.508545D-03  0.163630D-03 -0.323867D-03  0.236802D-01  0.265766D+00
      6  0.508545D-03 -0.323867D-03  0.163630D-03  0.236802D-01  0.120695D-01
      7  0.497223D-03 -0.333724D-03 -0.333724D-03  0.245029D-01  0.122837D-01
      8  0.858871D-02  0.136912D-01  0.566957D-02 -0.260382D-01 -0.430874D-03
      9  0.858871D-02  0.566957D-02  0.136912D-01 -0.260382D-01  0.168841D-03
     10  0.567876D-02 -0.216198D-01 -0.216198D-01  0.152810D-01 -0.942219D-03
     11  0.231364D-02  0.364803D-01  0.364803D-01 -0.245770D-01 -0.841326D-03
     12 -0.124973D-01  0.295307D-02 -0.289287D-01  0.272398D-01  0.158348D-02
     13 -0.124973D-01 -0.289287D-01  0.295307D-02  0.272398D-01  0.453338D-03
     14  0.171872D-03  0.367652D-02  0.709251D-03  0.224522D-01  0.148901D-01
     15  0.171872D-03  0.709251D-03  0.367652D-02  0.224522D-01 -0.901590D-02
     16  0.182301D-02  0.332374D-03  0.332374D-03  0.228100D-01 -0.916367D-02
     17 -0.412312D-03 -0.244213D-02 -0.244213D-02 -0.244883D-01  0.114384D-02
     18 -0.968046D-03 -0.234900D-02 -0.344244D-03 -0.245357D-01  0.124146D-02
     19 -0.968046D-03 -0.344244D-03 -0.234900D-02 -0.245357D-01  0.118123D-02
     20  0.145136D-03  0.124876D-01 -0.123737D-01  0.254538D-03  0.296314D-03
     21 -0.145136D-03  0.123737D-01 -0.124876D-01 -0.254538D-03  0.576645D-02
     22  0.000000D+00  0.126666D-01 -0.126666D-01  0.000000D+00 -0.551858D-02
     23 -0.554491D-02  0.843388D-02  0.211671D-01  0.815243D-03  0.298953D-03
     24 -0.583518D-02  0.831999D-02  0.210532D-01  0.306167D-03  0.576909D-02
     25 -0.569004D-02  0.861288D-02  0.208742D-01  0.560705D-03 -0.551594D-02
     26  0.583518D-02 -0.210532D-01 -0.831999D-02 -0.306167D-03  0.163030D-03
     27  0.554491D-02 -0.211671D-01 -0.843388D-02 -0.815243D-03  0.563316D-02
     28  0.569004D-02 -0.208742D-01 -0.861288D-02 -0.560705D-03 -0.565187D-02
                6             7             8             9            10 
      6  0.265766D+00
      7  0.122837D-01  0.264897D+00
      8  0.168841D-03 -0.528518D-03  0.652520D-01
      9 -0.430874D-03 -0.528518D-03  0.149004D-01  0.652520D-01
     10 -0.942219D-03  0.538535D-03 -0.338859D-01 -0.338859D-01  0.858113D-01
     11 -0.841326D-03  0.582000D-04  0.205794D-01  0.205794D-01  0.923631D-02
     12  0.453338D-03  0.184403D-03 -0.618680D-01  0.453352D-02 -0.193175D-01
     13  0.158348D-02  0.184403D-03  0.453352D-02 -0.618680D-01 -0.193175D-01
     14 -0.901590D-02 -0.923058D-02 -0.350662D-02  0.568110D-03 -0.211754D-02
     15  0.148901D-01 -0.923058D-02  0.568110D-03 -0.350662D-02 -0.211754D-02
     16 -0.916367D-02  0.151922D-01 -0.201615D-02 -0.201615D-02  0.575167D-02
     17  0.114384D-02  0.113314D-02  0.159309D-02  0.159309D-02  0.165076D-02
     18  0.118123D-02  0.121516D-02  0.279516D-02  0.991416D-03 -0.163366D-02
     19  0.124146D-02  0.121516D-02  0.991416D-03  0.279516D-02 -0.163366D-02
     20 -0.576645D-02  0.558490D-02  0.414096D-02 -0.416229D-02  0.395530D-03
     21 -0.296314D-03 -0.558490D-02  0.416229D-02 -0.414096D-02 -0.395530D-03
     22  0.551858D-02  0.000000D+00  0.443955D-02 -0.443955D-02  0.000000D+00
     23 -0.563316D-02  0.572483D-02 -0.609060D-02 -0.151908D-02 -0.496863D-02
     24 -0.163030D-03 -0.544496D-02 -0.606927D-02 -0.149775D-02 -0.575970D-02
     25  0.565187D-02  0.139936D-03 -0.579201D-02 -0.179634D-02 -0.536416D-02
     26 -0.576909D-02  0.544496D-02  0.149775D-02  0.606927D-02  0.575970D-02
     27 -0.298953D-03 -0.572483D-02  0.151908D-02  0.609060D-02  0.496863D-02
     28  0.551594D-02 -0.139936D-03  0.179634D-02  0.579201D-02  0.536416D-02
               11            12            13            14            15 
     11  0.945919D-01
     12 -0.659245D-01  0.137013D+00
     13 -0.659245D-01 -0.294247D-02  0.137013D+00
     14 -0.310676D-02  0.875520D-02 -0.853751D-03  0.877399D-01
     15 -0.310676D-02 -0.853751D-03  0.875520D-02 -0.162494D-01  0.877399D-01
     16  0.108293D-02 -0.174192D-02 -0.174192D-02 -0.175337D-01 -0.175337D-01
     17  0.300476D-02 -0.376475D-02 -0.376475D-02 -0.329687D-01 -0.329687D-01
     18  0.129247D-02 -0.361300D-02  0.664783D-03 -0.330317D-01  0.719393D-02
     19  0.129247D-02  0.664783D-03 -0.361300D-02  0.719393D-02 -0.330317D-01
     20  0.209152D-03  0.892648D-02 -0.953007D-02  0.123560D-02 -0.808990D-02
     21 -0.209152D-03  0.953007D-02 -0.892648D-02  0.808990D-02 -0.123560D-02
     22  0.000000D+00  0.856493D-02 -0.856493D-02 -0.642851D-02  0.642851D-02
     23  0.201370D-01 -0.643024D-02  0.198852D-02  0.342679D-03 -0.647934D-02
     24  0.197187D-01 -0.582665D-02  0.259211D-02  0.719698D-02  0.374962D-03
     25  0.199279D-01 -0.679179D-02  0.295366D-02 -0.732144D-02  0.803908D-02
     26 -0.197187D-01 -0.259211D-02  0.582665D-02 -0.374962D-03 -0.719698D-02
     27 -0.201370D-01 -0.198852D-02  0.643024D-02  0.647934D-02 -0.342679D-03
     28 -0.199279D-01 -0.295366D-02  0.679179D-02 -0.803908D-02  0.732144D-02
               16            17            18            19            20 
     16  0.918322D-01
     17  0.710630D-02  0.408396D-01
     18 -0.341885D-01  0.116647D-01  0.414956D-01
     19 -0.341885D-01  0.116647D-01  0.119143D-01  0.414956D-01
     20  0.745400D-02 -0.348207D-02  0.250612D-02  0.290479D-03  0.151130D-01
     21 -0.745400D-02  0.348207D-02 -0.290479D-03 -0.250612D-02  0.599520D-02
     22  0.000000D+00  0.000000D+00 -0.364051D-02  0.364051D-02  0.580564D-02
     23  0.712188D-02 -0.379718D-02  0.301727D-02 -0.326870D-03  0.169891D-02
     24 -0.778612D-02  0.316696D-02  0.220673D-03 -0.312347D-02 -0.741886D-02
     25 -0.332118D-03 -0.315111D-03 -0.312936D-02  0.302316D-02 -0.760842D-02
     26  0.778612D-02 -0.316696D-02  0.312347D-02 -0.220673D-03  0.178788D-02
     27 -0.712188D-02  0.379718D-02  0.326870D-03 -0.301727D-02 -0.732989D-02
     28  0.332118D-03  0.315111D-03 -0.302316D-02  0.312936D-02 -0.751944D-02
               21            22            23            24            25 
     21  0.151130D-01
     22  0.580564D-02  0.150768D-01
     23 -0.732989D-02 -0.740011D-02  0.192771D-01
     24  0.178788D-02 -0.740011D-02  0.102483D-01  0.194550D-01
     25 -0.751944D-02  0.187105D-02  0.101781D-01  0.102670D-01  0.196575D-01
     26 -0.741886D-02 -0.740011D-02 -0.261645D-02 -0.118232D-01 -0.118044D-01
     27  0.169891D-02 -0.740011D-02 -0.116452D-01 -0.261645D-02 -0.117155D-01
     28 -0.760842D-02  0.187105D-02 -0.117155D-01 -0.118044D-01 -0.232497D-02
               26            27            28 
     26  0.194550D-01
     27  0.102483D-01  0.192771D-01
     28  0.102670D-01  0.101781D-01  0.196575D-01
 Leave Link  716 at Tue Mar 31 17:49:20 2026, MaxMem=   536870912 cpu:               0.1 elap:               0.0
 (Enter /Users/asuyarger/Applications/G16/g16/l103.exe)

 GradGradGradGradGradGradGradGradGradGradGradGradGradGradGradGradGradGrad
 Berny optimization.
 Red2BG is reusing G-inverse.
 Internal  Forces:  Max     0.000179606 RMS     0.000065796
 Search for a local minimum.
 Step number   1 out of a maximum of    2
 All quantities printed in internal units (Hartrees-Bohrs-Radians)
 Second derivative matrix not updated -- analytic derivatives used.
 ITU=  0
     Eigenvalues ---    0.00073   0.03563   0.03593   0.04789   0.08270
     Eigenvalues ---    0.10543   0.11788   0.11792   0.12766   0.17579
     Eigenvalues ---    0.20277   0.25677   0.25948   0.25962   0.28154
     Eigenvalues ---    0.40141   0.42005   0.56439
 Angle between quadratic step and forces=  20.43 degrees.
 Linear search not attempted -- first point.
 Iteration  1 RMS(Cart)=  0.00032333 RMS(Int)=  0.00000012
 Iteration  2 RMS(Cart)=  0.00000013 RMS(Int)=  0.00000005
 ITry= 1 IFail=0 DXMaxC= 8.45D-04 DCOld= 1.00D+10 DXMaxT= 3.00D-01 DXLimC= 3.00D+00 Rises=F
 ClnCor:  largest displacement from symmetrization is 5.52D-09 for atom     4.
 Variable       Old X    -DE/DX   Delta X   Delta X   Delta X     New X
                                 (Linear)    (Quad)   (Total)
    R1        2.10444  -0.00016   0.00000  -0.00074  -0.00074   2.10370
    R2        2.57229   0.00002   0.00000  -0.00005  -0.00005   2.57224
    R3        2.57229   0.00002   0.00000  -0.00005  -0.00005   2.57224
    R4        2.85988   0.00018   0.00000   0.00059   0.00059   2.86048
    R5        2.07763  -0.00008   0.00000  -0.00033  -0.00033   2.07730
    R6        2.07763  -0.00008   0.00000  -0.00033  -0.00033   2.07730
    R7        2.08217  -0.00004   0.00000  -0.00012  -0.00012   2.08205
    A1        1.89427   0.00004   0.00000   0.00030   0.00030   1.89457
    A2        1.89427   0.00004   0.00000   0.00030   0.00030   1.89457
    A3        2.01616   0.00001   0.00000   0.00000   0.00000   2.01616
    A4        1.76626   0.00011   0.00000   0.00053   0.00053   1.76679
    A5        1.93788  -0.00009   0.00000  -0.00052  -0.00052   1.93735
    A6        1.93788  -0.00009   0.00000  -0.00052  -0.00052   1.93735
    A7        1.94618   0.00005   0.00000   0.00038   0.00038   1.94656
    A8        1.94618   0.00005   0.00000   0.00038   0.00038   1.94656
    A9        1.96835   0.00005   0.00000   0.00021   0.00021   1.96856
   A10        1.87445  -0.00005   0.00000  -0.00020  -0.00020   1.87425
   A11        1.86152  -0.00005   0.00000  -0.00043  -0.00043   1.86109
   A12        1.86152  -0.00005   0.00000  -0.00043  -0.00043   1.86109
    D1       -1.04762  -0.00000   0.00000  -0.00013  -0.00013  -1.04775
    D2        1.04762   0.00000   0.00000   0.00013   0.00013   1.04775
    D3        3.14159   0.00000   0.00000  -0.00000   0.00000   3.14159
    D4        3.06930   0.00001   0.00000  -0.00011  -0.00011   3.06918
    D5       -1.11865   0.00002   0.00000   0.00015   0.00015  -1.11849
    D6        0.97532   0.00001   0.00000   0.00002   0.00002   0.97535
    D7        1.11865  -0.00002   0.00000  -0.00015  -0.00015   1.11849
    D8       -3.06930  -0.00001   0.00000   0.00011   0.00011  -3.06918
    D9       -0.97532  -0.00001   0.00000  -0.00002  -0.00002  -0.97535
         Item               Value     Threshold  Converged?
 Maximum Force            0.000180     0.000450     YES
 RMS     Force            0.000066     0.000300     YES
 Maximum Displacement     0.000845     0.001800     YES
 RMS     Displacement     0.000323     0.001200     YES
 Predicted change in Energy=-2.825754D-07
 Optimization completed.
    -- Stationary point found.
                           ----------------------------
                           !   Optimized Parameters   !
                           ! (Angstroms and Degrees)  !
 --------------------------                            --------------------------
 ! Name  Definition              Value          Derivative Info.                !
 --------------------------------------------------------------------------------
 ! R1    R(1,2)                  1.1136         -DE/DX =   -0.0002              !
 ! R2    R(1,3)                  1.3612         -DE/DX =    0.0                 !
 ! R3    R(1,4)                  1.3612         -DE/DX =    0.0                 !
 ! R4    R(1,5)                  1.5134         -DE/DX =    0.0002              !
 ! R5    R(5,6)                  1.0994         -DE/DX =   -0.0001              !
 ! R6    R(5,7)                  1.0994         -DE/DX =   -0.0001              !
 ! R7    R(5,8)                  1.1018         -DE/DX =    0.0                 !
 ! A1    A(2,1,3)              108.5336         -DE/DX =    0.0                 !
 ! A2    A(2,1,4)              108.5336         -DE/DX =    0.0                 !
 ! A3    A(2,1,5)              115.5173         -DE/DX =    0.0                 !
 ! A4    A(3,1,4)              101.1993         -DE/DX =    0.0001              !
 ! A5    A(3,1,5)              111.0321         -DE/DX =   -0.0001              !
 ! A6    A(4,1,5)              111.0321         -DE/DX =   -0.0001              !
 ! A7    A(1,5,6)              111.5079         -DE/DX =    0.0                 !
 ! A8    A(1,5,7)              111.5079         -DE/DX =    0.0                 !
 ! A9    A(1,5,8)              112.7782         -DE/DX =    0.0                 !
 ! A10   A(6,5,7)              107.398          -DE/DX =    0.0                 !
 ! A11   A(6,5,8)              106.6571         -DE/DX =   -0.0001              !
 ! A12   A(7,5,8)              106.6571         -DE/DX =   -0.0001              !
 ! D1    D(2,1,5,6)            -60.0242         -DE/DX =    0.0                 !
 ! D2    D(2,1,5,7)             60.0242         -DE/DX =    0.0                 !
 ! D3    D(2,1,5,8)            180.0            -DE/DX =    0.0                 !
 ! D4    D(3,1,5,6)            175.8577         -DE/DX =    0.0                 !
 ! D5    D(3,1,5,7)            -64.0938         -DE/DX =    0.0                 !
 ! D6    D(3,1,5,8)             55.882          -DE/DX =    0.0                 !
 ! D7    D(4,1,5,6)             64.0938         -DE/DX =    0.0                 !
 ! D8    D(4,1,5,7)           -175.8577         -DE/DX =    0.0                 !
 ! D9    D(4,1,5,8)            -55.882          -DE/DX =    0.0                 !
 --------------------------------------------------------------------------------
 GradGradGradGradGradGradGradGradGradGradGradGradGradGradGradGradGradGrad

 Leave Link  103 at Tue Mar 31 17:49:20 2026, MaxMem=   536870912 cpu:               0.0 elap:               0.0
 (Enter /Users/asuyarger/Applications/G16/g16/l9999.exe)

 ----------------------------------------------------------------------

 Electric dipole moment (input orientation):
 (Debye = 10**-18 statcoulomb cm , SI units = C m)
                  (au)            (Debye)         (10**-30 SI)
   Tot        0.958210D+00      0.243553D+01      0.812404D+01
   x          0.544589D+00      0.138421D+01      0.461721D+01
   y         -0.531078D+00     -0.134987D+01     -0.450267D+01
   z         -0.582705D+00     -0.148109D+01     -0.494038D+01

 Dipole polarizability, Alpha (input orientation).
 (esu units = cm**3 , SI units = C**2 m**2 J**-1)
 Alpha(0;0):
               (au)            (10**-24 esu)      (10**-40 SI)
   iso        0.179564D+02      0.266086D+01      0.296061D+01
   aniso      0.637479D+01      0.944646D+00      0.105106D+01
   xx         0.201132D+02      0.298047D+01      0.331622D+01
   yx        -0.365860D+00     -0.542149D-01     -0.603222D-01
   yy         0.165402D+02      0.245100D+01      0.272711D+01
   zx         0.104136D+01      0.154313D+00      0.171697D+00
   zy         0.295375D+01      0.437701D+00      0.487008D+00
   zz         0.172158D+02      0.255111D+01      0.283849D+01

 First dipole hyperpolarizability, Beta (input orientation).
 ||, _|_  parallel and perpendicular components, (z) with respect to z axis,
 vector components x,y,z.  Values do not include the 1/n! factor of 1/2.
 (esu units = statvolt**-1 cm**4 , SI units = C**3 m**3 J**-2)
 Beta(0;0,0):
               (au)            (10**-30 esu)      (10**-50 SI)
   || (z)    -0.178293D+02     -0.154032D+00     -0.571673D-01
   _|_(z)    -0.594312D+01     -0.513439D-01     -0.190558D-01
   x          0.545867D+02      0.471586D+00      0.175025D+00
   y          0.117159D-01      0.101216D-03      0.375654D-04
   z         -0.891467D+02     -0.770158D+00     -0.285837D+00
   ||         0.209063D+02      0.180614D+00      0.670332D-01
   xxx        0.247721D+02      0.214012D+00      0.794283D-01
   xxy        0.744291D-01      0.643009D-03      0.238647D-03
   yxy       -0.521225D+01     -0.450298D-01     -0.167124D-01
   yyy        0.438421D+01      0.378762D-01      0.140574D-01
   xxz       -0.323538D+01     -0.279512D-01     -0.103738D-01
   yxz       -0.597331D+01     -0.516048D-01     -0.191526D-01
   yyz       -0.494211D+01     -0.426960D-01     -0.158462D-01
   zxz       -0.136428D+01     -0.117863D-01     -0.437438D-02
   zyz       -0.445473D+01     -0.384854D-01     -0.142835D-01
   zzz       -0.215381D+02     -0.186072D+00     -0.690589D-01

 ----------------------------------------------------------------------

 Dipole orientation:
     6          1.15644902         -0.44598142          0.76954685
     1          0.92696693         -2.40511363          1.50289746
     9          3.16250158         -0.40519603         -0.84004160
     9         -0.78587506          0.05729534         -0.84004160
     6          1.39542804          1.59422778          2.75936322
     1         -0.28212573          1.66503941          3.98302706
     1          3.04393553          1.27544267          3.98302706
     1          1.61818886          3.49597920          1.94133553

 Electric dipole moment (dipole orientation):
 (Debye = 10**-18 statcoulomb cm , SI units = C m)
                  (au)            (Debye)         (10**-30 SI)
   Tot        0.958210D+00      0.243553D+01      0.812404D+01
   x          0.000000D+00      0.000000D+00      0.000000D+00
   y          0.000000D+00      0.000000D+00      0.000000D+00
   z          0.958210D+00      0.243553D+01      0.812404D+01

 Dipole polarizability, Alpha (dipole orientation).
 (esu units = cm**3 , SI units = C**2 m**2 J**-1)
 Alpha(0;0):
               (au)            (10**-24 esu)      (10**-40 SI)
   iso        0.179564D+02      0.266086D+01      0.296061D+01
   aniso      0.637479D+01      0.944646D+00      0.105106D+01
   xx         0.205293D+02      0.304212D+01      0.338482D+01
   yx        -0.788031D+00     -0.116774D+00     -0.129929D+00
   yy         0.138940D+02      0.205888D+01      0.229081D+01
   zx         0.586700D-01      0.869400D-02      0.967338D-02
   zy         0.500877D+00      0.742223D-01      0.825835D-01
   zz         0.194459D+02      0.288159D+01      0.320620D+01

 First dipole hyperpolarizability, Beta (dipole orientation).
 ||, _|_  parallel and perpendicular components, (z) with respect to z axis,
 vector components x,y,z.  Values do not include the 1/n! factor of 1/2.
 (esu units = statvolt**-1 cm**4 , SI units = C**3 m**3 J**-2)
 Beta(0;0,0):
               (au)            (10**-30 esu)      (10**-50 SI)
   || (z)     0.170458D+02      0.147263D+00      0.546550D-01
   _|_(z)     0.568194D+01      0.490875D-01      0.182183D-01
   x         -0.704102D+01     -0.608290D-01     -0.225761D-01
   y         -0.601106D+02     -0.519308D+00     -0.192736D+00
   z          0.852291D+02      0.736313D+00      0.273275D+00
   ||         0.209063D+02      0.180614D+00      0.670332D-01
   xxx       -0.666875D+00     -0.576128D-02     -0.213824D-02
   xxy       -0.193158D+01     -0.166873D-01     -0.619334D-02
   yxy       -0.653563D+00     -0.564628D-02     -0.209556D-02
   yyy       -0.934125D+01     -0.807011D-01     -0.299514D-01
   xxz        0.195101D+02      0.168552D+00      0.625563D-01
   yxz       -0.192103D+01     -0.165962D-01     -0.615952D-02
   yyz        0.333488D+01      0.288108D-01      0.106928D-01
   zxz       -0.102657D+01     -0.886877D-02     -0.329156D-02
   zyz       -0.876403D+01     -0.757144D-01     -0.281006D-01
   zzz        0.556475D+01      0.480751D-01      0.178426D-01

 ----------------------------------------------------------------------
 1\1\GINC-JEFFSMACSTUDIO\Freq\RPM6\ZDO\C2H4F2\ROOT\31-Mar-2026\0\\#P Ge
 om=AllCheck Guess=TCheck SCRF=Check GenChk RPM6/ZDO Freq\\R52a - 1,1-d
 ifluoroethane\\0,1\C,0.7667167508,0.0850919784,-0.0306397906\H,1.09330
 21536,0.6849125605,-0.910247382\F,1.1267325607,0.7476468768,1.10261667
 72\F,-0.5909186734,0.1403894212,0.0507779371\C,1.2547422183,-1.3471337
 674,-0.000718649\H,0.9060085701,-1.9102239481,-0.8782564278\H,2.352935
 6853,-1.3986781459,0.0077988805\H,0.9057954474,-1.898251633,0.88728751
 48\\Version=EM64M-G16RevA.03\State=1-A'\HF=-0.1865011\RMSD=2.796e-10\R
 MSF=9.748e-05\ZeroPoint=0.0548668\Thermal=0.0593825\Dipole=0.5445886,-
 0.5310784,-0.5827052\DipoleDeriv=1.1159875,-0.0455605,0.2032924,-0.038
 4156,0.8550983,0.2759242,0.1991675,0.2875918,0.7330949,-0.0069114,0.03
 73924,-0.0578825,0.0351816,0.026184,-0.08939,-0.0566061,-0.0930003,0.1
 169923,-0.3315702,-0.0393355,-0.0576297,-0.0890783,-0.3902567,-0.13842
 27,-0.1634978,-0.185197,-0.4799446,-0.64845,0.017919,-0.0959012,0.0351
 596,-0.2864852,-0.0072701,0.0287313,-0.0135719,-0.2668364,-0.8295617,-
 0.0194853,0.0176126,0.0264457,-0.8090242,-0.0527931,-0.0089047,0.02221
 22,-0.8239474,0.2144834,0.0354907,0.0094633,0.0140995,0.2099106,0.0284
 495,-0.0075344,0.0329829,0.2454689,0.2660865,-0.0181871,-0.0099619,0.0
 011167,0.1798935,0.0024597,0.0082409,-0.0054825,0.2238827,0.2199353,0.
 0317655,-0.0089924,0.0154889,0.2146799,-0.0189548,0.0004046,-0.0455344
 ,0.2512866\Polar=20.1132299,-0.3658604,16.5402003,1.0413588,2.9537508,
 17.2157564\PolarDeriv=13.6881855,-2.9602284,-2.9621386,-2.171961,-0.28
 47253,-3.3042104,-1.0649871,-1.1122345,-1.188921,-0.283788,-3.1625986,
 -5.8220141,-0.4764557,-0.366466,-1.2651163,-1.5964317,-7.7663544,-5.71
 58095,0.6104375,1.8974592,0.4730798,-2.299427,-0.3943477,0.9243636,0.2
 505625,1.3070768,4.1461093,-0.3200808,-3.1513541,1.8223428,-0.1859852,
 -0.4647997,-0.8898,1.5934533,3.5018957,-5.7935017,1.689867,2.7699975,0
 .6138407,3.8825997,0.9707633,1.2629673,-0.1102829,1.9692112,6.4779912,
 0.5811687,5.7947651,2.4719296,-0.112887,0.7594092,1.7784283,2.4975725,
 6.1763136,11.2357553,-17.2411343,2.0584033,0.5953464,0.6449163,-0.1787
 655,0.7560256,0.6442303,-4.7689894,0.9540503,0.1409777,0.052865,0.3627
 393,0.6688136,0.0664334,0.0385419,-4.3885946,0.9022417,0.2793952,-7.26
 36127,1.3433921,3.2572082,0.4126342,-0.0230325,2.4268609,0.3564309,2.6
 021046,-2.892219,-0.0922887,0.8911057,4.2583529,0.109748,0.0466485,0.4
 402439,1.9324363,5.2172998,1.0349133,-0.2909122,-1.840754,-0.9379279,-
 2.2306957,-0.3844819,-0.8334762,0.1023885,-1.2338701,-3.5532022,-0.096
 3811,-3.0581795,-1.3583442,-0.0622809,-0.1629898,-1.1238592,-1.2127274
 ,-3.4713865,-5.5234003,9.05153,-1.4614979,-0.1863011,-0.2648692,0.0350
 071,-0.4324358,-0.2580213,2.4865951,-0.2937363,0.0236823,-0.1238399,-0
 .5469652,-0.0128679,-0.0608056,-0.0466518,2.3816696,-1.2210943,-0.2231
 266,-0.244386,-1.8067685,-0.8530945,2.0268102,0.2595861,-0.8000762,0.0
 796883,-1.2498922,-3.6500636,0.0467085,2.7572438,-1.1880155,0.0718948,
 0.1825716,1.0681997,-1.2073712,-3.3389025,4.7057721\HyperPolar=24.7720
 98,0.0744291,-5.2122537,4.3842108,-3.2353835,-5.973311,-4.9421065,-1.3
 642823,-4.4547346,-21.5380927\PG=CS [SG(C2H2),X(H2F2)]\NImag=0\\0.5125
 6807,-0.02071190,0.50408224,-0.01157517,0.03040186,0.49950765,-0.04589
 599,-0.02403360,0.03472719,0.06650706,-0.02643762,-0.08738557,0.074497
 72,0.03193134,0.10662415,0.03611510,0.07057197,-0.13284609,-0.04882181
 ,-0.08604758,0.17730277,-0.05006708,-0.03450855,-0.06144857,0.00588939
 ,0.00031806,0.00058445,0.10022653,-0.02839784,-0.10754423,-0.12245920,
 0.00031309,0.00642940,0.00185779,0.05826184,0.14196856,-0.04981150,-0.
 11766030,-0.26015479,-0.00743347,-0.01243602,-0.04246827,0.10478802,0.
 16586961,0.32473152,-0.33548554,0.01464891,0.04186122,-0.03206579,-0.0
 0571882,0.01154450,-0.06245220,-0.02886495,-0.04902546,0.46220805,0.01
 215265,-0.04015444,0.00068906,-0.01507274,0.00359965,0.00452796,-0.026
 00898,-0.00235819,-0.01194761,-0.00659764,0.05086367,0.02813742,0.0017
 9256,-0.04212611,0.02496558,0.00353870,-0.00168334,-0.04712384,-0.0130
 2423,-0.01587742,-0.00554918,0.00877509,0.05385490,-0.07696060,0.03985
 936,-0.00355840,0.00542629,-0.00134109,0.00100153,0.00733721,-0.002627
 68,0.00113834,-0.02938618,0.03349753,-0.00026517,0.41987498,0.03884089
 ,-0.20115601,0.01515216,0.00592404,-0.02544148,0.00822727,0.00139618,-
 0.03230914,-0.02192390,0.02303187,-0.00729832,-0.00122053,-0.01784982,
 0.46133436,-0.00297040,0.01348899,-0.06798473,-0.00319285,0.02009122,-
 0.00081986,0.00327520,-0.03152205,-0.00518853,0.00131701,-0.00214184,0
 .00652405,0.00293576,0.00260762,0.40906258,0.00693209,0.00364545,0.004
 65248,0.00000922,0.00001825,-0.00005099,-0.00024793,0.00183905,0.00063
 611,-0.00147068,0.00067284,0.00023507,-0.05368464,-0.03032001,-0.04803
 846,0.05678534,-0.00262675,-0.02889321,-0.02332513,-0.00005315,-0.0005
 3151,0.00040704,0.00070906,-0.00403254,-0.00093656,0.00035928,-0.00064
 855,-0.00033430,-0.02866614,-0.08074133,-0.07267675,0.03301203,0.10666
 506,0.00158437,-0.01245770,-0.00140756,-0.00033489,0.00038272,0.000463
 45,-0.00000019,0.00082810,0.00059023,-0.00009538,-0.00021706,-0.000339
 39,-0.04744828,-0.07605661,-0.15252364,0.05755171,0.09553583,0.1790942
 4,-0.01850327,0.01687140,0.00071175,0.00038535,-0.00003624,-0.00049821
 ,-0.00054581,-0.00007528,-0.00022209,0.00000161,0.00070118,-0.00009752
 ,-0.21809415,0.00836225,-0.00170407,-0.01382678,-0.00442344,-0.0069862
 0,0.26465375,0.02976641,-0.00958588,0.00062496,0.00006156,-0.00055723,
 0.00023774,0.00027261,-0.00105928,-0.00074923,0.00289070,-0.00369471,0
 .00008602,0.00460530,-0.03475329,-0.00032710,-0.01062739,0.00206505,-0
 .00279128,-0.01691776,0.04537927,-0.00004369,0.00057258,0.00472048,-0.
 00022955,0.00030517,0.00011305,0.00008854,-0.00081039,-0.00085353,-0.0
 0007292,0.00005156,0.00000286,-0.00108008,-0.00038157,-0.03410218,-0.0
 1932309,-0.00335375,-0.00128745,0.00151334,0.00014563,0.03251163,0.007
 41136,0.00422858,-0.00537051,-0.00025563,0.00126606,0.00012541,-0.0001
 3951,-0.00044843,-0.00006985,-0.00134898,0.00065573,-0.00030245,-0.054
 51305,-0.02938542,0.04837779,0.00550342,0.00168915,-0.00427109,-0.0140
 7054,-0.01005137,0.01914748,0.05741303,-0.00258589,-0.02936292,0.02441
 803,0.00092941,-0.00273744,0.00021786,-0.00044034,-0.00109470,-0.00021
 595,0.00025088,-0.00030879,0.00038694,-0.02747754,-0.07963498,0.070480
 06,0.00175982,0.00611698,-0.00522394,-0.00448208,0.00220604,0.00347080
 ,0.03204572,0.10481593,-0.00143632,0.01329001,0.00029038,0.00031977,-0
 .00033190,-0.00006180,-0.00016344,-0.00073991,-0.00077875,0.00002019,0
 .00026301,-0.00035519,0.04727632,0.07359563,-0.15496791,0.00433727,0.0
 0468366,-0.02458976,0.00728300,0.00277326,-0.00110486,-0.05763682,-0.0
 9353378,0.18156802\\0.00005292,-0.00036751,0.00012576,0.00003869,0.000
 09721,-0.00011931,-0.00007277,0.00003071,-0.00002035,0.00002640,0.0000
 6577,0.00004038,-0.00004997,0.00010303,0.00002212,-0.00004268,0.000001
 84,-0.00008581,0.00008343,0.00004642,-0.00000859,-0.00003601,0.0000225
 2,0.00004580\\\@


 A people that values its privileges above its principles soon loses both.
 -- Dwight D. Eisenhower
 Job cpu time:       0 days  0 hours  0 minutes  2.9 seconds.
 Elapsed time:       0 days  0 hours  0 minutes  0.8 seconds.
 File lengths (MBytes):  RWF=      6 Int=      0 D2E=      0 Chk=      2 Scr=      1
 Normal termination of Gaussian 16 at Tue Mar 31 17:49:20 2026.
