%nprocshared=4
%mem=4GB
%chk=11Difluoroethane_Opt_Freq_HF_631pd_Gaussian16.chk
#p opt freq=raman hf/6-31+g(d) guess=save geom=connectivity polar

R152a - 1,1-difluoroethane

0 1
 C                  0.74358977    0.09743586    0.00000005
 H                  1.10026299    0.60183451   -0.87365103
 F                  1.19359719    0.73382614    1.10227077
 F                 -0.60641023    0.09745250   -0.00000047
 C                  1.25690520   -1.35449640   -0.00000011
 H                  0.90023265   -1.85889462   -0.87365171
 H                  2.32690520   -1.35450959    0.00000031
 H                  0.90023198   -1.85889505    0.87365097

 1 2 1.0 3 1.0 4 1.0 5 1.0
 2
 3
 4
 5 6 1.0 7 1.0 8 1.0
 6
 7
 8

