%nprocshared=8
%mem=16GB
%chk=2223Tetrafluoropropene_Opt_Freq_AM1_Gaussian16.chk
#p opt=tight freq=raman am1 guess=save geom=connectivity polar

r1234yf - 2,3,3,3-Tetrafluoropropene

0 1
 C                  1.74822000    1.06421100    0.00000000
 H                  1.38428600    2.08656200   -0.00000200
 H                  2.83259200    0.99597000    0.00000000
 C                  0.94847300    0.00447000   -0.00000100
 C                 -0.56314100    0.02673000    0.00000000
 F                 -1.16411500   -1.16916400    0.00000800
 F                 -1.08759500    0.66407700    1.05937300
 F                 -1.08759700    0.66406300   -1.05938100
 F                  1.44839600   -1.23175300    0.00000000

 1 2 1.0 3 1.0 4 2.0
 2
 3
 4 5 1.0 9 1.0
 5 6 1.0 7 1.0 8 1.0
 6
 7
 8
 9

