 Entering Gaussian System, Link 0=g16
 Input=/Users/yarger/Downloads/2223Tetrafluoropropene_Opt_Freq_AM1_Gaussian16.gjf
 Output=/Users/yarger/Downloads/2223Tetrafluoropropene_Opt_Freq_AM1_Gaussian16.log
 Initial command:
 /Users/yarger/Applications/g16/l1.exe "/Users/yarger/Applications/scratch/Gau-79140.inp" -scrdir="/Users/yarger/Applications/scratch/"
 Entering Link 1 = /Users/yarger/Applications/g16/l1.exe PID=     79141.
  
 Copyright (c) 1988,1990,1992,1993,1995,1998,2003,2009,2016,
            Gaussian, Inc.  All Rights Reserved.
  
 This is part of the Gaussian(R) 16 program.  It is based on
 the Gaussian(R) 09 system (copyright 2009, Gaussian, Inc.),
 the Gaussian(R) 03 system (copyright 2003, Gaussian, Inc.),
 the Gaussian(R) 98 system (copyright 1998, Gaussian, Inc.),
 the Gaussian(R) 94 system (copyright 1995, Gaussian, Inc.),
 the Gaussian 92(TM) system (copyright 1992, Gaussian, Inc.),
 the Gaussian 90(TM) system (copyright 1990, Gaussian, Inc.),
 the Gaussian 88(TM) system (copyright 1988, Gaussian, Inc.),
 the Gaussian 86(TM) system (copyright 1986, Carnegie Mellon
 University), and the Gaussian 82(TM) system (copyright 1983,
 Carnegie Mellon University). Gaussian is a federally registered
 trademark of Gaussian, Inc.
  
 This software contains proprietary and confidential information,
 including trade secrets, belonging to Gaussian, Inc.
  
 This software is provided under written license and may be
 used, copied, transmitted, or stored only in accord with that
 written license.
  
 The following legend is applicable only to US Government
 contracts under FAR:
  
                    RESTRICTED RIGHTS LEGEND
  
 Use, reproduction and disclosure by the US Government is
 subject to restrictions as set forth in subparagraphs (a)
 and (c) of the Commercial Computer Software - Restricted
 Rights clause in FAR 52.227-19.
  
 Gaussian, Inc.
 340 Quinnipiac St., Bldg. 40, Wallingford CT 06492
  
  
 ---------------------------------------------------------------
 Warning -- This program may not be used in any manner that
 competes with the business of Gaussian, Inc. or will provide
 assistance to any competitor of Gaussian, Inc.  The licensee
 of this program is prohibited from giving any competitor of
 Gaussian, Inc. access to this program.  By using this program,
 the user acknowledges that Gaussian, Inc. is engaged in the
 business of creating and licensing software in the field of
 computational chemistry and represents and warrants to the
 licensee that it is not a competitor of Gaussian, Inc. and that
 it will not use this program in any manner prohibited above.
 ---------------------------------------------------------------
  

 Cite this work as:
 Gaussian 16, Revision A.03,
 M. J. Frisch, G. W. Trucks, H. B. Schlegel, G. E. Scuseria, 
 M. A. Robb, J. R. Cheeseman, G. Scalmani, V. Barone, 
 G. A. Petersson, H. Nakatsuji, X. Li, M. Caricato, A. V. Marenich, 
 J. Bloino, B. G. Janesko, R. Gomperts, B. Mennucci, H. P. Hratchian, 
 J. V. Ortiz, A. F. Izmaylov, J. L. Sonnenberg, D. Williams-Young, 
 F. Ding, F. Lipparini, F. Egidi, J. Goings, B. Peng, A. Petrone, 
 T. Henderson, D. Ranasinghe, V. G. Zakrzewski, J. Gao, N. Rega, 
 G. Zheng, W. Liang, M. Hada, M. Ehara, K. Toyota, R. Fukuda, 
 J. Hasegawa, M. Ishida, T. Nakajima, Y. Honda, O. Kitao, H. Nakai, 
 T. Vreven, K. Throssell, J. A. Montgomery, Jr., J. E. Peralta, 
 F. Ogliaro, M. J. Bearpark, J. J. Heyd, E. N. Brothers, K. N. Kudin, 
 V. N. Staroverov, T. A. Keith, R. Kobayashi, J. Normand, 
 K. Raghavachari, A. P. Rendell, J. C. Burant, S. S. Iyengar, 
 J. Tomasi, M. Cossi, J. M. Millam, M. Klene, C. Adamo, R. Cammi, 
 J. W. Ochterski, R. L. Martin, K. Morokuma, O. Farkas, 
 J. B. Foresman, and D. J. Fox, Gaussian, Inc., Wallingford CT, 2016.
 
 ******************************************
 Gaussian 16:  EM64M-G16RevA.03 25-Dec-2016
                 2-Apr-2026 
 ******************************************
 %nprocshared=8
 Will use up to    8 processors via shared memory.
 %mem=16GB
 %chk=2223Tetrafluoropropene_Opt_Freq_AM1_Gaussian16.chk
 --------------------------------------------------------------
 #p opt=tight freq=raman am1 guess=save geom=connectivity polar
 --------------------------------------------------------------
 1/7=10,18=20,19=15,26=1,38=1,57=2/1,3;
 2/9=110,12=2,17=6,18=5,40=1/2;
 3/5=2,25=1,41=700000,71=1/1,2,3;
 4/35=1/1;
 5/5=2,35=1,38=5,98=1/2;
 6/7=2,8=2,9=2,10=2,28=1/1;
 7//1,2,3,16;
 1/7=10,18=20,19=15,26=1/3(2);
 2/9=110/2;
 99//99;
 2/9=110/2;
 3/5=2,25=1,41=700000,71=1,135=20/1,2,3;
 4/5=5,16=3,35=1/1;
 5/5=2,35=1,38=5,98=1/2;
 7//1,2,3,16;
 1/7=10,18=20,19=15,26=1/3(-5);
 2/9=110/2;
 6/7=2,8=2,9=2,10=2,19=2,28=1/1;
 99/9=1/99;
 Leave Link    1 at Thu Apr  2 13:26:52 2026, MaxMem=  2147483648 cpu:               0.1 elap:               0.0
 (Enter /Users/yarger/Applications/g16/l101.exe)
 ------------------------------------
 r1234yf - 2,3,3,3-Tetrafluoropropene
 ------------------------------------
 Symbolic Z-matrix:
 Charge =  0 Multiplicity = 1
 C                     1.74822   1.06421   0. 
 H                     1.38429   2.08656  0. 
 H                     2.83259   0.99597   0. 
 C                     0.94847   0.00447  0. 
 C                    -0.56314   0.02673   0. 
 F                    -1.16412  -1.16916   0.00001 
 F                    -1.0876    0.66408   1.05937 
 F                    -1.0876    0.66406  -1.05938 
 F                     1.4484   -1.23175   0. 
 
 ITRead=  0  0  0  0  0  0  0  0  0
 MicOpt= -1 -1 -1 -1 -1 -1 -1 -1 -1
 NAtoms=      9 NQM=        9 NQMF=       0 NMMI=      0 NMMIF=      0
                NMic=       0 NMicF=      0.
                    Isotopes and Nuclear Properties:
 (Nuclear quadrupole moments (NQMom) in fm**2, nuclear magnetic moments (NMagM)
  in nuclear magnetons)

  Atom         1           2           3           4           5           6           7           8           9
 IAtWgt=          12           1           1          12          12          19          19          19          19
 AtmWgt=  12.0000000   1.0078250   1.0078250  12.0000000  12.0000000  18.9984033  18.9984033  18.9984033  18.9984033
 NucSpn=           0           1           1           0           0           1           1           1           1
 AtZEff=  -0.0000000  -0.0000000  -0.0000000  -0.0000000  -0.0000000  -0.0000000  -0.0000000  -0.0000000  -0.0000000
 NQMom=    0.0000000   0.0000000   0.0000000   0.0000000   0.0000000   0.0000000   0.0000000   0.0000000   0.0000000
 NMagM=    0.0000000   2.7928460   2.7928460   0.0000000   0.0000000   2.6288670   2.6288670   2.6288670   2.6288670
 AtZNuc=   6.0000000   1.0000000   1.0000000   6.0000000   6.0000000   9.0000000   9.0000000   9.0000000   9.0000000
 Leave Link  101 at Thu Apr  2 13:26:52 2026, MaxMem=  2147483648 cpu:               2.1 elap:               0.3
 (Enter /Users/yarger/Applications/g16/l103.exe)

 GradGradGradGradGradGradGradGradGradGradGradGradGradGradGradGradGradGrad
 Berny optimization.
 Initialization pass.
                           ----------------------------
                           !    Initial Parameters    !
                           ! (Angstroms and Degrees)  !
 --------------------------                            --------------------------
 ! Name  Definition              Value          Derivative Info.                !
 --------------------------------------------------------------------------------
 ! R1    R(1,2)                  1.0852         estimate D2E/DX2                !
 ! R2    R(1,3)                  1.0865         estimate D2E/DX2                !
 ! R3    R(1,4)                  1.3276         estimate D2E/DX2                !
 ! R4    R(4,5)                  1.5118         estimate D2E/DX2                !
 ! R5    R(4,9)                  1.3335         estimate D2E/DX2                !
 ! R6    R(5,6)                  1.3384         estimate D2E/DX2                !
 ! R7    R(5,7)                  1.343          estimate D2E/DX2                !
 ! R8    R(5,8)                  1.343          estimate D2E/DX2                !
 ! A1    A(2,1,3)              113.1955         estimate D2E/DX2                !
 ! A2    A(2,1,4)              123.3649         estimate D2E/DX2                !
 ! A3    A(3,1,4)              123.4395         estimate D2E/DX2                !
 ! A4    A(1,4,5)              126.1968         estimate D2E/DX2                !
 ! A5    A(1,4,9)              120.9413         estimate D2E/DX2                !
 ! A6    A(5,4,9)              112.8619         estimate D2E/DX2                !
 ! A7    A(4,5,6)              115.8373         estimate D2E/DX2                !
 ! A8    A(4,5,7)              113.42           estimate D2E/DX2                !
 ! A9    A(4,5,8)              113.42           estimate D2E/DX2                !
 ! A10   A(6,5,7)              104.4002         estimate D2E/DX2                !
 ! A11   A(6,5,8)              104.4002         estimate D2E/DX2                !
 ! A12   A(7,5,8)              104.1543         estimate D2E/DX2                !
 ! D1    D(2,1,4,5)             -0.0002         estimate D2E/DX2                !
 ! D2    D(2,1,4,9)            179.9999         estimate D2E/DX2                !
 ! D3    D(3,1,4,5)            179.9999         estimate D2E/DX2                !
 ! D4    D(3,1,4,9)              0.0001         estimate D2E/DX2                !
 ! D5    D(1,4,5,6)           -179.9996         estimate D2E/DX2                !
 ! D6    D(1,4,5,7)            -59.2781         estimate D2E/DX2                !
 ! D7    D(1,4,5,8)             59.279          estimate D2E/DX2                !
 ! D8    D(9,4,5,6)              0.0003         estimate D2E/DX2                !
 ! D9    D(9,4,5,7)            120.7218         estimate D2E/DX2                !
 ! D10   D(9,4,5,8)           -120.7211         estimate D2E/DX2                !
 --------------------------------------------------------------------------------
 Trust Radius=3.00D-01 FncErr=1.00D-07 GrdErr=1.00D-07 EigMax=2.50D+02 EigMin=1.00D-04
 Number of steps in this run=     40 maximum allowed number of steps=    100.
 GradGradGradGradGradGradGradGradGradGradGradGradGradGradGradGradGradGrad

 Leave Link  103 at Thu Apr  2 13:26:52 2026, MaxMem=  2147483648 cpu:               0.1 elap:               0.0
 (Enter /Users/yarger/Applications/g16/l202.exe)
                          Input orientation:                          
 ---------------------------------------------------------------------
 Center     Atomic      Atomic             Coordinates (Angstroms)
 Number     Number       Type             X           Y           Z
 ---------------------------------------------------------------------
      1          6           0        1.748220    1.064211    0.000000
      2          1           0        1.384286    2.086562   -0.000002
      3          1           0        2.832592    0.995970    0.000000
      4          6           0        0.948473    0.004470   -0.000001
      5          6           0       -0.563141    0.026730    0.000000
      6          9           0       -1.164115   -1.169164    0.000008
      7          9           0       -1.087595    0.664077    1.059373
      8          9           0       -1.087597    0.664063   -1.059381
      9          9           0        1.448396   -1.231753    0.000000
 ---------------------------------------------------------------------
                    Distance matrix (angstroms):
                    1          2          3          4          5
     1  C    0.000000
     2  H    1.085196   0.000000
     3  H    1.086517   1.813003   0.000000
     4  C    1.327647   2.127214   2.129079   0.000000
     5  C    2.533526   2.834675   3.531349   1.511778   0.000000
     6  F    3.670103   4.134501   4.545489   2.416701   1.338407
     7  F    3.053559   3.042357   4.074345   2.388080   1.342957
     8  F    3.053566   3.042366   4.074351   2.388081   1.342958
     9  F    2.315458   3.318934   2.622737   1.333481   2.372775
                    6          7          8          9
     6  F    0.000000
     7  F    2.118698   0.000000
     8  F    2.118698   2.118754   0.000000
     9  F    2.613261   3.338816   3.338812   0.000000
 Stoichiometry    C3H2F4
 Framework group  C1[X(C3H2F4)]
 Deg. of freedom    21
 Full point group                 C1      NOp   1
 Largest Abelian subgroup         C1      NOp   1
 Largest concise Abelian subgroup C1      NOp   1
                         Standard orientation:                         
 ---------------------------------------------------------------------
 Center     Atomic      Atomic             Coordinates (Angstroms)
 Number     Number       Type             X           Y           Z
 ---------------------------------------------------------------------
      1          6           0        1.748220   -1.064211   -0.000000
      2          1           0        1.384286   -2.086562    0.000002
      3          1           0        2.832592   -0.995970   -0.000000
      4          6           0        0.948473   -0.004470    0.000001
      5          6           0       -0.563141   -0.026730   -0.000000
      6          9           0       -1.164115    1.169164   -0.000008
      7          9           0       -1.087595   -0.664077   -1.059373
      8          9           0       -1.087597   -0.664063    1.059381
      9          9           0        1.448396    1.231753   -0.000000
 ---------------------------------------------------------------------
 Rotational constants (GHZ):           3.8200226           2.3517624           1.9296269
 Leave Link  202 at Thu Apr  2 13:26:52 2026, MaxMem=  2147483648 cpu:               0.0 elap:               0.0
 (Enter /Users/yarger/Applications/g16/l301.exe)
 Standard basis: VSTO-6G (5D, 7F)
 Ernie: Thresh=  0.10000D-02 Tol=  0.10000D-05 Strict=F.
  NNHCO=     0 NNPyr=     0 NCTC=     0               EPep=         0.000000000
    EC=       161.915510032  ECS=         1.829829968   EG=         0.475836819
   EHC=         0.000000000  EAt=       -85.052729409  AtH=         1.103463817
 EPDDG=         0.000000000  ECC=       164.221176819 EAtT=        86.156193227
 There are    30 symmetry adapted cartesian basis functions of A   symmetry.
 There are    30 symmetry adapted basis functions of A   symmetry.
    30 basis functions,   180 primitive gaussians,    30 cartesian basis functions
    21 alpha electrons       21 beta electrons
       nuclear repulsion energy       250.3773700453 Hartrees.
 IExCor=    0 DFT=F Ex=HF Corr=None ExCW=0 ScaHFX=  1.000000
 ScaDFX=  1.000000  1.000000  1.000000  1.000000 ScalE2=  1.000000  1.000000
 IRadAn=      5 IRanWt=     -1 IRanGd=            0 ICorTp=0 IEmpDi=  4
 Integral buffers will be    131072 words long.
 Regular integral format.
 Two-electron integral symmetry is turned off.
 Leave Link  301 at Thu Apr  2 13:26:52 2026, MaxMem=  2147483648 cpu:               0.2 elap:               0.0
 (Enter /Users/yarger/Applications/g16/l302.exe)
 Do NDO integrals.
 NPDir=0 NMtPBC=     1 NCelOv=     1 NCel=       1 NClECP=     1 NCelD=      1
         NCelK=      1 NCelE2=     1 NClLst=     1 CellRange=     0.0.
 One-electron integrals computed using PRISM.
 NBasis=    30 RedAO= F EigKep=  0.00D+00  NBF=    30
 NBsUse=    30 1.00D-04 EigRej=  0.00D+00 NBFU=    30
 Leave Link  302 at Thu Apr  2 13:26:52 2026, MaxMem=  2147483648 cpu:               0.3 elap:               0.1
 (Enter /Users/yarger/Applications/g16/l303.exe)
 DipDrv:  MaxL=1.
 Leave Link  303 at Thu Apr  2 13:26:52 2026, MaxMem=  2147483648 cpu:               0.1 elap:               0.0
 (Enter /Users/yarger/Applications/g16/l401.exe)
 Simple Huckel Guess.
 JPrj=0 DoOrth=F DoCkMO=F.
 Leave Link  401 at Thu Apr  2 13:26:52 2026, MaxMem=  2147483648 cpu:               0.1 elap:               0.0
 (Enter /Users/yarger/Applications/g16/l502.exe)
 Keep J ints in memory in canonical form, NReq=861894.
 FoFCou: FMM=F IPFlag=           0 FMFlag=           0 FMFlg1=           0
         NFxFlg=           0 DoJE=F BraDBF=F KetDBF=F FulRan=T
         wScrn=  0.000000 ICntrl=       600 IOpCl=  2 I1Cent=           0 NGrid=           0
         NMat0=    1 NMatS0=     72 NMatT0=    0 NMatD0=    1 NMtDS0=    0 NMtDT0=    0
 Symmetry not used in FoFCou.
 Two-electron integral symmetry not used.
 Closed shell SCF:
 Using DIIS extrapolation, IDIIS=  1040.
 Overlap will be assumed to be unity.
 NGot=  2147483648 LenX=  2147419503 LenY=  2147418162
 Requested convergence on RMS density matrix=1.00D-08 within 128 cycles.
 Requested convergence on MAX density matrix=1.00D-06.
 Requested convergence on             energy=1.00D-06.
 No special actions if energy rises.

 Cycle   1  Pass 1  IDiag  1:
 E= 0.277609802724186    
 DIIS: error= 6.96D-02 at cycle   1 NSaved=   1.
 NSaved= 1 IEnMin= 1 EnMin= 0.277609802724186     IErMin= 1 ErrMin= 6.96D-02
 ErrMax= 6.96D-02  0.00D+00 EMaxC= 1.00D-01 BMatC= 2.21D-01 BMatP= 2.21D-01
 IDIUse=3 WtCom= 3.04D-01 WtEn= 6.96D-01
 Coeff-Com:  0.100D+01
 Coeff-En:   0.100D+01
 Coeff:      0.100D+01
 GapD=    2.000 DampG=2.000 DampE=0.500 DampFc=1.0000 IDamp=-1.
 RMSDP=2.08D-02 MaxDP=1.12D-01              OVMax= 0.00D+00

 Cycle   2  Pass 1  IDiag  1:
 E=-0.238334258425539     Delta-E=       -0.515944061150 Rises=F Damp=F
 DIIS: error= 1.64D-02 at cycle   2 NSaved=   2.
 NSaved= 2 IEnMin= 2 EnMin=-0.238334258425539     IErMin= 2 ErrMin= 1.64D-02
 ErrMax= 1.64D-02  0.00D+00 EMaxC= 1.00D-01 BMatC= 1.78D-02 BMatP= 2.21D-01
 IDIUse=3 WtCom= 8.36D-01 WtEn= 1.64D-01
 Coeff-Com: -0.352D+00 0.135D+01
 Coeff-En:   0.000D+00 0.100D+01
 Coeff:     -0.294D+00 0.129D+01
 RMSDP=8.06D-03 MaxDP=5.98D-02 DE=-5.16D-01 OVMax= 0.00D+00

 Cycle   3  Pass 1  IDiag  3:
 E=-0.285974268812623     Delta-E=       -0.047640010387 Rises=F Damp=F
 DIIS: error= 2.35D-03 at cycle   3 NSaved=   3.
 NSaved= 3 IEnMin= 3 EnMin=-0.285974268812623     IErMin= 3 ErrMin= 2.35D-03
 ErrMax= 2.35D-03  0.00D+00 EMaxC= 1.00D-01 BMatC= 3.48D-04 BMatP= 1.78D-02
 IDIUse=3 WtCom= 9.76D-01 WtEn= 2.35D-02
 Coeff-Com:  0.992D-01-0.398D+00 0.130D+01
 Coeff-En:   0.000D+00 0.000D+00 0.100D+01
 Coeff:      0.968D-01-0.389D+00 0.129D+01
 Gap=     0.404 Goal=   None    Shift=    0.000
 RMSDP=1.58D-03 MaxDP=8.72D-03 DE=-4.76D-02 OVMax= 1.38D-02

 Cycle   4  Pass 1  IDiag  3:
 E=-0.287598849418515     Delta-E=       -0.001624580606 Rises=F Damp=F
 DIIS: error= 9.56D-04 at cycle   4 NSaved=   4.
 NSaved= 4 IEnMin= 4 EnMin=-0.287598849418515     IErMin= 4 ErrMin= 9.56D-04
 ErrMax= 9.56D-04  0.00D+00 EMaxC= 1.00D-01 BMatC= 4.16D-05 BMatP= 3.48D-04
 IDIUse=3 WtCom= 9.90D-01 WtEn= 9.56D-03
 Coeff-Com: -0.335D-03-0.113D-01-0.397D+00 0.141D+01
 Coeff-En:   0.000D+00 0.000D+00 0.000D+00 0.100D+01
 Coeff:     -0.332D-03-0.112D-01-0.393D+00 0.141D+01
 Gap=     0.405 Goal=   None    Shift=    0.000
 RMSDP=7.71D-04 MaxDP=4.42D-03 DE=-1.62D-03 OVMax= 6.82D-03

 Cycle   5  Pass 1  IDiag  3:
 E=-0.287828209497064     Delta-E=       -0.000229360079 Rises=F Damp=F
 DIIS: error= 1.03D-04 at cycle   5 NSaved=   5.
 NSaved= 5 IEnMin= 5 EnMin=-0.287828209497064     IErMin= 5 ErrMin= 1.03D-04
 ErrMax= 1.03D-04  0.00D+00 EMaxC= 1.00D-01 BMatC= 9.08D-07 BMatP= 4.16D-05
 IDIUse=3 WtCom= 9.99D-01 WtEn= 1.03D-03
 Coeff-Com: -0.458D-03 0.811D-02 0.947D-01-0.463D+00 0.136D+01
 Coeff-En:   0.000D+00 0.000D+00 0.000D+00 0.000D+00 0.100D+01
 Coeff:     -0.458D-03 0.810D-02 0.946D-01-0.463D+00 0.136D+01
 Gap=     0.405 Goal=   None    Shift=    0.000
 RMSDP=1.13D-04 MaxDP=5.59D-04 DE=-2.29D-04 OVMax= 1.27D-03

 Cycle   6  Pass 1  IDiag  3:
 E=-0.287832988245725     Delta-E=       -0.000004778749 Rises=F Damp=F
 DIIS: error= 2.20D-05 at cycle   6 NSaved=   6.
 NSaved= 6 IEnMin= 6 EnMin=-0.287832988245725     IErMin= 6 ErrMin= 2.20D-05
 ErrMax= 2.20D-05  0.00D+00 EMaxC= 1.00D-01 BMatC= 2.86D-08 BMatP= 9.08D-07
 IDIUse=1 WtCom= 1.00D+00 WtEn= 0.00D+00
 Coeff-Com:  0.472D-03-0.426D-02-0.303D-01 0.165D+00-0.584D+00 0.145D+01
 Coeff:      0.472D-03-0.426D-02-0.303D-01 0.165D+00-0.584D+00 0.145D+01
 Gap=     0.405 Goal=   None    Shift=    0.000
 RMSDP=1.86D-05 MaxDP=1.07D-04 DE=-4.78D-06 OVMax= 2.06D-04

 Cycle   7  Pass 1  IDiag  3:
 E=-0.287833139753786     Delta-E=       -0.000000151508 Rises=F Damp=F
 DIIS: error= 5.78D-06 at cycle   7 NSaved=   7.
 NSaved= 7 IEnMin= 7 EnMin=-0.287833139753786     IErMin= 7 ErrMin= 5.78D-06
 ErrMax= 5.78D-06  0.00D+00 EMaxC= 1.00D-01 BMatC= 1.61D-09 BMatP= 2.86D-08
 IDIUse=1 WtCom= 1.00D+00 WtEn= 0.00D+00
 Coeff-Com: -0.169D-03 0.155D-02 0.113D-01-0.609D-01 0.223D+00-0.697D+00
 Coeff-Com:  0.152D+01
 Coeff:     -0.169D-03 0.155D-02 0.113D-01-0.609D-01 0.223D+00-0.697D+00
 Coeff:      0.152D+01
 Gap=     0.405 Goal=   None    Shift=    0.000
 RMSDP=4.92D-06 MaxDP=2.81D-05 DE=-1.52D-07 OVMax= 5.11D-05

 Cycle   8  Pass 1  IDiag  3:
 E=-0.287833149376269     Delta-E=       -0.000000009622 Rises=F Damp=F
 DIIS: error= 1.50D-06 at cycle   8 NSaved=   8.
 NSaved= 8 IEnMin= 8 EnMin=-0.287833149376269     IErMin= 8 ErrMin= 1.50D-06
 ErrMax= 1.50D-06  0.00D+00 EMaxC= 1.00D-01 BMatC= 9.29D-11 BMatP= 1.61D-09
 IDIUse=1 WtCom= 1.00D+00 WtEn= 0.00D+00
 Coeff-Com:  0.472D-04-0.485D-03-0.400D-02 0.209D-01-0.784D-01 0.264D+00
 Coeff-Com: -0.739D+00 0.154D+01
 Coeff:      0.472D-04-0.485D-03-0.400D-02 0.209D-01-0.784D-01 0.264D+00
 Coeff:     -0.739D+00 0.154D+01
 Gap=     0.405 Goal=   None    Shift=    0.000
 RMSDP=1.27D-06 MaxDP=8.38D-06 DE=-9.62D-09 OVMax= 1.64D-05

 Cycle   9  Pass 1  IDiag  3:
 E=-0.287833149955901     Delta-E=       -0.000000000580 Rises=F Damp=F
 DIIS: error= 2.93D-07 at cycle   9 NSaved=   9.
 NSaved= 9 IEnMin= 9 EnMin=-0.287833149955901     IErMin= 9 ErrMin= 2.93D-07
 ErrMax= 2.93D-07  0.00D+00 EMaxC= 1.00D-01 BMatC= 4.36D-12 BMatP= 9.29D-11
 IDIUse=1 WtCom= 1.00D+00 WtEn= 0.00D+00
 Coeff-Com: -0.125D-04 0.125D-03 0.104D-02-0.534D-02 0.206D-01-0.706D-01
 Coeff-Com:  0.213D+00-0.612D+00 0.145D+01
 Coeff:     -0.125D-04 0.125D-03 0.104D-02-0.534D-02 0.206D-01-0.706D-01
 Coeff:      0.213D+00-0.612D+00 0.145D+01
 Gap=     0.405 Goal=   None    Shift=    0.000
 RMSDP=2.81D-07 MaxDP=1.99D-06 DE=-5.80D-10 OVMax= 3.63D-06

 Cycle  10  Pass 1  IDiag  3:
 E=-0.287833149983044     Delta-E=       -0.000000000027 Rises=F Damp=F
 DIIS: error= 9.59D-08 at cycle  10 NSaved=  10.
 NSaved=10 IEnMin=10 EnMin=-0.287833149983044     IErMin=10 ErrMin= 9.59D-08
 ErrMax= 9.59D-08  0.00D+00 EMaxC= 1.00D-01 BMatC= 1.77D-13 BMatP= 4.36D-12
 IDIUse=1 WtCom= 1.00D+00 WtEn= 0.00D+00
 Coeff-Com:  0.159D-05-0.133D-04-0.997D-04 0.501D-03-0.213D-02 0.747D-02
 Coeff-Com: -0.233D-01 0.912D-01-0.394D+00 0.132D+01
 Coeff:      0.159D-05-0.133D-04-0.997D-04 0.501D-03-0.213D-02 0.747D-02
 Coeff:     -0.233D-01 0.912D-01-0.394D+00 0.132D+01
 Gap=     0.405 Goal=   None    Shift=    0.000
 RMSDP=5.07D-08 MaxDP=4.27D-07 DE=-2.71D-11 OVMax= 5.77D-07

 Cycle  11  Pass 1  IDiag  3:
 E=-0.287833149983783     Delta-E=       -0.000000000001 Rises=F Damp=F
 DIIS: error= 1.76D-08 at cycle  11 NSaved=  11.
 NSaved=11 IEnMin=11 EnMin=-0.287833149983783     IErMin=11 ErrMin= 1.76D-08
 ErrMax= 1.76D-08  0.00D+00 EMaxC= 1.00D-01 BMatC= 9.25D-15 BMatP= 1.77D-13
 IDIUse=1 WtCom= 1.00D+00 WtEn= 0.00D+00
 Coeff-Com: -0.833D-07 0.533D-06 0.600D-05-0.215D-04 0.156D-03-0.587D-03
 Coeff-Com:  0.182D-02-0.123D-01 0.845D-01-0.464D+00 0.139D+01
 Coeff:     -0.833D-07 0.533D-06 0.600D-05-0.215D-04 0.156D-03-0.587D-03
 Coeff:      0.182D-02-0.123D-01 0.845D-01-0.464D+00 0.139D+01
 Gap=     0.405 Goal=   None    Shift=    0.000
 RMSDP=1.09D-08 MaxDP=1.09D-07 DE=-7.39D-13 OVMax= 9.58D-08

 Cycle  12  Pass 1  IDiag  3:
 E=-0.287833149984010     Delta-E=       -0.000000000000 Rises=F Damp=F
 DIIS: error= 5.23D-09 at cycle  12 NSaved=  12.
 NSaved=12 IEnMin=12 EnMin=-0.287833149984010     IErMin=12 ErrMin= 5.23D-09
 ErrMax= 5.23D-09  0.00D+00 EMaxC= 1.00D-01 BMatC= 6.07D-16 BMatP= 9.25D-15
 IDIUse=1 WtCom= 1.00D+00 WtEn= 0.00D+00
 Coeff-Com: -0.391D-07 0.470D-06 0.235D-05-0.172D-04 0.337D-04-0.977D-04
 Coeff-Com:  0.324D-03 0.225D-02-0.297D-01 0.207D+00-0.797D+00 0.162D+01
 Coeff:     -0.391D-07 0.470D-06 0.235D-05-0.172D-04 0.337D-04-0.977D-04
 Coeff:      0.324D-03 0.225D-02-0.297D-01 0.207D+00-0.797D+00 0.162D+01
 Gap=     0.405 Goal=   None    Shift=    0.000
 RMSDP=3.18D-09 MaxDP=2.95D-08 DE=-2.27D-13 OVMax= 2.48D-08

 Cycle  13  Pass 2  IDiag  1:
 SCF Done:  E(RAM1) = -0.287833149984     A.U. after   13 cycles
            NFock= 12  Conv=0.32D-08     -V/T= 0.9980
 KE=-1.433585850898D+02 PE=-3.202462562572D+02 EE= 2.129396381517D+02
 Leave Link  502 at Thu Apr  2 13:26:52 2026, MaxMem=  2147483648 cpu:               0.3 elap:               0.1
 (Enter /Users/yarger/Applications/g16/l601.exe)
 Copying SCF densities to generalized density rwf, IOpCl= 0 IROHF=0.

 **********************************************************************

            Population analysis using the SCF density.

 **********************************************************************

 Orbital symmetries:
       Occupied  (A) (A) (A) (A) (A) (A) (A) (A) (A) (A) (A) (A)
                 (A) (A) (A) (A) (A) (A) (A) (A) (A)
       Virtual   (A) (A) (A) (A) (A) (A) (A) (A) (A)
 The electronic state is 1-A.
 Alpha  occ. eigenvalues --   -1.95958  -1.86765  -1.81540  -1.81501  -1.26564
 Alpha  occ. eigenvalues --   -1.02720  -0.84674  -0.74640  -0.73813  -0.72736
 Alpha  occ. eigenvalues --   -0.63717  -0.62210  -0.59040  -0.57800  -0.57641
 Alpha  occ. eigenvalues --   -0.55118  -0.54161  -0.54083  -0.52709  -0.47773
 Alpha  occ. eigenvalues --   -0.41116
 Alpha virt. eigenvalues --   -0.00697   0.04016   0.10135   0.11668   0.12083
 Alpha virt. eigenvalues --    0.12244   0.14230   0.14968   0.16985
          Condensed to atoms (all electrons):
               1          2          3          4          5          6
     1  C    4.192493   0.000000   0.000000   0.000000   0.000000   0.000000
     2  H    0.000000   0.853368   0.000000   0.000000   0.000000   0.000000
     3  H    0.000000   0.000000   0.849482   0.000000   0.000000   0.000000
     4  C    0.000000   0.000000   0.000000   4.022418   0.000000   0.000000
     5  C    0.000000   0.000000   0.000000   0.000000   3.524563   0.000000
     6  F    0.000000   0.000000   0.000000   0.000000   0.000000   7.148479
     7  F    0.000000   0.000000   0.000000   0.000000   0.000000   0.000000
     8  F    0.000000   0.000000   0.000000   0.000000   0.000000   0.000000
     9  F    0.000000   0.000000   0.000000   0.000000   0.000000   0.000000
               7          8          9
     1  C    0.000000   0.000000   0.000000
     2  H    0.000000   0.000000   0.000000
     3  H    0.000000   0.000000   0.000000
     4  C    0.000000   0.000000   0.000000
     5  C    0.000000   0.000000   0.000000
     6  F    0.000000   0.000000   0.000000
     7  F    7.162393   0.000000   0.000000
     8  F    0.000000   7.162393   0.000000
     9  F    0.000000   0.000000   7.084410
 Mulliken charges:
               1
     1  C   -0.192493
     2  H    0.146632
     3  H    0.150518
     4  C   -0.022418
     5  C    0.475437
     6  F   -0.148479
     7  F   -0.162393
     8  F   -0.162393
     9  F   -0.084410
 Sum of Mulliken charges =  -0.00000
 Mulliken charges with hydrogens summed into heavy atoms:
               1
     1  C    0.104657
     4  C   -0.022418
     5  C    0.475437
     6  F   -0.148479
     7  F   -0.162393
     8  F   -0.162393
     9  F   -0.084410
 Charge=              0.0000 electrons
 Dipole moment (field-independent basis, Debye):
    X=              1.9977    Y=             -1.4685    Z=             -0.0000  Tot=              2.4794
 N-N= 2.503773700453D+02 E-N=-3.202462562552D+02  KE=-1.433585850898D+02
 Leave Link  601 at Thu Apr  2 13:26:52 2026, MaxMem=  2147483648 cpu:               0.1 elap:               0.0
 (Enter /Users/yarger/Applications/g16/l701.exe)
 ... and contract with generalized density number  0.
 Compute integral first derivatives.
 Leave Link  701 at Thu Apr  2 13:26:52 2026, MaxMem=  2147483648 cpu:               0.3 elap:               0.1
 (Enter /Users/yarger/Applications/g16/l702.exe)
 L702 exits ... SP integral derivatives will be done elsewhere.
 Leave Link  702 at Thu Apr  2 13:26:52 2026, MaxMem=  2147483648 cpu:               0.1 elap:               0.0
 (Enter /Users/yarger/Applications/g16/l703.exe)
 Integral derivatives from FoFJK, PRISM(SPDF).
 Compute integral first derivatives, UseDBF=F ICtDFT=           0.
 Calling FoFJK, ICntrl=      2127 FMM=F ISym2X=0 I1Cent= 0 IOpClX= 0 NMat=1 NMatS=1 NMatT=0.
 FoFJK:  IHMeth= 8 ICntrl=    2127 DoSepK=F KAlg= 0 I1Cent=           0 FoldK=F
 IRaf=         0 NMat=       1 IRICut=       1 DoRegI=T DoRafI=F ISym2E= 0 IDoP0=3 IntGTp=3.
 FoFCou: FMM=F IPFlag=           0 FMFlag=      100000 FMFlg1=         800
         NFxFlg=           0 DoJE=F BraDBF=F KetDBF=F FulRan=T
         wScrn=  0.000000 ICntrl=      2127 IOpCl=  0 I1Cent=           0 NGrid=           0
         NMat0=    1 NMatS0=      1 NMatT0=    0 NMatD0=    1 NMtDS0=    0 NMtDT0=    0
 Symmetry not used in FoFCou.
 Leave Link  703 at Thu Apr  2 13:26:53 2026, MaxMem=  2147483648 cpu:               0.2 elap:               0.0
 (Enter /Users/yarger/Applications/g16/l716.exe)
 Dipole        = 7.85959699D-01-5.77771348D-01-7.16268840D-10
 ***** Axes restored to original set *****
 -------------------------------------------------------------------
 Center     Atomic                   Forces (Hartrees/Bohr)
 Number     Number              X              Y              Z
 -------------------------------------------------------------------
      1        6           0.004122485    0.021937988   -0.000000258
      2        1          -0.007461184    0.008087629    0.000000081
      3        1           0.009442258   -0.004704531    0.000000054
      4        6           0.016004513   -0.003729227    0.000000213
      5        6           0.016885992    0.011269567   -0.000000500
      6        9          -0.015663575   -0.043899658    0.000000327
      7        9          -0.017550161    0.022511748    0.038049820
      8        9          -0.017549978    0.022511043   -0.038049704
      9        9           0.011769650   -0.033984559   -0.000000032
 -------------------------------------------------------------------
 Cartesian Forces:  Max     0.043899658 RMS     0.018662635
 Leave Link  716 at Thu Apr  2 13:26:53 2026, MaxMem=  2147483648 cpu:               0.1 elap:               0.0
 (Enter /Users/yarger/Applications/g16/l103.exe)

 GradGradGradGradGradGradGradGradGradGradGradGradGradGradGradGradGradGrad
 Berny optimization.
 FormGI is forming the generalized inverse of G from B-inverse, IUseBI=4.
 Internal  Forces:  Max     0.047552516 RMS     0.018678610
 Search for a local minimum.
 Step number   1 out of a maximum of   40
 All quantities printed in internal units (Hartrees-Bohrs-Radians)
 RMS Force = .18679D-01 SwitMx=.10000D-02 MixMth= 1
 Mixed Optimization -- RFO/linear search
 Second derivative matrix not updated -- first step.
 ITU=  0
     Eigenvalues ---    0.00610   0.01669   0.03046   0.03046   0.09678
     Eigenvalues ---    0.10211   0.16000   0.16000   0.25000   0.25000
     Eigenvalues ---    0.25000   0.25000   0.25000   0.31172   0.35218
     Eigenvalues ---    0.35374   0.56547   0.56547   0.57564   0.58691
     Eigenvalues ---    0.60065
 RFO step:  Lambda=-2.06756859D-02 EMin= 6.10148604D-03
 Linear search not attempted -- first point.
 Iteration  1 RMS(Cart)=  0.04838134 RMS(Int)=  0.00070786
 Iteration  2 RMS(Cart)=  0.00134089 RMS(Int)=  0.00004296
 Iteration  3 RMS(Cart)=  0.00000047 RMS(Int)=  0.00004296
 ITry= 1 IFail=0 DXMaxC= 1.22D-01 DCOld= 1.00D+10 DXMaxT= 3.00D-01 DXLimC= 3.00D+00 Rises=F
 Variable       Old X    -DE/DX   Delta X   Delta X   Delta X     New X
                                 (Linear)    (Quad)   (Total)
    R1        2.05072   0.01012   0.00000   0.02703   0.02703   2.07776
    R2        2.05322   0.00972   0.00000   0.02607   0.02607   2.07929
    R3        2.50889   0.02389   0.00000   0.03845   0.03845   2.54734
    R4        2.85685   0.03406   0.00000   0.10246   0.10246   2.95930
    R5        2.51991   0.03592   0.00000   0.05912   0.05912   2.57903
    R6        2.52922   0.04626   0.00000   0.07757   0.07757   2.60680
    R7        2.53782   0.04755   0.00000   0.08113   0.08113   2.61895
    R8        2.53782   0.04755   0.00000   0.08113   0.08113   2.61895
    A1        1.97563   0.00576   0.00000   0.03187   0.03187   2.00751
    A2        2.15312  -0.00309   0.00000  -0.01713  -0.01713   2.13600
    A3        2.15443  -0.00266   0.00000  -0.01475  -0.01475   2.13968
    A4        2.20255  -0.01611   0.00000  -0.05953  -0.05953   2.14302
    A5        2.11082   0.01036   0.00000   0.03828   0.03828   2.14911
    A6        1.96981   0.00575   0.00000   0.02125   0.02125   1.99106
    A7        2.02174  -0.00955   0.00000  -0.03914  -0.03925   1.98249
    A8        1.97955   0.00054   0.00000   0.00390   0.00380   1.98335
    A9        1.97955   0.00054   0.00000   0.00390   0.00380   1.98335
   A10        1.82213   0.00423   0.00000   0.01230   0.01220   1.83433
   A11        1.82213   0.00423   0.00000   0.01230   0.01220   1.83433
   A12        1.81783   0.00147   0.00000   0.01246   0.01240   1.83023
    D1       -0.00000   0.00000   0.00000   0.00000   0.00000  -0.00000
    D2        3.14159   0.00000   0.00000   0.00000   0.00000   3.14159
    D3        3.14159  -0.00000   0.00000   0.00000   0.00000   3.14159
    D4        0.00000  -0.00000   0.00000  -0.00000  -0.00000   0.00000
    D5       -3.14158  -0.00000   0.00000  -0.00000  -0.00000  -3.14159
    D6       -1.03460  -0.00135   0.00000  -0.01101  -0.01100  -1.04560
    D7        1.03461   0.00135   0.00000   0.01101   0.01100   1.04561
    D8        0.00001   0.00000   0.00000   0.00000   0.00000   0.00001
    D9        2.10699  -0.00135   0.00000  -0.01101  -0.01100   2.09600
   D10       -2.10698   0.00135   0.00000   0.01101   0.01100  -2.09598
         Item               Value     Threshold  Converged?
 Maximum Force            0.047553     0.000015     NO 
 RMS     Force            0.018679     0.000010     NO 
 Maximum Displacement     0.122111     0.000060     NO 
 RMS     Displacement     0.048434     0.000040     NO 
 Predicted change in Energy=-1.080863D-02
 Lowest energy point so far.  Saving SCF results.
 GradGradGradGradGradGradGradGradGradGradGradGradGradGradGradGradGradGrad

 Leave Link  103 at Thu Apr  2 13:26:53 2026, MaxMem=  2147483648 cpu:               0.3 elap:               0.1
 (Enter /Users/yarger/Applications/g16/l202.exe)
                          Input orientation:                          
 ---------------------------------------------------------------------
 Center     Atomic      Atomic             Coordinates (Angstroms)
 Number     Number       Type             X           Y           Z
 ---------------------------------------------------------------------
      1          6           0        1.762963    1.073116   -0.000001
      2          1           0        1.345051    2.090098   -0.000001
      3          1           0        2.862068    1.021624   -0.000000
      4          6           0        0.984459   -0.027345   -0.000001
      5          6           0       -0.580057    0.040712   -0.000000
      6          9           0       -1.186481   -1.198301    0.000009
      7          9           0       -1.107544    0.700824    1.098497
      8          9           0       -1.107545    0.700809   -1.098505
      9          9           0        1.486605   -1.296372   -0.000000
 ---------------------------------------------------------------------
                    Distance matrix (angstroms):
                    1          2          3          4          5
     1  C    0.000000
     2  H    1.099501   0.000000
     3  H    1.100311   1.855526   0.000000
     4  C    1.347992   2.147927   2.150757   0.000000
     5  C    2.560391   2.811765   3.579164   1.565995   0.000000
     6  F    3.722708   4.149966   4.617230   2.466600   1.379457
     7  F    3.095982   3.025228   4.131275   2.472529   1.385888
     8  F    3.095988   3.025238   4.131279   2.472529   1.385888
     9  F    2.385549   3.389426   2.695367   1.364764   2.461481
                    6          7          8          9
     6  F    0.000000
     7  F    2.195355   0.000000
     8  F    2.195355   2.197002   0.000000
     9  F    2.674885   3.453274   3.453268   0.000000
 Stoichiometry    C3H2F4
 Framework group  C1[X(C3H2F4)]
 Deg. of freedom    21
 Full point group                 C1      NOp   1
 RotChk:  IX=0 Diff= 5.85D-02
 Largest Abelian subgroup         C1      NOp   1
 Largest concise Abelian subgroup C1      NOp   1
                         Standard orientation:                         
 ---------------------------------------------------------------------
 Center     Atomic      Atomic             Coordinates (Angstroms)
 Number     Number       Type             X           Y           Z
 ---------------------------------------------------------------------
      1          6           0        1.717341   -1.148810    0.000000
      2          1           0        1.257730   -2.147639    0.000001
      3          1           0        2.817636   -1.142815    0.000000
      4          6           0        0.985012   -0.017096    0.000000
      5          6           0       -0.580980   -0.020395   -0.000000
      6          9           0       -1.135646    1.242636   -0.000009
      7          9           0       -1.135314   -0.658129   -1.098497
      8          9           0       -1.135315   -0.658114    1.098505
      9          9           0        1.539209    1.230079    0.000000
 ---------------------------------------------------------------------
 Rotational constants (GHZ):           3.5779484           2.2412034           1.8374682
 Leave Link  202 at Thu Apr  2 13:26:53 2026, MaxMem=  2147483648 cpu:               0.1 elap:               0.0
 (Enter /Users/yarger/Applications/g16/l301.exe)
 Standard basis: VSTO-6G (5D, 7F)
 Ernie: Thresh=  0.10000D-02 Tol=  0.10000D-05 Strict=F.
  NNHCO=     0 NNPyr=     0 NCTC=     0               EPep=         0.000000000
    EC=       158.361197895  ECS=         1.640914059   EG=         0.421529268
   EHC=         0.000000000  EAt=       -85.052729409  AtH=         1.103463817
 EPDDG=         0.000000000  ECC=       160.423641222 EAtT=        86.156193227
 There are    30 symmetry adapted cartesian basis functions of A   symmetry.
 There are    30 symmetry adapted basis functions of A   symmetry.
    30 basis functions,   180 primitive gaussians,    30 cartesian basis functions
    21 alpha electrons       21 beta electrons
       nuclear repulsion energy       246.5798344485 Hartrees.
 IExCor=    0 DFT=F Ex=HF Corr=None ExCW=0 ScaHFX=  1.000000
 ScaDFX=  1.000000  1.000000  1.000000  1.000000 ScalE2=  1.000000  1.000000
 IRadAn=      5 IRanWt=     -1 IRanGd=            0 ICorTp=0 IEmpDi=  4
 Integral buffers will be    131072 words long.
 Regular integral format.
 Two-electron integral symmetry is turned off.
 Leave Link  301 at Thu Apr  2 13:26:53 2026, MaxMem=  2147483648 cpu:               0.2 elap:               0.0
 (Enter /Users/yarger/Applications/g16/l302.exe)
 Do NDO integrals.
 NPDir=0 NMtPBC=     1 NCelOv=     1 NCel=       1 NClECP=     1 NCelD=      1
         NCelK=      1 NCelE2=     1 NClLst=     1 CellRange=     0.0.
 One-electron integrals computed using PRISM.
 NBasis=    30 RedAO= F EigKep=  0.00D+00  NBF=    30
 NBsUse=    30 1.00D-04 EigRej=  0.00D+00 NBFU=    30
 Leave Link  302 at Thu Apr  2 13:26:53 2026, MaxMem=  2147483648 cpu:               0.4 elap:               0.1
 (Enter /Users/yarger/Applications/g16/l303.exe)
 DipDrv:  MaxL=1.
 Leave Link  303 at Thu Apr  2 13:26:53 2026, MaxMem=  2147483648 cpu:               0.1 elap:               0.0
 (Enter /Users/yarger/Applications/g16/l401.exe)
 Initial guess from the checkpoint file:  "2223Tetrafluoropropene_Opt_Freq_AM1_Gaussian16.chk"
 B after Tr=    -0.000000   -0.000000    0.000000
         Rot=    0.999850    0.000000    0.000000    0.017302 Ang=   1.98 deg.
 Guess basis will be translated and rotated to current coordinates.
 JPrj=0 DoOrth=T DoCkMO=T.
 Leave Link  401 at Thu Apr  2 13:26:53 2026, MaxMem=  2147483648 cpu:               0.4 elap:               0.1
 (Enter /Users/yarger/Applications/g16/l502.exe)
 Keep J ints in memory in canonical form, NReq=861894.
 FoFCou: FMM=F IPFlag=           0 FMFlag=           0 FMFlg1=           0
         NFxFlg=           0 DoJE=F BraDBF=F KetDBF=F FulRan=T
         wScrn=  0.000000 ICntrl=       600 IOpCl=  2 I1Cent=           0 NGrid=           0
         NMat0=    1 NMatS0=     72 NMatT0=    0 NMatD0=    1 NMtDS0=    0 NMtDT0=    0
 Symmetry not used in FoFCou.
 Two-electron integral symmetry not used.
 Closed shell SCF:
 Using DIIS extrapolation, IDIIS=  1040.
 Overlap will be assumed to be unity.
 NGot=  2147483648 LenX=  2147419503 LenY=  2147418162
 Requested convergence on RMS density matrix=1.00D-08 within 128 cycles.
 Requested convergence on MAX density matrix=1.00D-06.
 Requested convergence on             energy=1.00D-06.
 No special actions if energy rises.

 Cycle   1  Pass 1  IDiag  1:
 E=-0.288292425255293    
 DIIS: error= 6.28D-03 at cycle   1 NSaved=   1.
 NSaved= 1 IEnMin= 1 EnMin=-0.288292425255293     IErMin= 1 ErrMin= 6.28D-03
 ErrMax= 6.28D-03  0.00D+00 EMaxC= 1.00D-01 BMatC= 2.38D-03 BMatP= 2.38D-03
 IDIUse=3 WtCom= 9.37D-01 WtEn= 6.28D-02
 Coeff-Com:  0.100D+01
 Coeff-En:   0.100D+01
 Coeff:      0.100D+01
 GapD=    2.000 DampG=2.000 DampE=1.000 DampFc=2.0000 IDamp=-1.
 RMSDP=1.90D-03 MaxDP=1.43D-02              OVMax= 0.00D+00

 Cycle   2  Pass 1  IDiag  3:
 E=-0.292838462732760     Delta-E=       -0.004546037477 Rises=F Damp=F
 DIIS: error= 2.00D-03 at cycle   2 NSaved=   2.
 NSaved= 2 IEnMin= 2 EnMin=-0.292838462732760     IErMin= 2 ErrMin= 2.00D-03
 ErrMax= 2.00D-03  0.00D+00 EMaxC= 1.00D-01 BMatC= 1.46D-04 BMatP= 2.38D-03
 IDIUse=3 WtCom= 9.80D-01 WtEn= 2.00D-02
 Coeff-Com: -0.263D+00 0.126D+01
 Coeff-En:   0.000D+00 0.100D+01
 Coeff:     -0.258D+00 0.126D+01
 Gap=     0.401 Goal=   None    Shift=    0.000
 RMSDP=8.30D-04 MaxDP=5.20D-03 DE=-4.55D-03 OVMax= 5.62D-03

 Cycle   3  Pass 1  IDiag  3:
 E=-0.293327185993604     Delta-E=       -0.000488723261 Rises=F Damp=F
 DIIS: error= 5.43D-04 at cycle   3 NSaved=   3.
 NSaved= 3 IEnMin= 3 EnMin=-0.293327185993604     IErMin= 3 ErrMin= 5.43D-04
 ErrMax= 5.43D-04  0.00D+00 EMaxC= 1.00D-01 BMatC= 8.60D-06 BMatP= 1.46D-04
 IDIUse=3 WtCom= 9.95D-01 WtEn= 5.43D-03
 Coeff-Com:  0.147D+00-0.794D+00 0.165D+01
 Coeff-En:   0.000D+00 0.000D+00 0.100D+01
 Coeff:      0.146D+00-0.790D+00 0.164D+01
 Gap=     0.401 Goal=   None    Shift=    0.000
 RMSDP=3.48D-04 MaxDP=2.49D-03 DE=-4.89D-04 OVMax= 2.99D-03

 Cycle   4  Pass 1  IDiag  3:
 E=-0.293375593448559     Delta-E=       -0.000048407455 Rises=F Damp=F
 DIIS: error= 1.14D-04 at cycle   4 NSaved=   4.
 NSaved= 4 IEnMin= 4 EnMin=-0.293375593448559     IErMin= 4 ErrMin= 1.14D-04
 ErrMax= 1.14D-04  0.00D+00 EMaxC= 1.00D-01 BMatC= 3.09D-07 BMatP= 8.60D-06
 IDIUse=3 WtCom= 9.99D-01 WtEn= 1.14D-03
 Coeff-Com: -0.551D-01 0.307D+00-0.742D+00 0.149D+01
 Coeff-En:   0.000D+00 0.000D+00 0.000D+00 0.100D+01
 Coeff:     -0.550D-01 0.306D+00-0.741D+00 0.149D+01
 Gap=     0.401 Goal=   None    Shift=    0.000
 RMSDP=6.93D-05 MaxDP=5.88D-04 DE=-4.84D-05 OVMax= 5.47D-04

 Cycle   5  Pass 1  IDiag  3:
 E=-0.293377486627776     Delta-E=       -0.000001893179 Rises=F Damp=F
 DIIS: error= 3.01D-05 at cycle   5 NSaved=   5.
 NSaved= 5 IEnMin= 5 EnMin=-0.293377486627776     IErMin= 5 ErrMin= 3.01D-05
 ErrMax= 3.01D-05  0.00D+00 EMaxC= 1.00D-01 BMatC= 2.09D-08 BMatP= 3.09D-07
 IDIUse=1 WtCom= 1.00D+00 WtEn= 0.00D+00
 Coeff-Com:  0.170D-01-0.949D-01 0.247D+00-0.704D+00 0.154D+01
 Coeff:      0.170D-01-0.949D-01 0.247D+00-0.704D+00 0.154D+01
 Gap=     0.401 Goal=   None    Shift=    0.000
 RMSDP=1.94D-05 MaxDP=1.57D-04 DE=-1.89D-06 OVMax= 1.85D-04

 Cycle   6  Pass 1  IDiag  3:
 E=-0.293377622044915     Delta-E=       -0.000000135417 Rises=F Damp=F
 DIIS: error= 6.11D-06 at cycle   6 NSaved=   6.
 NSaved= 6 IEnMin= 6 EnMin=-0.293377622044915     IErMin= 6 ErrMin= 6.11D-06
 ErrMax= 6.11D-06  0.00D+00 EMaxC= 1.00D-01 BMatC= 1.11D-09 BMatP= 2.09D-08
 IDIUse=1 WtCom= 1.00D+00 WtEn= 0.00D+00
 Coeff-Com: -0.633D-02 0.353D-01-0.938D-01 0.299D+00-0.831D+00 0.160D+01
 Coeff:     -0.633D-02 0.353D-01-0.938D-01 0.299D+00-0.831D+00 0.160D+01
 Gap=     0.401 Goal=   None    Shift=    0.000
 RMSDP=4.75D-06 MaxDP=3.41D-05 DE=-1.35D-07 OVMax= 4.84D-05

 Cycle   7  Pass 1  IDiag  3:
 E=-0.293377629109642     Delta-E=       -0.000000007065 Rises=F Damp=F
 DIIS: error= 5.51D-07 at cycle   7 NSaved=   7.
 NSaved= 7 IEnMin= 7 EnMin=-0.293377629109642     IErMin= 7 ErrMin= 5.51D-07
 ErrMax= 5.51D-07  0.00D+00 EMaxC= 1.00D-01 BMatC= 2.63D-11 BMatP= 1.11D-09
 IDIUse=1 WtCom= 1.00D+00 WtEn= 0.00D+00
 Coeff-Com:  0.187D-02-0.104D-01 0.281D-01-0.934D-01 0.277D+00-0.628D+00
 Coeff-Com:  0.143D+01
 Coeff:      0.187D-02-0.104D-01 0.281D-01-0.934D-01 0.277D+00-0.628D+00
 Coeff:      0.143D+01
 Gap=     0.401 Goal=   None    Shift=    0.000
 RMSDP=6.22D-07 MaxDP=3.58D-06 DE=-7.06D-09 OVMax= 5.88D-06

 Cycle   8  Pass 1  IDiag  3:
 E=-0.293377629257890     Delta-E=       -0.000000000148 Rises=F Damp=F
 DIIS: error= 1.70D-07 at cycle   8 NSaved=   8.
 NSaved= 8 IEnMin= 8 EnMin=-0.293377629257890     IErMin= 8 ErrMin= 1.70D-07
 ErrMax= 1.70D-07  0.00D+00 EMaxC= 1.00D-01 BMatC= 1.30D-12 BMatP= 2.63D-11
 IDIUse=1 WtCom= 1.00D+00 WtEn= 0.00D+00
 Coeff-Com: -0.376D-03 0.206D-02-0.567D-02 0.195D-01-0.607D-01 0.150D+00
 Coeff-Com: -0.478D+00 0.137D+01
 Coeff:     -0.376D-03 0.206D-02-0.567D-02 0.195D-01-0.607D-01 0.150D+00
 Coeff:     -0.478D+00 0.137D+01
 Gap=     0.401 Goal=   None    Shift=    0.000
 RMSDP=1.28D-07 MaxDP=5.71D-07 DE=-1.48D-10 OVMax= 9.30D-07

 Cycle   9  Pass 1  IDiag  3:
 E=-0.293377629264683     Delta-E=       -0.000000000007 Rises=F Damp=F
 DIIS: error= 3.61D-08 at cycle   9 NSaved=   9.
 NSaved= 9 IEnMin= 9 EnMin=-0.293377629264683     IErMin= 9 ErrMin= 3.61D-08
 ErrMax= 3.61D-08  0.00D+00 EMaxC= 1.00D-01 BMatC= 7.79D-14 BMatP= 1.30D-12
 IDIUse=1 WtCom= 1.00D+00 WtEn= 0.00D+00
 Coeff-Com:  0.504D-04-0.269D-03 0.765D-03-0.272D-02 0.898D-02-0.234D-01
 Coeff-Com:  0.855D-01-0.451D+00 0.138D+01
 Coeff:      0.504D-04-0.269D-03 0.765D-03-0.272D-02 0.898D-02-0.234D-01
 Coeff:      0.855D-01-0.451D+00 0.138D+01
 Gap=     0.401 Goal=   None    Shift=    0.000
 RMSDP=3.42D-08 MaxDP=1.68D-07 DE=-6.79D-12 OVMax= 2.67D-07

 Cycle  10  Pass 1  IDiag  3:
 E=-0.293377629265706     Delta-E=       -0.000000000001 Rises=F Damp=F
 DIIS: error= 1.04D-08 at cycle  10 NSaved=  10.
 NSaved=10 IEnMin=10 EnMin=-0.293377629265706     IErMin=10 ErrMin= 1.04D-08
 ErrMax= 1.04D-08  0.00D+00 EMaxC= 1.00D-01 BMatC= 5.73D-15 BMatP= 7.79D-14
 IDIUse=1 WtCom= 1.00D+00 WtEn= 0.00D+00
 Coeff-Com: -0.516D-05 0.240D-04-0.820D-04 0.349D-03-0.143D-02 0.437D-02
 Coeff-Com: -0.197D-01 0.174D+00-0.767D+00 0.161D+01
 Coeff:     -0.516D-05 0.240D-04-0.820D-04 0.349D-03-0.143D-02 0.437D-02
 Coeff:     -0.197D-01 0.174D+00-0.767D+00 0.161D+01
 Gap=     0.401 Goal=   None    Shift=    0.000
 RMSDP=9.97D-09 MaxDP=5.40D-08 DE=-1.02D-12 OVMax= 8.08D-08

 Cycle  11  Pass 2  IDiag  1:
 SCF Done:  E(RAM1) = -0.293377629266     A.U. after   11 cycles
            NFock= 10  Conv=0.10D-07     -V/T= 0.9980
 KE=-1.431190864150D+02 PE=-3.134156379879D+02 EE= 2.096615123251D+02
 Leave Link  502 at Thu Apr  2 13:26:53 2026, MaxMem=  2147483648 cpu:               0.3 elap:               0.1
 (Enter /Users/yarger/Applications/g16/l701.exe)
 ... and contract with generalized density number  0.
 Compute integral first derivatives.
 Leave Link  701 at Thu Apr  2 13:26:53 2026, MaxMem=  2147483648 cpu:               0.2 elap:               0.1
 (Enter /Users/yarger/Applications/g16/l702.exe)
 L702 exits ... SP integral derivatives will be done elsewhere.
 Leave Link  702 at Thu Apr  2 13:26:53 2026, MaxMem=  2147483648 cpu:               0.1 elap:               0.0
 (Enter /Users/yarger/Applications/g16/l703.exe)
 Integral derivatives from FoFJK, PRISM(SPDF).
 Compute integral first derivatives, UseDBF=F ICtDFT=           0.
 Calling FoFJK, ICntrl=      2127 FMM=F ISym2X=0 I1Cent= 0 IOpClX= 0 NMat=1 NMatS=1 NMatT=0.
 FoFJK:  IHMeth= 8 ICntrl=    2127 DoSepK=F KAlg= 0 I1Cent=           0 FoldK=F
 IRaf=         0 NMat=       1 IRICut=       1 DoRegI=T DoRafI=F ISym2E= 0 IDoP0=3 IntGTp=3.
 FoFCou: FMM=F IPFlag=           0 FMFlag=      100000 FMFlg1=         800
         NFxFlg=           0 DoJE=F BraDBF=F KetDBF=F FulRan=T
         wScrn=  0.000000 ICntrl=      2127 IOpCl=  0 I1Cent=           0 NGrid=           0
         NMat0=    1 NMatS0=      1 NMatT0=    0 NMatD0=    1 NMtDS0=    0 NMtDT0=    0
 Symmetry not used in FoFCou.
 Leave Link  703 at Thu Apr  2 13:26:53 2026, MaxMem=  2147483648 cpu:               0.2 elap:               0.0
 (Enter /Users/yarger/Applications/g16/l716.exe)
 Dipole        = 7.77867762D-01-6.47394661D-01 4.99023636D-10
 ***** Axes restored to original set *****
 -------------------------------------------------------------------
 Center     Atomic                   Forces (Hartrees/Bohr)
 Number     Number              X              Y              Z
 -------------------------------------------------------------------
      1        6          -0.007554793   -0.007582195   -0.000000067
      2        1          -0.002219900   -0.002658294    0.000000035
      3        1          -0.001690080   -0.002328654   -0.000000003
      4        6          -0.000985785   -0.004209888    0.000000105
      5        6          -0.001733014    0.002212109   -0.000000132
      6        9           0.007184775    0.014665153   -0.000000083
      7        9           0.008454698   -0.009281092   -0.016703345
      8        9           0.008454718   -0.009280868    0.016703504
      9        9          -0.009910621    0.018463729   -0.000000015
 -------------------------------------------------------------------
 Cartesian Forces:  Max     0.018463729 RMS     0.008028868
 Leave Link  716 at Thu Apr  2 13:26:53 2026, MaxMem=  2147483648 cpu:               0.1 elap:               0.0
 (Enter /Users/yarger/Applications/g16/l103.exe)

 GradGradGradGradGradGradGradGradGradGradGradGradGradGradGradGradGradGrad
 Berny optimization.
 Using GEDIIS/GDIIS optimizer.
 FormGI is forming the generalized inverse of G from B-inverse, IUseBI=4.
 Internal  Forces:  Max     0.022413268 RMS     0.008980289
 Search for a local minimum.
 Step number   2 out of a maximum of   40
 All quantities printed in internal units (Hartrees-Bohrs-Radians)
 RMS Force = .89803D-02 SwitMx=.10000D-02 MixMth= 1
 Mixed Optimization -- RFO/linear search
 Update second derivatives using D2CorX and points    1    2
 DE= -5.54D-03 DEPred=-1.08D-02 R= 5.13D-01
 TightC=F SS=  1.41D+00  RLast= 2.13D-01 DXNew= 5.0454D-01 6.4030D-01
 Trust test= 5.13D-01 RLast= 2.13D-01 DXMaxT set to 5.05D-01
 ITU=  1  0
 Use linear search instead of GDIIS.
     Eigenvalues ---    0.00610   0.01687   0.03046   0.03046   0.10134
     Eigenvalues ---    0.10172   0.15731   0.16001   0.23963   0.25000
     Eigenvalues ---    0.25000   0.25000   0.25058   0.33756   0.35270
     Eigenvalues ---    0.35512   0.56547   0.57208   0.57864   0.59618
     Eigenvalues ---    0.83404
 RFO step:  Lambda=-6.54876286D-04 EMin= 6.10148604D-03
 Quartic linear search produced a step of -0.31531.
 Iteration  1 RMS(Cart)=  0.02509067 RMS(Int)=  0.00005987
 Iteration  2 RMS(Cart)=  0.00007482 RMS(Int)=  0.00001298
 Iteration  3 RMS(Cart)=  0.00000000 RMS(Int)=  0.00001298
 ITry= 1 IFail=0 DXMaxC= 6.03D-02 DCOld= 1.00D+10 DXMaxT= 5.05D-01 DXLimC= 3.00D+00 Rises=F
 Variable       Old X    -DE/DX   Delta X   Delta X   Delta X     New X
                                 (Linear)    (Quad)   (Total)
    R1        2.07776  -0.00162  -0.00852   0.00560  -0.00292   2.07483
    R2        2.07929  -0.00158  -0.00822   0.00534  -0.00288   2.07641
    R3        2.54734  -0.01688  -0.01212  -0.00642  -0.01855   2.52879
    R4        2.95930  -0.02241  -0.03231  -0.01642  -0.04873   2.91058
    R5        2.57903  -0.02081  -0.01864  -0.00459  -0.02324   2.55579
    R6        2.60680  -0.01633  -0.02446   0.00637  -0.01809   2.58871
    R7        2.61895  -0.02088  -0.02558   0.00168  -0.02390   2.59505
    R8        2.61895  -0.02088  -0.02558   0.00168  -0.02390   2.59505
    A1        2.00751   0.00379  -0.01005   0.02546   0.01541   2.02292
    A2        2.13600  -0.00258   0.00540  -0.01599  -0.01059   2.12541
    A3        2.13968  -0.00121   0.00465  -0.00948  -0.00483   2.13485
    A4        2.14302  -0.00239   0.01877  -0.02512  -0.00635   2.13667
    A5        2.14911   0.00432  -0.01207   0.02375   0.01168   2.16078
    A6        1.99106  -0.00193  -0.00670   0.00137  -0.00533   1.98573
    A7        1.98249   0.00069   0.01238  -0.00845   0.00397   1.98646
    A8        1.98335  -0.00094  -0.00120  -0.00237  -0.00355   1.97980
    A9        1.98335  -0.00094  -0.00120  -0.00237  -0.00355   1.97980
   A10        1.83433   0.00061  -0.00385   0.00716   0.00335   1.83768
   A11        1.83433   0.00061  -0.00385   0.00716   0.00335   1.83768
   A12        1.83023   0.00013  -0.00391   0.00071  -0.00320   1.82703
    D1       -0.00000   0.00000  -0.00000   0.00000   0.00000  -0.00000
    D2        3.14159   0.00000  -0.00000   0.00000   0.00000   3.14159
    D3        3.14159   0.00000  -0.00000   0.00000   0.00000   3.14159
    D4        0.00000  -0.00000   0.00000  -0.00000   0.00000   0.00000
    D5       -3.14159   0.00000   0.00000   0.00000   0.00000  -3.14159
    D6       -1.04560   0.00062   0.00347   0.00132   0.00477  -1.04083
    D7        1.04561  -0.00062  -0.00347  -0.00132  -0.00477   1.04084
    D8        0.00001   0.00000  -0.00000   0.00000   0.00000   0.00001
    D9        2.09600   0.00062   0.00347   0.00132   0.00477   2.10076
   D10       -2.09598  -0.00062  -0.00347  -0.00132  -0.00477  -2.10075
         Item               Value     Threshold  Converged?
 Maximum Force            0.022413     0.000015     NO 
 RMS     Force            0.008980     0.000010     NO 
 Maximum Displacement     0.060311     0.000060     NO 
 RMS     Displacement     0.025069     0.000040     NO 
 Predicted change in Energy=-1.605787D-03
 Lowest energy point so far.  Saving SCF results.
 GradGradGradGradGradGradGradGradGradGradGradGradGradGradGradGradGradGrad

 Leave Link  103 at Thu Apr  2 13:26:53 2026, MaxMem=  2147483648 cpu:               0.1 elap:               0.0
 (Enter /Users/yarger/Applications/g16/l202.exe)
                          Input orientation:                          
 ---------------------------------------------------------------------
 Center     Atomic      Atomic             Coordinates (Angstroms)
 Number     Number       Type             X           Y           Z
 ---------------------------------------------------------------------
      1          6           0        1.745678    1.067729   -0.000000
      2          1           0        1.313136    2.076892   -0.000001
      3          1           0        2.843243    1.015893   -0.000000
      4          6           0        0.977708   -0.028146   -0.000001
      5          6           0       -0.560917    0.041723   -0.000000
      6          9           0       -1.170352   -1.185134    0.000009
      7          9           0       -1.077599    0.702765    1.087132
      8          9           0       -1.077601    0.702750   -1.087140
      9          9           0        1.466222   -1.289306   -0.000000
 ---------------------------------------------------------------------
                    Distance matrix (angstroms):
                    1          2          3          4          5
     1  C    0.000000
     2  H    1.097953   0.000000
     3  H    1.098788   1.861973   0.000000
     4  C    1.338178   2.131595   2.137812   0.000000
     5  C    2.524495   2.766585   3.540807   1.540211   0.000000
     6  F    3.684918   4.099820   4.577495   2.439832   1.369886
     7  F    3.047286   2.964068   4.080797   2.437289   1.373242
     8  F    3.047292   2.964078   4.080802   2.437289   1.373242
     9  F    2.373543   3.369677   2.685168   1.352468   2.425064
                    6          7          8          9
     6  F    0.000000
     7  F    2.180505   0.000000
     8  F    2.180505   2.174272   0.000000
     9  F    2.638631   3.408993   3.408988   0.000000
 Stoichiometry    C3H2F4
 Framework group  C1[X(C3H2F4)]
 Deg. of freedom    21
 Full point group                 C1      NOp   1
 RotChk:  IX=0 Diff= 9.23D-04
 Largest Abelian subgroup         C1      NOp   1
 Largest concise Abelian subgroup C1      NOp   1
                         Standard orientation:                         
 ---------------------------------------------------------------------
 Center     Atomic      Atomic             Coordinates (Angstroms)
 Number     Number       Type             X           Y           Z
 ---------------------------------------------------------------------
      1          6           0        1.692169   -1.140527    0.000000
      2          1           0        1.217617   -2.130629    0.000001
      3          1           0        2.790942   -1.134842    0.000000
      4          6           0        0.970910   -0.013359    0.000000
      5          6           0       -0.569292   -0.018534   -0.000000
      6          9           0       -1.126652    1.232840   -0.000009
      7          9           0       -1.113286   -0.657289   -1.087132
      8          9           0       -1.113287   -0.657274    1.087140
      9          9           0        1.511971    1.226166    0.000000
 ---------------------------------------------------------------------
 Rotational constants (GHZ):           3.6280477           2.3082760           1.8827513
 Leave Link  202 at Thu Apr  2 13:26:53 2026, MaxMem=  2147483648 cpu:               0.0 elap:               0.0
 (Enter /Users/yarger/Applications/g16/l301.exe)
 Standard basis: VSTO-6G (5D, 7F)
 Ernie: Thresh=  0.10000D-02 Tol=  0.10000D-05 Strict=F.
  NNHCO=     0 NNPyr=     0 NCTC=     0               EPep=         0.000000000
    EC=       159.746029516  ECS=         1.702031203   EG=         0.435929533
   EHC=         0.000000000  EAt=       -85.052729409  AtH=         1.103463817
 EPDDG=         0.000000000  ECC=       161.883990252 EAtT=        86.156193227
 There are    30 symmetry adapted cartesian basis functions of A   symmetry.
 There are    30 symmetry adapted basis functions of A   symmetry.
    30 basis functions,   180 primitive gaussians,    30 cartesian basis functions
    21 alpha electrons       21 beta electrons
       nuclear repulsion energy       248.0401834788 Hartrees.
 IExCor=    0 DFT=F Ex=HF Corr=None ExCW=0 ScaHFX=  1.000000
 ScaDFX=  1.000000  1.000000  1.000000  1.000000 ScalE2=  1.000000  1.000000
 IRadAn=      5 IRanWt=     -1 IRanGd=            0 ICorTp=0 IEmpDi=  4
 Integral buffers will be    131072 words long.
 Regular integral format.
 Two-electron integral symmetry is turned off.
 Leave Link  301 at Thu Apr  2 13:26:54 2026, MaxMem=  2147483648 cpu:               0.2 elap:               0.0
 (Enter /Users/yarger/Applications/g16/l302.exe)
 Do NDO integrals.
 NPDir=0 NMtPBC=     1 NCelOv=     1 NCel=       1 NClECP=     1 NCelD=      1
         NCelK=      1 NCelE2=     1 NClLst=     1 CellRange=     0.0.
 One-electron integrals computed using PRISM.
 NBasis=    30 RedAO= F EigKep=  0.00D+00  NBF=    30
 NBsUse=    30 1.00D-04 EigRej=  0.00D+00 NBFU=    30
 Leave Link  302 at Thu Apr  2 13:26:54 2026, MaxMem=  2147483648 cpu:               0.3 elap:               0.1
 (Enter /Users/yarger/Applications/g16/l303.exe)
 DipDrv:  MaxL=1.
 Leave Link  303 at Thu Apr  2 13:26:54 2026, MaxMem=  2147483648 cpu:               0.1 elap:               0.0
 (Enter /Users/yarger/Applications/g16/l401.exe)
 Initial guess from the checkpoint file:  "2223Tetrafluoropropene_Opt_Freq_AM1_Gaussian16.chk"
 B after Tr=     0.000000    0.000000   -0.000000
         Rot=    0.999999    0.000000   -0.000000   -0.001245 Ang=   0.14 deg.
 Guess basis will be translated and rotated to current coordinates.
 JPrj=0 DoOrth=T DoCkMO=T.
 Leave Link  401 at Thu Apr  2 13:26:54 2026, MaxMem=  2147483648 cpu:               0.3 elap:               0.0
 (Enter /Users/yarger/Applications/g16/l502.exe)
 Keep J ints in memory in canonical form, NReq=861894.
 FoFCou: FMM=F IPFlag=           0 FMFlag=           0 FMFlg1=           0
         NFxFlg=           0 DoJE=F BraDBF=F KetDBF=F FulRan=T
         wScrn=  0.000000 ICntrl=       600 IOpCl=  2 I1Cent=           0 NGrid=           0
         NMat0=    1 NMatS0=     72 NMatT0=    0 NMatD0=    1 NMtDS0=    0 NMtDT0=    0
 Symmetry not used in FoFCou.
 Two-electron integral symmetry not used.
 Closed shell SCF:
 Using DIIS extrapolation, IDIIS=  1040.
 Overlap will be assumed to be unity.
 NGot=  2147483648 LenX=  2147419503 LenY=  2147418162
 Requested convergence on RMS density matrix=1.00D-08 within 128 cycles.
 Requested convergence on MAX density matrix=1.00D-06.
 Requested convergence on             energy=1.00D-06.
 No special actions if energy rises.

 Cycle   1  Pass 1  IDiag  1:
 E=-0.294652246288479    
 DIIS: error= 2.35D-03 at cycle   1 NSaved=   1.
 NSaved= 1 IEnMin= 1 EnMin=-0.294652246288479     IErMin= 1 ErrMin= 2.35D-03
 ErrMax= 2.35D-03  0.00D+00 EMaxC= 1.00D-01 BMatC= 2.30D-04 BMatP= 2.30D-04
 IDIUse=3 WtCom= 9.77D-01 WtEn= 2.35D-02
 Coeff-Com:  0.100D+01
 Coeff-En:   0.100D+01
 Coeff:      0.100D+01
 GapD=    2.000 DampG=2.000 DampE=1.000 DampFc=2.0000 IDamp=-1.
 RMSDP=5.70D-04 MaxDP=4.52D-03              OVMax= 0.00D+00

 Cycle   2  Pass 1  IDiag  3:
 E=-0.295075481583922     Delta-E=       -0.000423235295 Rises=F Damp=F
 DIIS: error= 4.84D-04 at cycle   2 NSaved=   2.
 NSaved= 2 IEnMin= 2 EnMin=-0.295075481583922     IErMin= 2 ErrMin= 4.84D-04
 ErrMax= 4.84D-04  0.00D+00 EMaxC= 1.00D-01 BMatC= 1.35D-05 BMatP= 2.30D-04
 IDIUse=3 WtCom= 9.95D-01 WtEn= 4.84D-03
 Coeff-Com: -0.259D+00 0.126D+01
 Coeff-En:   0.000D+00 0.100D+01
 Coeff:     -0.258D+00 0.126D+01
 Gap=     0.403 Goal=   None    Shift=    0.000
 RMSDP=2.40D-04 MaxDP=1.59D-03 DE=-4.23D-04 OVMax= 1.38D-03

 Cycle   3  Pass 1  IDiag  3:
 E=-0.295118004005019     Delta-E=       -0.000042522421 Rises=F Damp=F
 DIIS: error= 1.36D-04 at cycle   3 NSaved=   3.
 NSaved= 3 IEnMin= 3 EnMin=-0.295118004005019     IErMin= 3 ErrMin= 1.36D-04
 ErrMax= 1.36D-04  0.00D+00 EMaxC= 1.00D-01 BMatC= 7.16D-07 BMatP= 1.35D-05
 IDIUse=3 WtCom= 9.99D-01 WtEn= 1.36D-03
 Coeff-Com:  0.128D+00-0.713D+00 0.159D+01
 Coeff-En:   0.000D+00 0.000D+00 0.100D+01
 Coeff:      0.128D+00-0.712D+00 0.158D+01
 Gap=     0.403 Goal=   None    Shift=    0.000
 RMSDP=9.51D-05 MaxDP=5.23D-04 DE=-4.25D-05 OVMax= 5.51D-04

 Cycle   4  Pass 1  IDiag  3:
 E=-0.295121903469891     Delta-E=       -0.000003899465 Rises=F Damp=F
 DIIS: error= 2.99D-05 at cycle   4 NSaved=   4.
 NSaved= 4 IEnMin= 4 EnMin=-0.295121903469891     IErMin= 4 ErrMin= 2.99D-05
 ErrMax= 2.99D-05  0.00D+00 EMaxC= 1.00D-01 BMatC= 3.32D-08 BMatP= 7.16D-07
 IDIUse=1 WtCom= 1.00D+00 WtEn= 0.00D+00
 Coeff-Com: -0.495D-01 0.287D+00-0.766D+00 0.153D+01
 Coeff:     -0.495D-01 0.287D+00-0.766D+00 0.153D+01
 Gap=     0.403 Goal=   None    Shift=    0.000
 RMSDP=2.30D-05 MaxDP=1.31D-04 DE=-3.90D-06 OVMax= 1.67D-04

 Cycle   5  Pass 1  IDiag  3:
 E=-0.295122110153244     Delta-E=       -0.000000206683 Rises=F Damp=F
 DIIS: error= 7.17D-06 at cycle   5 NSaved=   5.
 NSaved= 5 IEnMin= 5 EnMin=-0.295122110153244     IErMin= 5 ErrMin= 7.17D-06
 ErrMax= 7.17D-06  0.00D+00 EMaxC= 1.00D-01 BMatC= 2.01D-09 BMatP= 3.32D-08
 IDIUse=1 WtCom= 1.00D+00 WtEn= 0.00D+00
 Coeff-Com:  0.151D-01-0.893D-01 0.256D+00-0.711D+00 0.153D+01
 Coeff:      0.151D-01-0.893D-01 0.256D+00-0.711D+00 0.153D+01
 Gap=     0.403 Goal=   None    Shift=    0.000
 RMSDP=6.12D-06 MaxDP=3.62D-05 DE=-2.07D-07 OVMax= 4.91D-05

 Cycle   6  Pass 1  IDiag  3:
 E=-0.295122123146115     Delta-E=       -0.000000012993 Rises=F Damp=F
 DIIS: error= 1.51D-06 at cycle   6 NSaved=   6.
 NSaved= 6 IEnMin= 6 EnMin=-0.295122123146115     IErMin= 6 ErrMin= 1.51D-06
 ErrMax= 1.51D-06  0.00D+00 EMaxC= 1.00D-01 BMatC= 9.82D-11 BMatP= 2.01D-09
 IDIUse=1 WtCom= 1.00D+00 WtEn= 0.00D+00
 Coeff-Com: -0.552D-02 0.329D-01-0.971D-01 0.301D+00-0.816D+00 0.159D+01
 Coeff:     -0.552D-02 0.329D-01-0.971D-01 0.301D+00-0.816D+00 0.159D+01
 Gap=     0.403 Goal=   None    Shift=    0.000
 RMSDP=1.32D-06 MaxDP=8.52D-06 DE=-1.30D-08 OVMax= 8.27D-06

 Cycle   7  Pass 1  IDiag  3:
 E=-0.295122123737201     Delta-E=       -0.000000000591 Rises=F Damp=F
 DIIS: error= 2.71D-07 at cycle   7 NSaved=   7.
 NSaved= 7 IEnMin= 7 EnMin=-0.295122123737201     IErMin= 7 ErrMin= 2.71D-07
 ErrMax= 2.71D-07  0.00D+00 EMaxC= 1.00D-01 BMatC= 2.42D-12 BMatP= 9.82D-11
 IDIUse=1 WtCom= 1.00D+00 WtEn= 0.00D+00
 Coeff-Com:  0.171D-02-0.103D-01 0.304D-01-0.966D-01 0.273D+00-0.621D+00
 Coeff-Com:  0.142D+01
 Coeff:      0.171D-02-0.103D-01 0.304D-01-0.966D-01 0.273D+00-0.621D+00
 Coeff:      0.142D+01
 Gap=     0.403 Goal=   None    Shift=    0.000
 RMSDP=1.85D-07 MaxDP=1.14D-06 DE=-5.91D-10 OVMax= 1.30D-06

 Cycle   8  Pass 1  IDiag  3:
 E=-0.295122123751270     Delta-E=       -0.000000000014 Rises=F Damp=F
 DIIS: error= 7.27D-08 at cycle   8 NSaved=   8.
 NSaved= 8 IEnMin= 8 EnMin=-0.295122123751270     IErMin= 8 ErrMin= 7.27D-08
 ErrMax= 7.27D-08  0.00D+00 EMaxC= 1.00D-01 BMatC= 1.29D-13 BMatP= 2.42D-12
 IDIUse=1 WtCom= 1.00D+00 WtEn= 0.00D+00
 Coeff-Com: -0.675D-03 0.405D-02-0.120D-01 0.379D-01-0.108D+00 0.255D+00
 Coeff-Com: -0.734D+00 0.156D+01
 Coeff:     -0.675D-03 0.405D-02-0.120D-01 0.379D-01-0.108D+00 0.255D+00
 Coeff:     -0.734D+00 0.156D+01
 Gap=     0.403 Goal=   None    Shift=    0.000
 RMSDP=4.58D-08 MaxDP=3.48D-07 DE=-1.41D-11 OVMax= 4.24D-07

 Cycle   9  Pass 1  IDiag  3:
 E=-0.295122123752122     Delta-E=       -0.000000000001 Rises=F Damp=F
 DIIS: error= 1.60D-08 at cycle   9 NSaved=   9.
 NSaved= 9 IEnMin= 9 EnMin=-0.295122123752122     IErMin= 9 ErrMin= 1.60D-08
 ErrMax= 1.60D-08  0.00D+00 EMaxC= 1.00D-01 BMatC= 5.88D-15 BMatP= 1.29D-13
 IDIUse=1 WtCom= 1.00D+00 WtEn= 0.00D+00
 Coeff-Com:  0.262D-03-0.157D-02 0.462D-02-0.146D-01 0.415D-01-0.990D-01
 Coeff-Com:  0.305D+00-0.777D+00 0.154D+01
 Coeff:      0.262D-03-0.157D-02 0.462D-02-0.146D-01 0.415D-01-0.990D-01
 Coeff:      0.305D+00-0.777D+00 0.154D+01
 Gap=     0.403 Goal=   None    Shift=    0.000
 RMSDP=9.36D-09 MaxDP=7.11D-08 DE=-8.53D-13 OVMax= 8.65D-08

 Cycle  10  Pass 2  IDiag  1:
 SCF Done:  E(RAM1) = -0.295122123752     A.U. after   10 cycles
            NFock=  9  Conv=0.94D-08     -V/T= 0.9979
 KE=-1.431893909537D+02 PE=-3.161033601543D+02 EE= 2.109574455055D+02
 Leave Link  502 at Thu Apr  2 13:26:54 2026, MaxMem=  2147483648 cpu:               0.3 elap:               0.0
 (Enter /Users/yarger/Applications/g16/l701.exe)
 ... and contract with generalized density number  0.
 Compute integral first derivatives.
 Leave Link  701 at Thu Apr  2 13:26:54 2026, MaxMem=  2147483648 cpu:               0.2 elap:               0.1
 (Enter /Users/yarger/Applications/g16/l702.exe)
 L702 exits ... SP integral derivatives will be done elsewhere.
 Leave Link  702 at Thu Apr  2 13:26:54 2026, MaxMem=  2147483648 cpu:               0.1 elap:               0.0
 (Enter /Users/yarger/Applications/g16/l703.exe)
 Integral derivatives from FoFJK, PRISM(SPDF).
 Compute integral first derivatives, UseDBF=F ICtDFT=           0.
 Calling FoFJK, ICntrl=      2127 FMM=F ISym2X=0 I1Cent= 0 IOpClX= 0 NMat=1 NMatS=1 NMatT=0.
 FoFJK:  IHMeth= 8 ICntrl=    2127 DoSepK=F KAlg= 0 I1Cent=           0 FoldK=F
 IRaf=         0 NMat=       1 IRICut=       1 DoRegI=T DoRafI=F ISym2E= 0 IDoP0=3 IntGTp=3.
 FoFCou: FMM=F IPFlag=           0 FMFlag=      100000 FMFlg1=         800
         NFxFlg=           0 DoJE=F BraDBF=F KetDBF=F FulRan=T
         wScrn=  0.000000 ICntrl=      2127 IOpCl=  0 I1Cent=           0 NGrid=           0
         NMat0=    1 NMatS0=      1 NMatT0=    0 NMatD0=    1 NMtDS0=    0 NMtDT0=    0
 Symmetry not used in FoFCou.
 Leave Link  703 at Thu Apr  2 13:26:54 2026, MaxMem=  2147483648 cpu:               0.2 elap:               0.0
 (Enter /Users/yarger/Applications/g16/l716.exe)
 Dipole        = 7.67252417D-01-6.30960151D-01 1.67045910D-07
 ***** Axes restored to original set *****
 -------------------------------------------------------------------
 Center     Atomic                   Forces (Hartrees/Bohr)
 Number     Number              X              Y              Z
 -------------------------------------------------------------------
      1        6           0.002048399    0.003363710   -0.000000078
      2        1          -0.001299089   -0.000663021    0.000000030
      3        1          -0.000295038   -0.000867348    0.000000006
      4        6           0.002736335   -0.005232015    0.000000099
      5        6          -0.002145206    0.001914443   -0.000000056
      6        9          -0.000084425    0.001553103   -0.000000006
      7        9          -0.000142220   -0.001055098   -0.001587788
      8        9          -0.000142213   -0.001055079    0.001587813
      9        9          -0.000676544    0.002041305   -0.000000019
 -------------------------------------------------------------------
 Cartesian Forces:  Max     0.005232015 RMS     0.001677283
 Leave Link  716 at Thu Apr  2 13:26:54 2026, MaxMem=  2147483648 cpu:               0.1 elap:               0.0
 (Enter /Users/yarger/Applications/g16/l103.exe)

 GradGradGradGradGradGradGradGradGradGradGradGradGradGradGradGradGradGrad
 Berny optimization.
 Using GEDIIS/GDIIS optimizer.
 FormGI is forming the generalized inverse of G from B-inverse, IUseBI=4.
 Internal  Forces:  Max     0.002573050 RMS     0.001139213
 Search for a local minimum.
 Step number   3 out of a maximum of   40
 All quantities printed in internal units (Hartrees-Bohrs-Radians)
 RMS Force = .11392D-02 SwitMx=.10000D-02 MixMth= 1
 Mixed Optimization -- RFO/linear search
 Update second derivatives using D2CorX and points    1    2    3
 DE= -1.74D-03 DEPred=-1.61D-03 R= 1.09D+00
 TightC=F SS=  1.41D+00  RLast= 7.41D-02 DXNew= 8.4853D-01 2.2222D-01
 Trust test= 1.09D+00 RLast= 7.41D-02 DXMaxT set to 5.05D-01
 ITU=  1  1  0
 Use linear search instead of GDIIS.
     Eigenvalues ---    0.00610   0.01699   0.03046   0.03046   0.10088
     Eigenvalues ---    0.10246   0.15155   0.16008   0.23592   0.25000
     Eigenvalues ---    0.25000   0.25004   0.25307   0.35182   0.35328
     Eigenvalues ---    0.36449   0.56547   0.57168   0.57878   0.59117
     Eigenvalues ---    0.77242
 RFO step:  Lambda=-1.30307228D-04 EMin= 6.10148604D-03
 Quartic linear search produced a step of  0.01328.
 Iteration  1 RMS(Cart)=  0.00720266 RMS(Int)=  0.00004184
 Iteration  2 RMS(Cart)=  0.00004512 RMS(Int)=  0.00000304
 Iteration  3 RMS(Cart)=  0.00000000 RMS(Int)=  0.00000304
 ITry= 1 IFail=0 DXMaxC= 2.44D-02 DCOld= 1.00D+10 DXMaxT= 5.05D-01 DXLimC= 3.00D+00 Rises=F
 Variable       Old X    -DE/DX   Delta X   Delta X   Delta X     New X
                                 (Linear)    (Quad)   (Total)
    R1        2.07483  -0.00010  -0.00004  -0.00015  -0.00019   2.07464
    R2        2.07641  -0.00025  -0.00004  -0.00061  -0.00065   2.07576
    R3        2.52879   0.00176  -0.00025   0.00266   0.00242   2.53121
    R4        2.91058   0.00257  -0.00065   0.00755   0.00690   2.91748
    R5        2.55579  -0.00215  -0.00031  -0.00406  -0.00437   2.55143
    R6        2.58871  -0.00135  -0.00024  -0.00236  -0.00260   2.58611
    R7        2.59505  -0.00171  -0.00032  -0.00324  -0.00355   2.59150
    R8        2.59505  -0.00171  -0.00032  -0.00324  -0.00355   2.59150
    A1        2.02292   0.00162   0.00020   0.01110   0.01130   2.03422
    A2        2.12541  -0.00140  -0.00014  -0.00946  -0.00960   2.11581
    A3        2.13485  -0.00021  -0.00006  -0.00164  -0.00170   2.13315
    A4        2.13667  -0.00203  -0.00008  -0.00903  -0.00912   2.12755
    A5        2.16078   0.00088   0.00016   0.00434   0.00449   2.16528
    A6        1.98573   0.00115  -0.00007   0.00469   0.00462   1.99035
    A7        1.98646   0.00075   0.00005   0.00248   0.00253   1.98899
    A8        1.97980   0.00101  -0.00005   0.00424   0.00418   1.98399
    A9        1.97980   0.00101  -0.00005   0.00424   0.00418   1.98399
   A10        1.83768  -0.00108   0.00004  -0.00454  -0.00450   1.83318
   A11        1.83768  -0.00108   0.00004  -0.00454  -0.00450   1.83318
   A12        1.82703  -0.00099  -0.00004  -0.00337  -0.00342   1.82361
    D1       -0.00000   0.00000   0.00000   0.00000   0.00000   0.00000
    D2        3.14159   0.00000   0.00000   0.00000   0.00000   3.14159
    D3        3.14159   0.00000   0.00000   0.00000   0.00000  -3.14159
    D4        0.00000  -0.00000   0.00000  -0.00000  -0.00000  -0.00000
    D5       -3.14159  -0.00000   0.00000  -0.00000  -0.00000  -3.14159
    D6       -1.04083  -0.00010   0.00006  -0.00092  -0.00086  -1.04168
    D7        1.04084   0.00010  -0.00006   0.00092   0.00086   1.04170
    D8        0.00001   0.00000   0.00000   0.00000   0.00000   0.00001
    D9        2.10076  -0.00010   0.00006  -0.00092  -0.00086   2.09991
   D10       -2.10075   0.00010  -0.00006   0.00092   0.00086  -2.09989
         Item               Value     Threshold  Converged?
 Maximum Force            0.002573     0.000015     NO 
 RMS     Force            0.001139     0.000010     NO 
 Maximum Displacement     0.024356     0.000060     NO 
 RMS     Displacement     0.007214     0.000040     NO 
 Predicted change in Energy=-6.559640D-05
 Lowest energy point so far.  Saving SCF results.
 GradGradGradGradGradGradGradGradGradGradGradGradGradGradGradGradGradGrad

 Leave Link  103 at Thu Apr  2 13:26:54 2026, MaxMem=  2147483648 cpu:               0.1 elap:               0.0
 (Enter /Users/yarger/Applications/g16/l202.exe)
                          Input orientation:                          
 ---------------------------------------------------------------------
 Center     Atomic      Atomic             Coordinates (Angstroms)
 Number     Number       Type             X           Y           Z
 ---------------------------------------------------------------------
      1          6           0        1.747140    1.067311   -0.000001
      2          1           0        1.300248    2.070092   -0.000001
      3          1           0        2.844512    1.018786   -0.000001
      4          6           0        0.983602   -0.033214   -0.000000
      5          6           0       -0.558347    0.043629   -0.000000
      6          9           0       -1.175664   -1.177738    0.000009
      7          9           0       -1.076757    0.704215    1.084210
      8          9           0       -1.076758    0.704200   -1.084219
      9          9           0        1.471544   -1.292116   -0.000001
 ---------------------------------------------------------------------
                    Distance matrix (angstroms):
                    1          2          3          4          5
     1  C    0.000000
     2  H    1.097853   0.000000
     3  H    1.098444   1.868153   0.000000
     4  C    1.339457   2.127007   2.137683   0.000000
     5  C    2.522538   2.749714   3.539827   1.543863   0.000000
     6  F    3.685516   4.083936   4.581105   2.443842   1.368509
     7  F    3.046596   2.948098   4.080541   2.442211   1.371362
     8  F    3.046602   2.948109   4.080545   2.442211   1.371362
     9  F    2.375469   3.366569   2.687994   1.350157   2.429953
                    6          7          8          9
     6  F    0.000000
     7  F    2.174171   0.000000
     8  F    2.174171   2.168428   0.000000
     9  F    2.649677   3.413897   3.413891   0.000000
 Stoichiometry    C3H2F4
 Framework group  C1[X(C3H2F4)]
 Deg. of freedom    21
 Full point group                 C1      NOp   1
 RotChk:  IX=0 Diff= 6.36D-03
 Largest Abelian subgroup         C1      NOp   1
 Largest concise Abelian subgroup C1      NOp   1
                         Standard orientation:                         
 ---------------------------------------------------------------------
 Center     Atomic      Atomic             Coordinates (Angstroms)
 Number     Number       Type             X           Y           Z
 ---------------------------------------------------------------------
      1          6           0        1.687410   -1.146975    0.000000
      2          1           0        1.194373   -2.127890    0.000000
      3          1           0        2.785851   -1.149529    0.000001
      4          6           0        0.975872   -0.012136   -0.000000
      5          6           0       -0.567983   -0.017196   -0.000000
      6          9           0       -1.127839    1.231555   -0.000009
      7          9           0       -1.116549   -0.652962   -1.084210
      8          9           0       -1.116549   -0.652947    1.084218
      9          9           0        1.521824    1.222716    0.000000
 ---------------------------------------------------------------------
 Rotational constants (GHZ):           3.6402731           2.3033883           1.8793980
 Leave Link  202 at Thu Apr  2 13:26:54 2026, MaxMem=  2147483648 cpu:               0.0 elap:               0.0
 (Enter /Users/yarger/Applications/g16/l301.exe)
 Standard basis: VSTO-6G (5D, 7F)
 Ernie: Thresh=  0.10000D-02 Tol=  0.10000D-05 Strict=F.
  NNHCO=     0 NNPyr=     0 NCTC=     0               EPep=         0.000000000
    EC=       159.775686393  ECS=         1.704743464   EG=         0.438437326
   EHC=         0.000000000  EAt=       -85.052729409  AtH=         1.103463817
 EPDDG=         0.000000000  ECC=       161.918867183 EAtT=        86.156193227
 There are    30 symmetry adapted cartesian basis functions of A   symmetry.
 There are    30 symmetry adapted basis functions of A   symmetry.
    30 basis functions,   180 primitive gaussians,    30 cartesian basis functions
    21 alpha electrons       21 beta electrons
       nuclear repulsion energy       248.0750604099 Hartrees.
 IExCor=    0 DFT=F Ex=HF Corr=None ExCW=0 ScaHFX=  1.000000
 ScaDFX=  1.000000  1.000000  1.000000  1.000000 ScalE2=  1.000000  1.000000
 IRadAn=      5 IRanWt=     -1 IRanGd=            0 ICorTp=0 IEmpDi=  4
 Integral buffers will be    131072 words long.
 Regular integral format.
 Two-electron integral symmetry is turned off.
 Leave Link  301 at Thu Apr  2 13:26:54 2026, MaxMem=  2147483648 cpu:               0.2 elap:               0.0
 (Enter /Users/yarger/Applications/g16/l302.exe)
 Do NDO integrals.
 NPDir=0 NMtPBC=     1 NCelOv=     1 NCel=       1 NClECP=     1 NCelD=      1
         NCelK=      1 NCelE2=     1 NClLst=     1 CellRange=     0.0.
 One-electron integrals computed using PRISM.
 NBasis=    30 RedAO= F EigKep=  0.00D+00  NBF=    30
 NBsUse=    30 1.00D-04 EigRej=  0.00D+00 NBFU=    30
 Leave Link  302 at Thu Apr  2 13:26:54 2026, MaxMem=  2147483648 cpu:               0.3 elap:               0.1
 (Enter /Users/yarger/Applications/g16/l303.exe)
 DipDrv:  MaxL=1.
 Leave Link  303 at Thu Apr  2 13:26:54 2026, MaxMem=  2147483648 cpu:               0.1 elap:               0.0
 (Enter /Users/yarger/Applications/g16/l401.exe)
 Initial guess from the checkpoint file:  "2223Tetrafluoropropene_Opt_Freq_AM1_Gaussian16.chk"
 B after Tr=    -0.000000    0.000000    0.000000
         Rot=    0.999999    0.000000   -0.000000    0.001615 Ang=   0.19 deg.
 Guess basis will be translated and rotated to current coordinates.
 JPrj=0 DoOrth=T DoCkMO=T.
 Leave Link  401 at Thu Apr  2 13:26:54 2026, MaxMem=  2147483648 cpu:               0.3 elap:               0.0
 (Enter /Users/yarger/Applications/g16/l502.exe)
 Keep J ints in memory in canonical form, NReq=861894.
 FoFCou: FMM=F IPFlag=           0 FMFlag=           0 FMFlg1=           0
         NFxFlg=           0 DoJE=F BraDBF=F KetDBF=F FulRan=T
         wScrn=  0.000000 ICntrl=       600 IOpCl=  2 I1Cent=           0 NGrid=           0
         NMat0=    1 NMatS0=     72 NMatT0=    0 NMatD0=    1 NMtDS0=    0 NMtDT0=    0
 Symmetry not used in FoFCou.
 Two-electron integral symmetry not used.
 Closed shell SCF:
 Using DIIS extrapolation, IDIIS=  1040.
 Overlap will be assumed to be unity.
 NGot=  2147483648 LenX=  2147419503 LenY=  2147418162
 Requested convergence on RMS density matrix=1.00D-08 within 128 cycles.
 Requested convergence on MAX density matrix=1.00D-06.
 Requested convergence on             energy=1.00D-06.
 No special actions if energy rises.

 Cycle   1  Pass 1  IDiag  1:
 E=-0.295103741300267    
 DIIS: error= 1.01D-03 at cycle   1 NSaved=   1.
 NSaved= 1 IEnMin= 1 EnMin=-0.295103741300267     IErMin= 1 ErrMin= 1.01D-03
 ErrMax= 1.01D-03  0.00D+00 EMaxC= 1.00D-01 BMatC= 2.51D-05 BMatP= 2.51D-05
 IDIUse=3 WtCom= 9.90D-01 WtEn= 1.01D-02
 Coeff-Com:  0.100D+01
 Coeff-En:   0.100D+01
 Coeff:      0.100D+01
 GapD=    2.000 DampG=2.000 DampE=1.000 DampFc=2.0000 IDamp=-1.
 RMSDP=2.64D-04 MaxDP=2.10D-03              OVMax= 0.00D+00

 Cycle   2  Pass 1  IDiag  3:
 E=-0.295175834409548     Delta-E=       -0.000072093109 Rises=F Damp=F
 DIIS: error= 4.10D-04 at cycle   2 NSaved=   2.
 NSaved= 2 IEnMin= 2 EnMin=-0.295175834409548     IErMin= 2 ErrMin= 4.10D-04
 ErrMax= 4.10D-04  0.00D+00 EMaxC= 1.00D-01 BMatC= 3.17D-06 BMatP= 2.51D-05
 IDIUse=3 WtCom= 9.96D-01 WtEn= 4.10D-03
 Coeff-Com: -0.413D+00 0.141D+01
 Coeff-En:   0.000D+00 0.100D+01
 Coeff:     -0.411D+00 0.141D+01
 Gap=     0.402 Goal=   None    Shift=    0.000
 RMSDP=1.57D-04 MaxDP=1.24D-03 DE=-7.21D-05 OVMax= 9.07D-04

 Cycle   3  Pass 1  IDiag  3:
 E=-0.295190136159619     Delta-E=       -0.000014301750 Rises=F Damp=F
 DIIS: error= 7.88D-05 at cycle   3 NSaved=   3.
 NSaved= 3 IEnMin= 3 EnMin=-0.295190136159619     IErMin= 3 ErrMin= 7.88D-05
 ErrMax= 7.88D-05  0.00D+00 EMaxC= 1.00D-01 BMatC= 2.07D-07 BMatP= 3.17D-06
 IDIUse=1 WtCom= 1.00D+00 WtEn= 0.00D+00
 Coeff-Com:  0.175D+00-0.758D+00 0.158D+01
 Coeff:      0.175D+00-0.758D+00 0.158D+01
 Gap=     0.402 Goal=   None    Shift=    0.000
 RMSDP=5.55D-05 MaxDP=3.58D-04 DE=-1.43D-05 OVMax= 3.23D-04

 Cycle   4  Pass 1  IDiag  3:
 E=-0.295191332600609     Delta-E=       -0.000001196441 Rises=F Damp=F
 DIIS: error= 1.60D-05 at cycle   4 NSaved=   4.
 NSaved= 4 IEnMin= 4 EnMin=-0.295191332600609     IErMin= 4 ErrMin= 1.60D-05
 ErrMax= 1.60D-05  0.00D+00 EMaxC= 1.00D-01 BMatC= 8.84D-09 BMatP= 2.07D-07
 IDIUse=1 WtCom= 1.00D+00 WtEn= 0.00D+00
 Coeff-Com: -0.856D-01 0.387D+00-0.926D+00 0.162D+01
 Coeff:     -0.856D-01 0.387D+00-0.926D+00 0.162D+01
 Gap=     0.402 Goal=   None    Shift=    0.000
 RMSDP=1.25D-05 MaxDP=8.51D-05 DE=-1.20D-06 OVMax= 8.53D-05

 Cycle   5  Pass 1  IDiag  3:
 E=-0.295191389208327     Delta-E=       -0.000000056608 Rises=F Damp=F
 DIIS: error= 2.89D-06 at cycle   5 NSaved=   5.
 NSaved= 5 IEnMin= 5 EnMin=-0.295191389208327     IErMin= 5 ErrMin= 2.89D-06
 ErrMax= 2.89D-06  0.00D+00 EMaxC= 1.00D-01 BMatC= 3.89D-10 BMatP= 8.84D-09
 IDIUse=1 WtCom= 1.00D+00 WtEn= 0.00D+00
 Coeff-Com:  0.225D-01-0.104D+00 0.261D+00-0.624D+00 0.144D+01
 Coeff:      0.225D-01-0.104D+00 0.261D+00-0.624D+00 0.144D+01
 Gap=     0.402 Goal=   None    Shift=    0.000
 RMSDP=2.67D-06 MaxDP=1.64D-05 DE=-5.66D-08 OVMax= 2.49D-05

 Cycle   6  Pass 1  IDiag  3:
 E=-0.295191391605499     Delta-E=       -0.000000002397 Rises=F Damp=F
 DIIS: error= 4.33D-07 at cycle   6 NSaved=   6.
 NSaved= 6 IEnMin= 6 EnMin=-0.295191391605499     IErMin= 6 ErrMin= 4.33D-07
 ErrMax= 4.33D-07  0.00D+00 EMaxC= 1.00D-01 BMatC= 1.29D-11 BMatP= 3.89D-10
 IDIUse=1 WtCom= 1.00D+00 WtEn= 0.00D+00
 Coeff-Com: -0.642D-02 0.298D-01-0.767D-01 0.205D+00-0.612D+00 0.146D+01
 Coeff:     -0.642D-02 0.298D-01-0.767D-01 0.205D+00-0.612D+00 0.146D+01
 Gap=     0.402 Goal=   None    Shift=    0.000
 RMSDP=4.41D-07 MaxDP=2.44D-06 DE=-2.40D-09 OVMax= 4.78D-06

 Cycle   7  Pass 1  IDiag  3:
 E=-0.295191391675644     Delta-E=       -0.000000000070 Rises=F Damp=F
 DIIS: error= 8.07D-08 at cycle   7 NSaved=   7.
 NSaved= 7 IEnMin= 7 EnMin=-0.295191391675644     IErMin= 7 ErrMin= 8.07D-08
 ErrMax= 8.07D-08  0.00D+00 EMaxC= 1.00D-01 BMatC= 3.70D-13 BMatP= 1.29D-11
 IDIUse=1 WtCom= 1.00D+00 WtEn= 0.00D+00
 Coeff-Com:  0.242D-02-0.113D-01 0.292D-01-0.799D-01 0.249D+00-0.680D+00
 Coeff-Com:  0.149D+01
 Coeff:      0.242D-02-0.113D-01 0.292D-01-0.799D-01 0.249D+00-0.680D+00
 Coeff:      0.149D+01
 Gap=     0.402 Goal=   None    Shift=    0.000
 RMSDP=7.27D-08 MaxDP=3.97D-07 DE=-7.01D-11 OVMax= 7.79D-07

 Cycle   8  Pass 1  IDiag  3:
 E=-0.295191391678259     Delta-E=       -0.000000000003 Rises=F Damp=F
 DIIS: error= 1.85D-08 at cycle   8 NSaved=   8.
 NSaved= 8 IEnMin= 8 EnMin=-0.295191391678259     IErMin= 8 ErrMin= 1.85D-08
 ErrMax= 1.85D-08  0.00D+00 EMaxC= 1.00D-01 BMatC= 2.09D-14 BMatP= 3.70D-13
 IDIUse=1 WtCom= 1.00D+00 WtEn= 0.00D+00
 Coeff-Com: -0.115D-02 0.534D-02-0.138D-01 0.375D-01-0.117D+00 0.324D+00
 Coeff-Com: -0.833D+00 0.160D+01
 Coeff:     -0.115D-02 0.534D-02-0.138D-01 0.375D-01-0.117D+00 0.324D+00
 Coeff:     -0.833D+00 0.160D+01
 Gap=     0.402 Goal=   None    Shift=    0.000
 RMSDP=1.89D-08 MaxDP=1.09D-07 DE=-2.61D-12 OVMax= 1.39D-07

 Cycle   9  Pass 1  IDiag  3:
 E=-0.295191391677690     Delta-E=        0.000000000001 Rises=F Damp=F
 DIIS: error= 5.04D-09 at cycle   9 NSaved=   9.
 NSaved= 9 IEnMin= 8 EnMin=-0.295191391678259     IErMin= 9 ErrMin= 5.04D-09
 ErrMax= 5.04D-09  0.00D+00 EMaxC= 1.00D-01 BMatC= 1.02D-15 BMatP= 2.09D-14
 IDIUse=1 WtCom= 1.00D+00 WtEn= 0.00D+00
 Coeff-Com:  0.511D-03-0.238D-02 0.614D-02-0.166D-01 0.517D-01-0.144D+00
 Coeff-Com:  0.382D+00-0.867D+00 0.159D+01
 Coeff:      0.511D-03-0.238D-02 0.614D-02-0.166D-01 0.517D-01-0.144D+00
 Coeff:      0.382D+00-0.867D+00 0.159D+01
 Gap=     0.402 Goal=   None    Shift=    0.000
 RMSDP=4.29D-09 MaxDP=2.36D-08 DE= 5.68D-13 OVMax= 2.73D-08

 Cycle  10  Pass 2  IDiag  1:
 SCF Done:  E(RAM1) = -0.295191391678     A.U. after   10 cycles
            NFock=  9  Conv=0.43D-08     -V/T= 0.9979
 KE=-1.431962378895D+02 PE=-3.161528600497D+02 EE= 2.109788461376D+02
 Leave Link  502 at Thu Apr  2 13:26:54 2026, MaxMem=  2147483648 cpu:               0.2 elap:               0.0
 (Enter /Users/yarger/Applications/g16/l701.exe)
 ... and contract with generalized density number  0.
 Compute integral first derivatives.
 Leave Link  701 at Thu Apr  2 13:26:54 2026, MaxMem=  2147483648 cpu:               0.3 elap:               0.1
 (Enter /Users/yarger/Applications/g16/l702.exe)
 L702 exits ... SP integral derivatives will be done elsewhere.
 Leave Link  702 at Thu Apr  2 13:26:55 2026, MaxMem=  2147483648 cpu:               0.1 elap:               0.0
 (Enter /Users/yarger/Applications/g16/l703.exe)
 Integral derivatives from FoFJK, PRISM(SPDF).
 Compute integral first derivatives, UseDBF=F ICtDFT=           0.
 Calling FoFJK, ICntrl=      2127 FMM=F ISym2X=0 I1Cent= 0 IOpClX= 0 NMat=1 NMatS=1 NMatT=0.
 FoFJK:  IHMeth= 8 ICntrl=    2127 DoSepK=F KAlg= 0 I1Cent=           0 FoldK=F
 IRaf=         0 NMat=       1 IRICut=       1 DoRegI=T DoRafI=F ISym2E= 0 IDoP0=3 IntGTp=3.
 FoFCou: FMM=F IPFlag=           0 FMFlag=      100000 FMFlg1=         800
         NFxFlg=           0 DoJE=F BraDBF=F KetDBF=F FulRan=T
         wScrn=  0.000000 ICntrl=      2127 IOpCl=  0 I1Cent=           0 NGrid=           0
         NMat0=    1 NMatS0=      1 NMatT0=    0 NMatD0=    1 NMtDS0=    0 NMtDT0=    0
 Symmetry not used in FoFCou.
 Leave Link  703 at Thu Apr  2 13:26:55 2026, MaxMem=  2147483648 cpu:               0.2 elap:               0.0
 (Enter /Users/yarger/Applications/g16/l716.exe)
 Dipole        = 7.71818027D-01-6.28839706D-01 4.91293589D-08
 ***** Axes restored to original set *****
 -------------------------------------------------------------------
 Center     Atomic                   Forces (Hartrees/Bohr)
 Number     Number              X              Y              Z
 -------------------------------------------------------------------
      1        6           0.000726071    0.001274793    0.000000021
      2        1          -0.000455504   -0.000228493    0.000000006
      3        1          -0.000314181   -0.000308324   -0.000000007
      4        6           0.000189954   -0.001625940   -0.000000046
      5        6           0.000124762    0.000378157    0.000000010
      6        9          -0.000081323   -0.000885940    0.000000008
      7        9           0.000138724    0.000379126    0.000685477
      8        9           0.000138724    0.000379113   -0.000685485
      9        9          -0.000467227    0.000637509    0.000000016
 -------------------------------------------------------------------
 Cartesian Forces:  Max     0.001625940 RMS     0.000548601
 Leave Link  716 at Thu Apr  2 13:26:55 2026, MaxMem=  2147483648 cpu:               0.1 elap:               0.0
 (Enter /Users/yarger/Applications/g16/l103.exe)

 GradGradGradGradGradGradGradGradGradGradGradGradGradGradGradGradGradGrad
 Berny optimization.
 Using GEDIIS/GDIIS optimizer.
 FormGI is forming the generalized inverse of G from B-inverse, IUseBI=4.
 Internal  Forces:  Max     0.000854399 RMS     0.000442579
 Search for a local minimum.
 Step number   4 out of a maximum of   40
 All quantities printed in internal units (Hartrees-Bohrs-Radians)
 RMS Force = .44258D-03 SwitMx=.10000D-02 MixMth= 2
 Mixed Optimization -- En-DIIS/RFO-DIIS
 Update second derivatives using D2CorX and points    1    2    3    4
 DE= -6.93D-05 DEPred=-6.56D-05 R= 1.06D+00
 TightC=F SS=  1.41D+00  RLast= 2.34D-02 DXNew= 8.4853D-01 7.0294D-02
 Trust test= 1.06D+00 RLast= 2.34D-02 DXMaxT set to 5.05D-01
 ITU=  1  1  1  0
 Use linear search instead of GDIIS.
     Eigenvalues ---    0.00610   0.01700   0.03046   0.03046   0.10035
     Eigenvalues ---    0.10175   0.11394   0.16021   0.21696   0.25000
     Eigenvalues ---    0.25048   0.25054   0.28234   0.35146   0.35385
     Eigenvalues ---    0.41111   0.56094   0.56547   0.57277   0.63167
     Eigenvalues ---    0.80185
 RFO step:  Lambda=-2.20832655D-05 EMin= 6.10148604D-03
 Quartic linear search produced a step of  0.06095.
 Iteration  1 RMS(Cart)=  0.00506295 RMS(Int)=  0.00001379
 Iteration  2 RMS(Cart)=  0.00001348 RMS(Int)=  0.00000050
 Iteration  3 RMS(Cart)=  0.00000000 RMS(Int)=  0.00000050
 ITry= 1 IFail=0 DXMaxC= 1.82D-02 DCOld= 1.00D+10 DXMaxT= 5.05D-01 DXLimC= 3.00D+00 Rises=F
 Variable       Old X    -DE/DX   Delta X   Delta X   Delta X     New X
                                 (Linear)    (Quad)   (Total)
    R1        2.07464  -0.00002  -0.00001  -0.00007  -0.00008   2.07456
    R2        2.07576  -0.00030  -0.00004  -0.00098  -0.00102   2.07474
    R3        2.53121   0.00058   0.00015   0.00126   0.00141   2.53262
    R4        2.91748  -0.00031   0.00042  -0.00058  -0.00016   2.91732
    R5        2.55143  -0.00076  -0.00027  -0.00206  -0.00233   2.54910
    R6        2.58611   0.00083  -0.00016   0.00126   0.00110   2.58721
    R7        2.59150   0.00067  -0.00022   0.00080   0.00058   2.59208
    R8        2.59150   0.00067  -0.00022   0.00080   0.00058   2.59208
    A1        2.03422   0.00057   0.00069   0.00552   0.00621   2.04043
    A2        2.11581  -0.00048  -0.00059  -0.00462  -0.00521   2.11060
    A3        2.13315  -0.00009  -0.00010  -0.00090  -0.00100   2.13215
    A4        2.12755  -0.00085  -0.00056  -0.00504  -0.00560   2.12196
    A5        2.16528   0.00069   0.00027   0.00376   0.00404   2.16931
    A6        1.99035   0.00017   0.00028   0.00128   0.00156   1.99191
    A7        1.98899  -0.00030   0.00015  -0.00084  -0.00069   1.98830
    A8        1.98399  -0.00051   0.00025  -0.00176  -0.00151   1.98248
    A9        1.98399  -0.00051   0.00025  -0.00176  -0.00151   1.98248
   A10        1.83318   0.00048  -0.00027   0.00163   0.00135   1.83453
   A11        1.83318   0.00048  -0.00027   0.00163   0.00135   1.83453
   A12        1.82361   0.00056  -0.00021   0.00174   0.00153   1.82514
    D1        0.00000  -0.00000   0.00000  -0.00000  -0.00000   0.00000
    D2        3.14159   0.00000   0.00000   0.00000   0.00000  -3.14159
    D3       -3.14159  -0.00000   0.00000  -0.00000  -0.00000  -3.14159
    D4       -0.00000   0.00000  -0.00000   0.00000   0.00000   0.00000
    D5       -3.14159   0.00000  -0.00000   0.00000   0.00000  -3.14159
    D6       -1.04168   0.00002  -0.00005   0.00017   0.00012  -1.04157
    D7        1.04170  -0.00002   0.00005  -0.00017  -0.00011   1.04158
    D8        0.00001  -0.00000   0.00000   0.00000   0.00000   0.00001
    D9        2.09991   0.00002  -0.00005   0.00017   0.00012   2.10002
   D10       -2.09989  -0.00002   0.00005  -0.00017  -0.00012  -2.10001
         Item               Value     Threshold  Converged?
 Maximum Force            0.000854     0.000015     NO 
 RMS     Force            0.000443     0.000010     NO 
 Maximum Displacement     0.018192     0.000060     NO 
 RMS     Displacement     0.005066     0.000040     NO 
 Predicted change in Energy=-1.127107D-05
 Lowest energy point so far.  Saving SCF results.
 GradGradGradGradGradGradGradGradGradGradGradGradGradGradGradGradGradGrad

 Leave Link  103 at Thu Apr  2 13:26:55 2026, MaxMem=  2147483648 cpu:               0.1 elap:               0.0
 (Enter /Users/yarger/Applications/g16/l202.exe)
                          Input orientation:                          
 ---------------------------------------------------------------------
 Center     Atomic      Atomic             Coordinates (Angstroms)
 Number     Number       Type             X           Y           Z
 ---------------------------------------------------------------------
      1          6           0        1.745734    1.067092   -0.000001
      2          1           0        1.290621    2.066122    0.000000
      3          1           0        2.842663    1.020808   -0.000001
      4          6           0        0.985103   -0.036352   -0.000001
      5          6           0       -0.556560    0.044453   -0.000000
      6          9           0       -1.176437   -1.176270    0.000009
      7          9           0       -1.071464    0.706964    1.085096
      8          9           0       -1.071466    0.706948   -1.085106
      9          9           0        1.471325   -1.294599   -0.000001
 ---------------------------------------------------------------------
                    Distance matrix (angstroms):
                    1          2          3          4          5
     1  C    0.000000
     2  H    1.097811   0.000000
     3  H    1.097904   1.871233   0.000000
     4  C    1.340205   2.124556   2.137315   0.000000
     5  C    2.519197   2.738472   3.536663   1.543779   0.000000
     6  F    3.683987   4.074246   4.580428   2.443700   1.369091
     7  F    3.040351   2.933291   4.073859   2.441193   1.371671
     8  F    3.040358   2.933303   4.073863   2.441193   1.371671
     9  F    2.377580   3.365576   2.691037   1.348925   2.430098
                    6          7          8          9
     6  F    0.000000
     7  F    2.176006   0.000000
     8  F    2.176006   2.170202   0.000000
     9  F    2.650405   3.413132   3.413126   0.000000
 Stoichiometry    C3H2F4
 Framework group  C1[X(C3H2F4)]
 Deg. of freedom    21
 Full point group                 C1      NOp   1
 RotChk:  IX=0 Diff= 3.30D-03
 Largest Abelian subgroup         C1      NOp   1
 Largest concise Abelian subgroup C1      NOp   1
                         Standard orientation:                         
 ---------------------------------------------------------------------
 Center     Atomic      Atomic             Coordinates (Angstroms)
 Number     Number       Type             X           Y           Z
 ---------------------------------------------------------------------
      1          6           0        1.681822   -1.150129    0.000000
      2          1           0        1.178471   -2.125745   -0.000000
      3          1           0        2.779702   -1.157461    0.000000
      4          6           0        0.975977   -0.010861    0.000000
      5          6           0       -0.567793   -0.016293   -0.000000
      6          9           0       -1.127326    1.233241   -0.000009
      7          9           0       -1.114432   -0.652872   -1.085097
      8          9           0       -1.114433   -0.652856    1.085106
      9          9           0        1.523056    1.222144    0.000000
 ---------------------------------------------------------------------
 Rotational constants (GHZ):           3.6346314           2.3070924           1.8813782
 Leave Link  202 at Thu Apr  2 13:26:55 2026, MaxMem=  2147483648 cpu:               0.0 elap:               0.0
 (Enter /Users/yarger/Applications/g16/l301.exe)
 Standard basis: VSTO-6G (5D, 7F)
 Ernie: Thresh=  0.10000D-02 Tol=  0.10000D-05 Strict=F.
  NNHCO=     0 NNPyr=     0 NCTC=     0               EPep=         0.000000000
    EC=       159.791253305  ECS=         1.704659189   EG=         0.438371533
   EHC=         0.000000000  EAt=       -85.052729409  AtH=         1.103463817
 EPDDG=         0.000000000  ECC=       161.934284027 EAtT=        86.156193227
 There are    30 symmetry adapted cartesian basis functions of A   symmetry.
 There are    30 symmetry adapted basis functions of A   symmetry.
    30 basis functions,   180 primitive gaussians,    30 cartesian basis functions
    21 alpha electrons       21 beta electrons
       nuclear repulsion energy       248.0904772538 Hartrees.
 IExCor=    0 DFT=F Ex=HF Corr=None ExCW=0 ScaHFX=  1.000000
 ScaDFX=  1.000000  1.000000  1.000000  1.000000 ScalE2=  1.000000  1.000000
 IRadAn=      5 IRanWt=     -1 IRanGd=            0 ICorTp=0 IEmpDi=  4
 Integral buffers will be    131072 words long.
 Regular integral format.
 Two-electron integral symmetry is turned off.
 Leave Link  301 at Thu Apr  2 13:26:55 2026, MaxMem=  2147483648 cpu:               0.2 elap:               0.0
 (Enter /Users/yarger/Applications/g16/l302.exe)
 Do NDO integrals.
 NPDir=0 NMtPBC=     1 NCelOv=     1 NCel=       1 NClECP=     1 NCelD=      1
         NCelK=      1 NCelE2=     1 NClLst=     1 CellRange=     0.0.
 One-electron integrals computed using PRISM.
 NBasis=    30 RedAO= F EigKep=  0.00D+00  NBF=    30
 NBsUse=    30 1.00D-04 EigRej=  0.00D+00 NBFU=    30
 Leave Link  302 at Thu Apr  2 13:26:55 2026, MaxMem=  2147483648 cpu:               0.3 elap:               0.1
 (Enter /Users/yarger/Applications/g16/l303.exe)
 DipDrv:  MaxL=1.
 Leave Link  303 at Thu Apr  2 13:26:55 2026, MaxMem=  2147483648 cpu:               0.1 elap:               0.0
 (Enter /Users/yarger/Applications/g16/l401.exe)
 Initial guess from the checkpoint file:  "2223Tetrafluoropropene_Opt_Freq_AM1_Gaussian16.chk"
 B after Tr=     0.000000   -0.000000   -0.000000
         Rot=    1.000000    0.000000    0.000000    0.000538 Ang=   0.06 deg.
 Guess basis will be translated and rotated to current coordinates.
 JPrj=0 DoOrth=T DoCkMO=T.
 Leave Link  401 at Thu Apr  2 13:26:55 2026, MaxMem=  2147483648 cpu:               0.3 elap:               0.0
 (Enter /Users/yarger/Applications/g16/l502.exe)
 Keep J ints in memory in canonical form, NReq=861894.
 FoFCou: FMM=F IPFlag=           0 FMFlag=           0 FMFlg1=           0
         NFxFlg=           0 DoJE=F BraDBF=F KetDBF=F FulRan=T
         wScrn=  0.000000 ICntrl=       600 IOpCl=  2 I1Cent=           0 NGrid=           0
         NMat0=    1 NMatS0=     72 NMatT0=    0 NMatD0=    1 NMtDS0=    0 NMtDT0=    0
 Symmetry not used in FoFCou.
 Two-electron integral symmetry not used.
 Closed shell SCF:
 Using DIIS extrapolation, IDIIS=  1040.
 Overlap will be assumed to be unity.
 NGot=  2147483648 LenX=  2147419503 LenY=  2147418162
 Requested convergence on RMS density matrix=1.00D-08 within 128 cycles.
 Requested convergence on MAX density matrix=1.00D-06.
 Requested convergence on             energy=1.00D-06.
 No special actions if energy rises.

 Cycle   1  Pass 1  IDiag  1:
 E=-0.295174279154765    
 DIIS: error= 6.81D-04 at cycle   1 NSaved=   1.
 NSaved= 1 IEnMin= 1 EnMin=-0.295174279154765     IErMin= 1 ErrMin= 6.81D-04
 ErrMax= 6.81D-04  0.00D+00 EMaxC= 1.00D-01 BMatC= 8.34D-06 BMatP= 8.34D-06
 IDIUse=3 WtCom= 9.93D-01 WtEn= 6.81D-03
 Coeff-Com:  0.100D+01
 Coeff-En:   0.100D+01
 Coeff:      0.100D+01
 RMSDP=1.52D-04 MaxDP=1.37D-03              OVMax= 0.00D+00

 Cycle   2  Pass 1  IDiag  3:
 E=-0.295198190068504     Delta-E=       -0.000023910914 Rises=F Damp=F
 DIIS: error= 2.77D-04 at cycle   2 NSaved=   2.
 NSaved= 2 IEnMin= 2 EnMin=-0.295198190068504     IErMin= 2 ErrMin= 2.77D-04
 ErrMax= 2.77D-04  0.00D+00 EMaxC= 1.00D-01 BMatC= 1.01D-06 BMatP= 8.34D-06
 IDIUse=3 WtCom= 9.97D-01 WtEn= 2.77D-03
 Coeff-Com: -0.422D+00 0.142D+01
 Coeff-En:   0.000D+00 0.100D+01
 Coeff:     -0.421D+00 0.142D+01
 Gap=     0.402 Goal=   None    Shift=    0.000
 RMSDP=8.82D-05 MaxDP=8.13D-04 DE=-2.39D-05 OVMax= 6.22D-04

 Cycle   3  Pass 1  IDiag  3:
 E=-0.295202585494849     Delta-E=       -0.000004395426 Rises=F Damp=F
 DIIS: error= 4.96D-05 at cycle   3 NSaved=   3.
 NSaved= 3 IEnMin= 3 EnMin=-0.295202585494849     IErMin= 3 ErrMin= 4.96D-05
 ErrMax= 4.96D-05  0.00D+00 EMaxC= 1.00D-01 BMatC= 4.80D-08 BMatP= 1.01D-06
 IDIUse=1 WtCom= 1.00D+00 WtEn= 0.00D+00
 Coeff-Com:  0.157D+00-0.660D+00 0.150D+01
 Coeff:      0.157D+00-0.660D+00 0.150D+01
 Gap=     0.402 Goal=   None    Shift=    0.000
 RMSDP=2.53D-05 MaxDP=1.93D-04 DE=-4.40D-06 OVMax= 2.04D-04

 Cycle   4  Pass 1  IDiag  3:
 E=-0.295202846744815     Delta-E=       -0.000000261250 Rises=F Damp=F
 DIIS: error= 6.38D-06 at cycle   4 NSaved=   4.
 NSaved= 4 IEnMin= 4 EnMin=-0.295202846744815     IErMin= 4 ErrMin= 6.38D-06
 ErrMax= 6.38D-06  0.00D+00 EMaxC= 1.00D-01 BMatC= 2.08D-09 BMatP= 4.80D-08
 IDIUse=1 WtCom= 1.00D+00 WtEn= 0.00D+00
 Coeff-Com: -0.795D-01 0.349D+00-0.906D+00 0.164D+01
 Coeff:     -0.795D-01 0.349D+00-0.906D+00 0.164D+01
 Gap=     0.402 Goal=   None    Shift=    0.000
 RMSDP=5.90D-06 MaxDP=3.59D-05 DE=-2.61D-07 OVMax= 6.01D-05

 Cycle   5  Pass 1  IDiag  3:
 E=-0.295202860047596     Delta-E=       -0.000000013303 Rises=F Damp=F
 DIIS: error= 1.48D-06 at cycle   5 NSaved=   5.
 NSaved= 5 IEnMin= 5 EnMin=-0.295202860047596     IErMin= 5 ErrMin= 1.48D-06
 ErrMax= 1.48D-06  0.00D+00 EMaxC= 1.00D-01 BMatC= 1.21D-10 BMatP= 2.08D-09
 IDIUse=1 WtCom= 1.00D+00 WtEn= 0.00D+00
 Coeff-Com:  0.272D-01-0.120D+00 0.322D+00-0.755D+00 0.153D+01
 Coeff:      0.272D-01-0.120D+00 0.322D+00-0.755D+00 0.153D+01
 Gap=     0.402 Goal=   None    Shift=    0.000
 RMSDP=1.53D-06 MaxDP=9.08D-06 DE=-1.33D-08 OVMax= 1.38D-05

 Cycle   6  Pass 1  IDiag  3:
 E=-0.295202860836639     Delta-E=       -0.000000000789 Rises=F Damp=F
 DIIS: error= 2.95D-07 at cycle   6 NSaved=   6.
 NSaved= 6 IEnMin= 6 EnMin=-0.295202860836639     IErMin= 6 ErrMin= 2.95D-07
 ErrMax= 2.95D-07  0.00D+00 EMaxC= 1.00D-01 BMatC= 4.90D-12 BMatP= 1.21D-10
 IDIUse=1 WtCom= 1.00D+00 WtEn= 0.00D+00
 Coeff-Com: -0.730D-02 0.323D-01-0.879D-01 0.230D+00-0.631D+00 0.146D+01
 Coeff:     -0.730D-02 0.323D-01-0.879D-01 0.230D+00-0.631D+00 0.146D+01
 Gap=     0.402 Goal=   None    Shift=    0.000
 RMSDP=2.88D-07 MaxDP=1.38D-06 DE=-7.89D-10 OVMax= 2.62D-06

 Cycle   7  Pass 1  IDiag  3:
 E=-0.295202860864976     Delta-E=       -0.000000000028 Rises=F Damp=F
 DIIS: error= 5.66D-08 at cycle   7 NSaved=   7.
 NSaved= 7 IEnMin= 7 EnMin=-0.295202860864976     IErMin= 7 ErrMin= 5.66D-08
 ErrMax= 5.66D-08  0.00D+00 EMaxC= 1.00D-01 BMatC= 1.53D-13 BMatP= 4.90D-12
 IDIUse=1 WtCom= 1.00D+00 WtEn= 0.00D+00
 Coeff-Com:  0.234D-02-0.104D-01 0.284D-01-0.772D-01 0.231D+00-0.647D+00
 Coeff-Com:  0.147D+01
 Coeff:      0.234D-02-0.104D-01 0.284D-01-0.772D-01 0.231D+00-0.647D+00
 Coeff:      0.147D+01
 Gap=     0.402 Goal=   None    Shift=    0.000
 RMSDP=4.64D-08 MaxDP=2.75D-07 DE=-2.83D-11 OVMax= 4.14D-07

 Cycle   8  Pass 1  IDiag  3:
 E=-0.295202860865658     Delta-E=       -0.000000000001 Rises=F Damp=F
 DIIS: error= 1.52D-08 at cycle   8 NSaved=   8.
 NSaved= 8 IEnMin= 8 EnMin=-0.295202860865658     IErMin= 8 ErrMin= 1.52D-08
 ErrMax= 1.52D-08  0.00D+00 EMaxC= 1.00D-01 BMatC= 8.30D-15 BMatP= 1.53D-13
 IDIUse=1 WtCom= 1.00D+00 WtEn= 0.00D+00
 Coeff-Com: -0.994D-03 0.441D-02-0.121D-01 0.327D-01-0.976D-01 0.281D+00
 Coeff-Com: -0.772D+00 0.156D+01
 Coeff:     -0.994D-03 0.441D-02-0.121D-01 0.327D-01-0.976D-01 0.281D+00
 Coeff:     -0.772D+00 0.156D+01
 Gap=     0.402 Goal=   None    Shift=    0.000
 RMSDP=1.18D-08 MaxDP=7.54D-08 DE=-6.82D-13 OVMax= 7.80D-08

 Cycle   9  Pass 1  IDiag  3:
 E=-0.295202860865715     Delta-E=       -0.000000000000 Rises=F Damp=F
 DIIS: error= 3.26D-09 at cycle   9 NSaved=   9.
 NSaved= 9 IEnMin= 9 EnMin=-0.295202860865715     IErMin= 9 ErrMin= 3.26D-09
 ErrMax= 3.26D-09  0.00D+00 EMaxC= 1.00D-01 BMatC= 4.22D-16 BMatP= 8.30D-15
 IDIUse=1 WtCom= 1.00D+00 WtEn= 0.00D+00
 Coeff-Com:  0.413D-03-0.183D-02 0.502D-02-0.135D-01 0.401D-01-0.116D+00
 Coeff-Com:  0.331D+00-0.812D+00 0.157D+01
 Coeff:      0.413D-03-0.183D-02 0.502D-02-0.135D-01 0.401D-01-0.116D+00
 Coeff:      0.331D+00-0.812D+00 0.157D+01
 Gap=     0.402 Goal=   None    Shift=    0.000
 RMSDP=2.75D-09 MaxDP=1.80D-08 DE=-5.68D-14 OVMax= 1.93D-08

 Cycle  10  Pass 2  IDiag  1:
 SCF Done:  E(RAM1) = -0.295202860866     A.U. after   10 cycles
            NFock=  9  Conv=0.27D-08     -V/T= 0.9979
 KE=-1.431938559997D+02 PE=-3.161849921585D+02 EE= 2.109931680436D+02
 Leave Link  502 at Thu Apr  2 13:26:55 2026, MaxMem=  2147483648 cpu:               0.3 elap:               0.0
 (Enter /Users/yarger/Applications/g16/l701.exe)
 ... and contract with generalized density number  0.
 Compute integral first derivatives.
 Leave Link  701 at Thu Apr  2 13:26:55 2026, MaxMem=  2147483648 cpu:               0.2 elap:               0.1
 (Enter /Users/yarger/Applications/g16/l702.exe)
 L702 exits ... SP integral derivatives will be done elsewhere.
 Leave Link  702 at Thu Apr  2 13:26:55 2026, MaxMem=  2147483648 cpu:               0.1 elap:               0.0
 (Enter /Users/yarger/Applications/g16/l703.exe)
 Integral derivatives from FoFJK, PRISM(SPDF).
 Compute integral first derivatives, UseDBF=F ICtDFT=           0.
 Calling FoFJK, ICntrl=      2127 FMM=F ISym2X=0 I1Cent= 0 IOpClX= 0 NMat=1 NMatS=1 NMatT=0.
 FoFJK:  IHMeth= 8 ICntrl=    2127 DoSepK=F KAlg= 0 I1Cent=           0 FoldK=F
 IRaf=         0 NMat=       1 IRICut=       1 DoRegI=T DoRafI=F ISym2E= 0 IDoP0=3 IntGTp=3.
 FoFCou: FMM=F IPFlag=           0 FMFlag=      100000 FMFlg1=         800
         NFxFlg=           0 DoJE=F BraDBF=F KetDBF=F FulRan=T
         wScrn=  0.000000 ICntrl=      2127 IOpCl=  0 I1Cent=           0 NGrid=           0
         NMat0=    1 NMatS0=      1 NMatT0=    0 NMatD0=    1 NMtDS0=    0 NMtDT0=    0
 Symmetry not used in FoFCou.
 Leave Link  703 at Thu Apr  2 13:26:55 2026, MaxMem=  2147483648 cpu:               0.2 elap:               0.0
 (Enter /Users/yarger/Applications/g16/l716.exe)
 Dipole        = 7.67264315D-01-6.26848028D-01-5.33139428D-08
 ***** Axes restored to original set *****
 -------------------------------------------------------------------
 Center     Atomic                   Forces (Hartrees/Bohr)
 Number     Number              X              Y              Z
 -------------------------------------------------------------------
      1        6           0.000117618   -0.000062843    0.000000013
      2        1          -0.000026000    0.000003479   -0.000000007
      3        1          -0.000083386    0.000005467   -0.000000005
      4        6           0.000175156    0.000151070    0.000000015
      5        6          -0.000239918   -0.000148538    0.000000001
      6        9           0.000004995    0.000000188    0.000000001
      7        9          -0.000024219    0.000081960    0.000150258
      8        9          -0.000024220    0.000081955   -0.000150264
      9        9           0.000099974   -0.000112737   -0.000000012
 -------------------------------------------------------------------
 Cartesian Forces:  Max     0.000239918 RMS     0.000094492
 Leave Link  716 at Thu Apr  2 13:26:55 2026, MaxMem=  2147483648 cpu:               0.1 elap:               0.0
 (Enter /Users/yarger/Applications/g16/l103.exe)

 GradGradGradGradGradGradGradGradGradGradGradGradGradGradGradGradGradGrad
 Berny optimization.
 Using GEDIIS/GDIIS optimizer.
 FormGI is forming the generalized inverse of G from B-inverse, IUseBI=4.
 Internal  Forces:  Max     0.000283788 RMS     0.000079355
 Search for a local minimum.
 Step number   5 out of a maximum of   40
 All quantities printed in internal units (Hartrees-Bohrs-Radians)
 RMS Force = .79355D-04 SwitMx=.10000D-02 MixMth= 2
 Mixed Optimization -- En-DIIS/RFO-DIIS
 Swapping is turned off.
 Update second derivatives using D2CorX and points    1    2    3    4    5
 DE= -1.15D-05 DEPred=-1.13D-05 R= 1.02D+00
 TightC=F SS=  1.41D+00  RLast= 1.18D-02 DXNew= 8.4853D-01 3.5262D-02
 Trust test= 1.02D+00 RLast= 1.18D-02 DXMaxT set to 5.05D-01
 ITU=  1  1  1  1  0
     Eigenvalues ---    0.00610   0.01703   0.03046   0.03046   0.10054
     Eigenvalues ---    0.10177   0.11093   0.16041   0.21780   0.25000
     Eigenvalues ---    0.25047   0.25243   0.27660   0.35192   0.35486
     Eigenvalues ---    0.42197   0.56547   0.57207   0.58581   0.63002
     Eigenvalues ---    0.77443
 En-DIIS/RFO-DIIS/Sim-DIIS IScMMF=       -3 using points:     5    4
 RFO step:  Lambda=-4.28854376D-07.
 NNeg= 0 NGDIIS= 2 SimSw=  2.50D-01 Rises=F DC= -1.15D-05 SmlDif=  1.00D-05
 NRisDI= 0 DoIntr=F SqrtH=F CThrHd= 10.0 CDAdj=  3.0
 RMS Error=  0.2070852124D-03 NUsed= 2 OKEnD=T EnDIS=F
 InvSVX:  RCond= 3.45D-05 Info=           0 Equed=N FErr=  1.02D-15 BErr=  5.96D-17
 DidBck=F Rises=F RFO-DIIS coefs:    1.03623   -0.03623
 Iteration  1 RMS(Cart)=  0.00033098 RMS(Int)=  0.00000006
 Iteration  2 RMS(Cart)=  0.00000006 RMS(Int)=  0.00000002
 ITry= 1 IFail=0 DXMaxC= 9.73D-04 DCOld= 1.00D+10 DXMaxT= 5.05D-01 DXLimC= 3.00D+00 Rises=F
 Variable       Old X    -DE/DX   Delta X   Delta X   Delta X     New X
                                 (Linear)    (Quad)   (Total)
    R1        2.07456   0.00001  -0.00000   0.00003   0.00003   2.07459
    R2        2.07474  -0.00008  -0.00004  -0.00022  -0.00026   2.07448
    R3        2.53262  -0.00004   0.00005  -0.00018  -0.00013   2.53249
    R4        2.91732   0.00028  -0.00001   0.00073   0.00072   2.91804
    R5        2.54910   0.00014  -0.00008   0.00021   0.00013   2.54923
    R6        2.58721  -0.00000   0.00004  -0.00010  -0.00006   2.58715
    R7        2.59208   0.00017   0.00002   0.00019   0.00021   2.59230
    R8        2.59208   0.00017   0.00002   0.00019   0.00021   2.59230
    A1        2.04043   0.00001   0.00022  -0.00001   0.00022   2.04065
    A2        2.11060  -0.00003  -0.00019  -0.00011  -0.00030   2.11030
    A3        2.13215   0.00002  -0.00004   0.00012   0.00008   2.13223
    A4        2.12196  -0.00002  -0.00020   0.00005  -0.00015   2.12181
    A5        2.16931  -0.00006   0.00015  -0.00029  -0.00015   2.16917
    A6        1.99191   0.00007   0.00006   0.00024   0.00030   1.99221
    A7        1.98830   0.00002  -0.00003   0.00012   0.00009   1.98839
    A8        1.98248  -0.00006  -0.00005  -0.00023  -0.00029   1.98219
    A9        1.98248  -0.00006  -0.00005  -0.00023  -0.00029   1.98219
   A10        1.83453   0.00003   0.00005   0.00011   0.00016   1.83469
   A11        1.83453   0.00003   0.00005   0.00011   0.00016   1.83469
   A12        1.82514   0.00006   0.00006   0.00017   0.00023   1.82537
    D1        0.00000  -0.00000  -0.00000  -0.00000  -0.00000   0.00000
    D2       -3.14159  -0.00000   0.00000  -0.00000  -0.00000   3.14159
    D3       -3.14159   0.00000  -0.00000   0.00000   0.00000  -3.14159
    D4        0.00000   0.00000   0.00000  -0.00000  -0.00000   0.00000
    D5       -3.14159  -0.00000   0.00000   0.00000   0.00000  -3.14158
    D6       -1.04157   0.00001   0.00000   0.00006   0.00006  -1.04150
    D7        1.04158  -0.00001  -0.00000  -0.00006  -0.00006   1.04152
    D8        0.00001   0.00000   0.00000   0.00000   0.00000   0.00001
    D9        2.10002   0.00001   0.00000   0.00006   0.00006   2.10009
   D10       -2.10001  -0.00001  -0.00000  -0.00006  -0.00006  -2.10007
         Item               Value     Threshold  Converged?
 Maximum Force            0.000284     0.000015     NO 
 RMS     Force            0.000079     0.000010     NO 
 Maximum Displacement     0.000973     0.000060     NO 
 RMS     Displacement     0.000331     0.000040     NO 
 Predicted change in Energy=-2.144254D-07
 Lowest energy point so far.  Saving SCF results.
 GradGradGradGradGradGradGradGradGradGradGradGradGradGradGradGradGradGrad

 Leave Link  103 at Thu Apr  2 13:26:55 2026, MaxMem=  2147483648 cpu:               0.1 elap:               0.0
 (Enter /Users/yarger/Applications/g16/l202.exe)
                          Input orientation:                          
 ---------------------------------------------------------------------
 Center     Atomic      Atomic             Coordinates (Angstroms)
 Number     Number       Type             X           Y           Z
 ---------------------------------------------------------------------
      1          6           0        1.745763    1.066995   -0.000000
      2          1           0        1.290243    2.065857    0.000000
      3          1           0        2.842561    1.020916   -0.000001
      4          6           0        0.985282   -0.036470   -0.000000
      5          6           0       -0.556760    0.044427   -0.000000
      6          9           0       -1.176793   -1.176179    0.000009
      7          9           0       -1.071307    0.707148    1.085281
      8          9           0       -1.071309    0.707131   -1.085291
      9          9           0        1.471840   -1.294659   -0.000001
 ---------------------------------------------------------------------
                    Distance matrix (angstroms):
                    1          2          3          4          5
     1  C    0.000000
     2  H    1.097827   0.000000
     3  H    1.097766   1.871254   0.000000
     4  C    1.340137   2.124331   2.137184   0.000000
     5  C    2.519376   2.738174   3.536795   1.544162   0.000000
     6  F    3.684177   4.073949   4.580659   2.444075   1.369058
     7  F    3.040265   2.932720   4.073654   2.441385   1.371784
     8  F    3.040271   2.932732   4.073659   2.441385   1.371784
     9  F    2.377487   3.365419   2.690868   1.348992   2.430714
                    6          7          8          9
     6  F    0.000000
     7  F    2.176203   0.000000
     8  F    2.176203   2.170572   0.000000
     9  F    2.651282   3.413600   3.413594   0.000000
 Stoichiometry    C3H2F4
 Framework group  C1[X(C3H2F4)]
 Deg. of freedom    21
 Full point group                 C1      NOp   1
 RotChk:  IX=0 Diff= 2.57D-04
 Largest Abelian subgroup         C1      NOp   1
 Largest concise Abelian subgroup C1      NOp   1
                         Standard orientation:                         
 ---------------------------------------------------------------------
 Center     Atomic      Atomic             Coordinates (Angstroms)
 Number     Number       Type             X           Y           Z
 ---------------------------------------------------------------------
      1          6           0        1.681580   -1.150300    0.000000
      2          1           0        1.177654   -2.125637   -0.000001
      3          1           0        2.779319   -1.158030    0.000001
      4          6           0        0.976092   -0.010890    0.000000
      5          6           0       -0.568061   -0.016116   -0.000000
      6          9           0       -1.127528    1.233410   -0.000010
      7          9           0       -1.114469   -0.652823   -1.085281
      8          9           0       -1.114470   -0.652806    1.085290
      9          9           0        1.523729    1.221941    0.000001
 ---------------------------------------------------------------------
 Rotational constants (GHZ):           3.6341785           2.3064809           1.8810633
 Leave Link  202 at Thu Apr  2 13:26:55 2026, MaxMem=  2147483648 cpu:               0.0 elap:               0.0
 (Enter /Users/yarger/Applications/g16/l301.exe)
 Standard basis: VSTO-6G (5D, 7F)
 Ernie: Thresh=  0.10000D-02 Tol=  0.10000D-05 Strict=F.
  NNHCO=     0 NNPyr=     0 NCTC=     0               EPep=         0.000000000
    EC=       159.779788381  ECS=         1.704367809   EG=         0.438280349
   EHC=         0.000000000  EAt=       -85.052729409  AtH=         1.103463817
 EPDDG=         0.000000000  ECC=       161.922436539 EAtT=        86.156193227
 There are    30 symmetry adapted cartesian basis functions of A   symmetry.
 There are    30 symmetry adapted basis functions of A   symmetry.
    30 basis functions,   180 primitive gaussians,    30 cartesian basis functions
    21 alpha electrons       21 beta electrons
       nuclear repulsion energy       248.0786297653 Hartrees.
 IExCor=    0 DFT=F Ex=HF Corr=None ExCW=0 ScaHFX=  1.000000
 ScaDFX=  1.000000  1.000000  1.000000  1.000000 ScalE2=  1.000000  1.000000
 IRadAn=      5 IRanWt=     -1 IRanGd=            0 ICorTp=0 IEmpDi=  4
 Integral buffers will be    131072 words long.
 Regular integral format.
 Two-electron integral symmetry is turned off.
 Leave Link  301 at Thu Apr  2 13:26:55 2026, MaxMem=  2147483648 cpu:               0.2 elap:               0.0
 (Enter /Users/yarger/Applications/g16/l302.exe)
 Do NDO integrals.
 NPDir=0 NMtPBC=     1 NCelOv=     1 NCel=       1 NClECP=     1 NCelD=      1
         NCelK=      1 NCelE2=     1 NClLst=     1 CellRange=     0.0.
 One-electron integrals computed using PRISM.
 NBasis=    30 RedAO= F EigKep=  0.00D+00  NBF=    30
 NBsUse=    30 1.00D-04 EigRej=  0.00D+00 NBFU=    30
 Leave Link  302 at Thu Apr  2 13:26:55 2026, MaxMem=  2147483648 cpu:               0.3 elap:               0.1
 (Enter /Users/yarger/Applications/g16/l303.exe)
 DipDrv:  MaxL=1.
 Leave Link  303 at Thu Apr  2 13:26:55 2026, MaxMem=  2147483648 cpu:               0.1 elap:               0.0
 (Enter /Users/yarger/Applications/g16/l401.exe)
 Initial guess from the checkpoint file:  "2223Tetrafluoropropene_Opt_Freq_AM1_Gaussian16.chk"
 B after Tr=    -0.000000    0.000000    0.000000
         Rot=    1.000000    0.000000    0.000000    0.000069 Ang=   0.01 deg.
 Guess basis will be translated and rotated to current coordinates.
 JPrj=0 DoOrth=T DoCkMO=T.
 Leave Link  401 at Thu Apr  2 13:26:56 2026, MaxMem=  2147483648 cpu:               0.3 elap:               0.0
 (Enter /Users/yarger/Applications/g16/l502.exe)
 Keep J ints in memory in canonical form, NReq=861894.
 FoFCou: FMM=F IPFlag=           0 FMFlag=           0 FMFlg1=           0
         NFxFlg=           0 DoJE=F BraDBF=F KetDBF=F FulRan=T
         wScrn=  0.000000 ICntrl=       600 IOpCl=  2 I1Cent=           0 NGrid=           0
         NMat0=    1 NMatS0=     72 NMatT0=    0 NMatD0=    1 NMtDS0=    0 NMtDT0=    0
 Symmetry not used in FoFCou.
 Two-electron integral symmetry not used.
 Closed shell SCF:
 Using DIIS extrapolation, IDIIS=  1040.
 Overlap will be assumed to be unity.
 NGot=  2147483648 LenX=  2147419503 LenY=  2147418162
 Requested convergence on RMS density matrix=1.00D-08 within 128 cycles.
 Requested convergence on MAX density matrix=1.00D-06.
 Requested convergence on             energy=1.00D-06.
 No special actions if energy rises.

 Cycle   1  Pass 1  IDiag  1:
 E=-0.295202806303394    
 DIIS: error= 4.12D-05 at cycle   1 NSaved=   1.
 NSaved= 1 IEnMin= 1 EnMin=-0.295202806303394     IErMin= 1 ErrMin= 4.12D-05
 ErrMax= 4.12D-05  0.00D+00 EMaxC= 1.00D-01 BMatC= 8.64D-08 BMatP= 8.64D-08
 IDIUse=1 WtCom= 1.00D+00 WtEn= 0.00D+00
 Coeff-Com:  0.100D+01
 Coeff:      0.100D+01
 RMSDP=1.41D-05 MaxDP=6.35D-05              OVMax= 0.00D+00

 Cycle   2  Pass 1  IDiag  3:
 E=-0.295203024853379     Delta-E=       -0.000000218550 Rises=F Damp=F
 DIIS: error= 1.29D-05 at cycle   2 NSaved=   2.
 NSaved= 2 IEnMin= 2 EnMin=-0.295203024853379     IErMin= 2 ErrMin= 1.29D-05
 ErrMax= 1.29D-05  0.00D+00 EMaxC= 1.00D-01 BMatC= 9.35D-09 BMatP= 8.64D-08
 IDIUse=1 WtCom= 1.00D+00 WtEn= 0.00D+00
 Coeff-Com: -0.361D+00 0.136D+01
 Coeff:     -0.361D+00 0.136D+01
 Gap=     0.402 Goal=   None    Shift=    0.000
 RMSDP=7.93D-06 MaxDP=3.69D-05 DE=-2.19D-07 OVMax= 6.05D-05

 Cycle   3  Pass 1  IDiag  3:
 E=-0.295203064451783     Delta-E=       -0.000000039598 Rises=F Damp=F
 DIIS: error= 4.52D-06 at cycle   3 NSaved=   3.
 NSaved= 3 IEnMin= 3 EnMin=-0.295203064451783     IErMin= 3 ErrMin= 4.52D-06
 ErrMax= 4.52D-06  0.00D+00 EMaxC= 1.00D-01 BMatC= 7.24D-10 BMatP= 9.35D-09
 IDIUse=1 WtCom= 1.00D+00 WtEn= 0.00D+00
 Coeff-Com:  0.170D+00-0.803D+00 0.163D+01
 Coeff:      0.170D+00-0.803D+00 0.163D+01
 Gap=     0.402 Goal=   None    Shift=    0.000
 RMSDP=3.32D-06 MaxDP=1.81D-05 DE=-3.96D-08 OVMax= 2.84D-05

 Cycle   4  Pass 1  IDiag  3:
 E=-0.295203068797918     Delta-E=       -0.000000004346 Rises=F Damp=F
 DIIS: error= 8.72D-07 at cycle   4 NSaved=   4.
 NSaved= 4 IEnMin= 4 EnMin=-0.295203068797918     IErMin= 4 ErrMin= 8.72D-07
 ErrMax= 8.72D-07  0.00D+00 EMaxC= 1.00D-01 BMatC= 3.94D-11 BMatP= 7.24D-10
 IDIUse=1 WtCom= 1.00D+00 WtEn= 0.00D+00
 Coeff-Com: -0.108D+00 0.530D+00-0.123D+01 0.180D+01
 Coeff:     -0.108D+00 0.530D+00-0.123D+01 0.180D+01
 Gap=     0.402 Goal=   None    Shift=    0.000
 RMSDP=9.64D-07 MaxDP=5.28D-06 DE=-4.35D-09 OVMax= 8.27D-06

 Cycle   5  Pass 1  IDiag  3:
 E=-0.295203069072215     Delta-E=       -0.000000000274 Rises=F Damp=F
 DIIS: error= 9.76D-08 at cycle   5 NSaved=   5.
 NSaved= 5 IEnMin= 5 EnMin=-0.295203069072215     IErMin= 5 ErrMin= 9.76D-08
 ErrMax= 9.76D-08  0.00D+00 EMaxC= 1.00D-01 BMatC= 9.21D-13 BMatP= 3.94D-11
 IDIUse=1 WtCom= 1.00D+00 WtEn= 0.00D+00
 Coeff-Com:  0.428D-01-0.211D+00 0.494D+00-0.810D+00 0.148D+01
 Coeff:      0.428D-01-0.211D+00 0.494D+00-0.810D+00 0.148D+01
 Gap=     0.402 Goal=   None    Shift=    0.000
 RMSDP=1.26D-07 MaxDP=6.28D-07 DE=-2.74D-10 OVMax= 1.30D-06

 Cycle   6  Pass 1  IDiag  3:
 E=-0.295203069077473     Delta-E=       -0.000000000005 Rises=F Damp=F
 DIIS: error= 2.19D-08 at cycle   6 NSaved=   6.
 NSaved= 6 IEnMin= 6 EnMin=-0.295203069077473     IErMin= 6 ErrMin= 2.19D-08
 ErrMax= 2.19D-08  0.00D+00 EMaxC= 1.00D-01 BMatC= 2.92D-14 BMatP= 9.21D-13
 IDIUse=1 WtCom= 1.00D+00 WtEn= 0.00D+00
 Coeff-Com: -0.116D-01 0.571D-01-0.134D+00 0.227D+00-0.527D+00 0.139D+01
 Coeff:     -0.116D-01 0.571D-01-0.134D+00 0.227D+00-0.527D+00 0.139D+01
 Gap=     0.402 Goal=   None    Shift=    0.000
 RMSDP=1.98D-08 MaxDP=1.06D-07 DE=-5.26D-12 OVMax= 2.02D-07

 Cycle   7  Pass 1  IDiag  3:
 E=-0.295203069077530     Delta-E=       -0.000000000000 Rises=F Damp=F
 DIIS: error= 5.30D-09 at cycle   7 NSaved=   7.
 NSaved= 7 IEnMin= 7 EnMin=-0.295203069077530     IErMin= 7 ErrMin= 5.30D-09
 ErrMax= 5.30D-09  0.00D+00 EMaxC= 1.00D-01 BMatC= 1.48D-15 BMatP= 2.92D-14
 IDIUse=1 WtCom= 1.00D+00 WtEn= 0.00D+00
 Coeff-Com:  0.400D-02-0.197D-01 0.464D-01-0.791D-01 0.196D+00-0.665D+00
 Coeff-Com:  0.152D+01
 Coeff:      0.400D-02-0.197D-01 0.464D-01-0.791D-01 0.196D+00-0.665D+00
 Coeff:      0.152D+01
 Gap=     0.402 Goal=   None    Shift=    0.000
 RMSDP=4.76D-09 MaxDP=2.63D-08 DE=-5.68D-14 OVMax= 3.55D-08

 Cycle   8  Pass 2  IDiag  1:
 SCF Done:  E(RAM1) = -0.295203069078     A.U. after    8 cycles
            NFock=  7  Conv=0.48D-08     -V/T= 0.9979
 KE=-1.431933483341D+02 PE=-3.161624834759D+02 EE= 2.109819989756D+02
 Leave Link  502 at Thu Apr  2 13:26:56 2026, MaxMem=  2147483648 cpu:               0.2 elap:               0.1
 (Enter /Users/yarger/Applications/g16/l701.exe)
 ... and contract with generalized density number  0.
 Compute integral first derivatives.
 Leave Link  701 at Thu Apr  2 13:26:56 2026, MaxMem=  2147483648 cpu:               0.3 elap:               0.1
 (Enter /Users/yarger/Applications/g16/l702.exe)
 L702 exits ... SP integral derivatives will be done elsewhere.
 Leave Link  702 at Thu Apr  2 13:26:56 2026, MaxMem=  2147483648 cpu:               0.1 elap:               0.0
 (Enter /Users/yarger/Applications/g16/l703.exe)
 Integral derivatives from FoFJK, PRISM(SPDF).
 Compute integral first derivatives, UseDBF=F ICtDFT=           0.
 Calling FoFJK, ICntrl=      2127 FMM=F ISym2X=0 I1Cent= 0 IOpClX= 0 NMat=1 NMatS=1 NMatT=0.
 FoFJK:  IHMeth= 8 ICntrl=    2127 DoSepK=F KAlg= 0 I1Cent=           0 FoldK=F
 IRaf=         0 NMat=       1 IRICut=       1 DoRegI=T DoRafI=F ISym2E= 0 IDoP0=3 IntGTp=3.
 FoFCou: FMM=F IPFlag=           0 FMFlag=      100000 FMFlg1=         800
         NFxFlg=           0 DoJE=F BraDBF=F KetDBF=F FulRan=T
         wScrn=  0.000000 ICntrl=      2127 IOpCl=  0 I1Cent=           0 NGrid=           0
         NMat0=    1 NMatS0=      1 NMatT0=    0 NMatD0=    1 NMtDS0=    0 NMtDT0=    0
 Symmetry not used in FoFCou.
 Leave Link  703 at Thu Apr  2 13:26:56 2026, MaxMem=  2147483648 cpu:               0.2 elap:               0.0
 (Enter /Users/yarger/Applications/g16/l716.exe)
 Dipole        = 7.66433392D-01-6.26547386D-01-6.52894168D-08
 ***** Axes restored to original set *****
 -------------------------------------------------------------------
 Center     Atomic                   Forces (Hartrees/Bohr)
 Number     Number              X              Y              Z
 -------------------------------------------------------------------
      1        6           0.000031539    0.000025069   -0.000000007
      2        1          -0.000002338    0.000016259    0.000000007
      3        1           0.000005295    0.000010366    0.000000007
      4        6          -0.000031876   -0.000006262   -0.000000019
      5        6          -0.000047096   -0.000062302    0.000000009
      6        9           0.000024602    0.000045344    0.000000001
      7        9           0.000015758   -0.000002803   -0.000007675
      8        9           0.000015757   -0.000002805    0.000007672
      9        9          -0.000011641   -0.000022866    0.000000006
 -------------------------------------------------------------------
 Cartesian Forces:  Max     0.000062302 RMS     0.000022055
 Leave Link  716 at Thu Apr  2 13:26:56 2026, MaxMem=  2147483648 cpu:               0.1 elap:               0.0
 (Enter /Users/yarger/Applications/g16/l103.exe)

 GradGradGradGradGradGradGradGradGradGradGradGradGradGradGradGradGradGrad
 Berny optimization.
 Using GEDIIS/GDIIS optimizer.
 FormGI is forming the generalized inverse of G from B-inverse, IUseBI=4.
 Internal  Forces:  Max     0.000062140 RMS     0.000018330
 Search for a local minimum.
 Step number   6 out of a maximum of   40
 All quantities printed in internal units (Hartrees-Bohrs-Radians)
 RMS Force = .18330D-04 SwitMx=.10000D-02 MixMth= 2
 Mixed Optimization -- En-DIIS/RFO-DIIS
 Swapping is turned off.
 Update second derivatives using D2CorX and points    1    2    3    4    5
                                                      6
 DE= -2.08D-07 DEPred=-2.14D-07 R= 9.71D-01
 Trust test= 9.71D-01 RLast= 1.13D-03 DXMaxT set to 5.05D-01
 ITU=  0  1  1  1  1  0
     Eigenvalues ---    0.00610   0.01702   0.03046   0.03046   0.10035
     Eigenvalues ---    0.10054   0.11281   0.15882   0.21655   0.23851
     Eigenvalues ---    0.25000   0.25972   0.26143   0.35044   0.35835
     Eigenvalues ---    0.44873   0.55939   0.56547   0.58804   0.67339
     Eigenvalues ---    0.79886
 En-DIIS/RFO-DIIS/Sim-DIIS IScMMF=       -3 using points:     6    5    4
 RFO step:  Lambda=-2.02059969D-08.
 NNeg= 0 NGDIIS= 3 SimSw=  2.50D-01 Rises=F DC= -2.08D-07 SmlDif=  1.00D-05
 NRisDI= 0 DoIntr=F SqrtH=F CThrHd= 10.0 CDAdj=  3.0
 RMS Error=  0.4936699416D-04 NUsed= 3 OKEnD=F EnDIS=F
 InvSVX:  RCond= 1.69D-07 Info=           0 Equed=N FErr=  1.47D-15 BErr=  9.01D-17
 DidBck=F Rises=F RFO-DIIS coefs:    1.04302   -0.04354    0.00052
 Iteration  1 RMS(Cart)=  0.00007128 RMS(Int)=  0.00000000
 Iteration  2 RMS(Cart)=  0.00000000 RMS(Int)=  0.00000000
 ITry= 1 IFail=0 DXMaxC= 1.93D-04 DCOld= 1.00D+10 DXMaxT= 5.05D-01 DXLimC= 3.00D+00 Rises=F
 Variable       Old X    -DE/DX   Delta X   Delta X   Delta X     New X
                                 (Linear)    (Quad)   (Total)
    R1        2.07459   0.00002   0.00000   0.00004   0.00005   2.07464
    R2        2.07448   0.00000  -0.00001   0.00001   0.00000   2.07448
    R3        2.53249   0.00006  -0.00001   0.00010   0.00010   2.53259
    R4        2.91804  -0.00001   0.00003  -0.00001   0.00002   2.91806
    R5        2.54923   0.00002   0.00001   0.00003   0.00004   2.54927
    R6        2.58715  -0.00005  -0.00000  -0.00009  -0.00009   2.58706
    R7        2.59230  -0.00001   0.00001  -0.00002  -0.00001   2.59229
    R8        2.59230  -0.00001   0.00001  -0.00002  -0.00001   2.59229
    A1        2.04065  -0.00001   0.00001  -0.00006  -0.00006   2.04059
    A2        2.11030  -0.00000  -0.00001  -0.00001  -0.00002   2.11029
    A3        2.13223   0.00001   0.00000   0.00007   0.00007   2.13231
    A4        2.12181   0.00001  -0.00000   0.00002   0.00002   2.12183
    A5        2.16917   0.00002  -0.00001   0.00008   0.00007   2.16924
    A6        1.99221  -0.00003   0.00001  -0.00010  -0.00009   1.99212
    A7        1.98839   0.00001   0.00000   0.00004   0.00005   1.98843
    A8        1.98219  -0.00002  -0.00001  -0.00007  -0.00008   1.98211
    A9        1.98219  -0.00002  -0.00001  -0.00007  -0.00008   1.98211
   A10        1.83469   0.00001   0.00001   0.00005   0.00005   1.83474
   A11        1.83469   0.00001   0.00001   0.00005   0.00005   1.83474
   A12        1.82537   0.00001   0.00001   0.00002   0.00003   1.82540
    D1        0.00000   0.00000  -0.00000  -0.00000  -0.00000   0.00000
    D2        3.14159   0.00000  -0.00000   0.00000   0.00000  -3.14159
    D3       -3.14159  -0.00000   0.00000  -0.00000  -0.00000   3.14159
    D4        0.00000  -0.00000  -0.00000   0.00000   0.00000   0.00000
    D5       -3.14158   0.00000   0.00000   0.00000   0.00000  -3.14158
    D6       -1.04150   0.00000   0.00000   0.00004   0.00004  -1.04146
    D7        1.04152  -0.00000  -0.00000  -0.00004  -0.00004   1.04148
    D8        0.00001  -0.00000   0.00000   0.00000   0.00000   0.00001
    D9        2.10009   0.00000   0.00000   0.00004   0.00004   2.10013
   D10       -2.10007  -0.00000  -0.00000  -0.00004  -0.00004  -2.10011
         Item               Value     Threshold  Converged?
 Maximum Force            0.000062     0.000015     NO 
 RMS     Force            0.000018     0.000010     NO 
 Maximum Displacement     0.000193     0.000060     NO 
 RMS     Displacement     0.000071     0.000040     NO 
 Predicted change in Energy=-1.144890D-08
 Lowest energy point so far.  Saving SCF results.
 GradGradGradGradGradGradGradGradGradGradGradGradGradGradGradGradGradGrad

 Leave Link  103 at Thu Apr  2 13:26:56 2026, MaxMem=  2147483648 cpu:               0.1 elap:               0.0
 (Enter /Users/yarger/Applications/g16/l202.exe)
                          Input orientation:                          
 ---------------------------------------------------------------------
 Center     Atomic      Atomic             Coordinates (Angstroms)
 Number     Number       Type             X           Y           Z
 ---------------------------------------------------------------------
      1          6           0        1.745778    1.067015   -0.000000
      2          1           0        1.290232    2.065892    0.000000
      3          1           0        2.842581    1.021018   -0.000001
      4          6           0        0.985268   -0.036492   -0.000001
      5          6           0       -0.556785    0.044374   -0.000000
      6          9           0       -1.176828   -1.176174    0.000010
      7          9           0       -1.071236    0.707142    1.085290
      8          9           0       -1.071238    0.707125   -1.085300
      9          9           0        1.471747   -1.294735   -0.000001
 ---------------------------------------------------------------------
                    Distance matrix (angstroms):
                    1          2          3          4          5
     1  C    0.000000
     2  H    1.097851   0.000000
     3  H    1.097767   1.871243   0.000000
     4  C    1.340188   2.124386   2.137274   0.000000
     5  C    2.519443   2.738249   3.536881   1.544172   0.000000
     6  F    3.684227   4.073988   4.580754   2.444082   1.369011
     7  F    3.040220   2.932676   4.073616   2.441323   1.371778
     8  F    3.040226   2.932689   4.073621   2.441323   1.371778
     9  F    2.377595   3.365525   2.691078   1.349013   2.430669
                    6          7          8          9
     6  F    0.000000
     7  F    2.176203   0.000000
     8  F    2.176203   2.170590   0.000000
     9  F    2.651228   3.413522   3.413516   0.000000
 Stoichiometry    C3H2F4
 Framework group  C1[X(C3H2F4)]
 Deg. of freedom    21
 Full point group                 C1      NOp   1
 RotChk:  IX=0 Diff= 6.44D-05
 Largest Abelian subgroup         C1      NOp   1
 Largest concise Abelian subgroup C1      NOp   1
                         Standard orientation:                         
 ---------------------------------------------------------------------
 Center     Atomic      Atomic             Coordinates (Angstroms)
 Number     Number       Type             X           Y           Z
 ---------------------------------------------------------------------
      1          6           0        1.681646   -1.150261    0.000000
      2          1           0        1.177737   -2.125634   -0.000001
      3          1           0        2.779386   -1.158023    0.000000
      4          6           0        0.976080   -0.010840    0.000000
      5          6           0       -0.568083   -0.016104   -0.000000
      6          9           0       -1.127620    1.233339   -0.000010
      7          9           0       -1.114369   -0.652888   -1.085290
      8          9           0       -1.114370   -0.652871    1.085299
      9          9           0        1.523584    1.222074    0.000001
 ---------------------------------------------------------------------
 Rotational constants (GHZ):           3.6340356           2.3065732           1.8810968
 Leave Link  202 at Thu Apr  2 13:26:56 2026, MaxMem=  2147483648 cpu:               0.0 elap:               0.0
 (Enter /Users/yarger/Applications/g16/l301.exe)
 Standard basis: VSTO-6G (5D, 7F)
 Ernie: Thresh=  0.10000D-02 Tol=  0.10000D-05 Strict=F.
  NNHCO=     0 NNPyr=     0 NCTC=     0               EPep=         0.000000000
    EC=       159.780155786  ECS=         1.704334687   EG=         0.438293411
   EHC=         0.000000000  EAt=       -85.052729409  AtH=         1.103463817
 EPDDG=         0.000000000  ECC=       161.922783884 EAtT=        86.156193227
 There are    30 symmetry adapted cartesian basis functions of A   symmetry.
 There are    30 symmetry adapted basis functions of A   symmetry.
    30 basis functions,   180 primitive gaussians,    30 cartesian basis functions
    21 alpha electrons       21 beta electrons
       nuclear repulsion energy       248.0789771108 Hartrees.
 IExCor=    0 DFT=F Ex=HF Corr=None ExCW=0 ScaHFX=  1.000000
 ScaDFX=  1.000000  1.000000  1.000000  1.000000 ScalE2=  1.000000  1.000000
 IRadAn=      5 IRanWt=     -1 IRanGd=            0 ICorTp=0 IEmpDi=  4
 Integral buffers will be    131072 words long.
 Regular integral format.
 Two-electron integral symmetry is turned off.
 Leave Link  301 at Thu Apr  2 13:26:56 2026, MaxMem=  2147483648 cpu:               0.2 elap:               0.0
 (Enter /Users/yarger/Applications/g16/l302.exe)
 Do NDO integrals.
 NPDir=0 NMtPBC=     1 NCelOv=     1 NCel=       1 NClECP=     1 NCelD=      1
         NCelK=      1 NCelE2=     1 NClLst=     1 CellRange=     0.0.
 One-electron integrals computed using PRISM.
 NBasis=    30 RedAO= F EigKep=  0.00D+00  NBF=    30
 NBsUse=    30 1.00D-04 EigRej=  0.00D+00 NBFU=    30
 Leave Link  302 at Thu Apr  2 13:26:56 2026, MaxMem=  2147483648 cpu:               0.3 elap:               0.1
 (Enter /Users/yarger/Applications/g16/l303.exe)
 DipDrv:  MaxL=1.
 Leave Link  303 at Thu Apr  2 13:26:56 2026, MaxMem=  2147483648 cpu:               0.1 elap:               0.0
 (Enter /Users/yarger/Applications/g16/l401.exe)
 Initial guess from the checkpoint file:  "2223Tetrafluoropropene_Opt_Freq_AM1_Gaussian16.chk"
 B after Tr=     0.000000   -0.000000   -0.000000
         Rot=    1.000000    0.000000    0.000000   -0.000033 Ang=   0.00 deg.
 Guess basis will be translated and rotated to current coordinates.
 JPrj=0 DoOrth=T DoCkMO=T.
 Leave Link  401 at Thu Apr  2 13:26:56 2026, MaxMem=  2147483648 cpu:               0.3 elap:               0.0
 (Enter /Users/yarger/Applications/g16/l502.exe)
 Keep J ints in memory in canonical form, NReq=861894.
 FoFCou: FMM=F IPFlag=           0 FMFlag=           0 FMFlg1=           0
         NFxFlg=           0 DoJE=F BraDBF=F KetDBF=F FulRan=T
         wScrn=  0.000000 ICntrl=       600 IOpCl=  2 I1Cent=           0 NGrid=           0
         NMat0=    1 NMatS0=     72 NMatT0=    0 NMatD0=    1 NMtDS0=    0 NMtDT0=    0
 Symmetry not used in FoFCou.
 Two-electron integral symmetry not used.
 Closed shell SCF:
 Using DIIS extrapolation, IDIIS=  1040.
 Overlap will be assumed to be unity.
 NGot=  2147483648 LenX=  2147419503 LenY=  2147418162
 Requested convergence on RMS density matrix=1.00D-08 within 128 cycles.
 Requested convergence on MAX density matrix=1.00D-06.
 Requested convergence on             energy=1.00D-06.
 No special actions if energy rises.

 Cycle   1  Pass 1  IDiag  1:
 E=-0.295203068563836    
 DIIS: error= 7.94D-06 at cycle   1 NSaved=   1.
 NSaved= 1 IEnMin= 1 EnMin=-0.295203068563836     IErMin= 1 ErrMin= 7.94D-06
 ErrMax= 7.94D-06  0.00D+00 EMaxC= 1.00D-01 BMatC= 3.59D-09 BMatP= 3.59D-09
 IDIUse=1 WtCom= 1.00D+00 WtEn= 0.00D+00
 Coeff-Com:  0.100D+01
 Coeff:      0.100D+01
 RMSDP=2.81D-06 MaxDP=1.32D-05              OVMax= 0.00D+00

 Cycle   2  Pass 1  IDiag  3:
 E=-0.295203077256872     Delta-E=       -0.000000008693 Rises=F Damp=F
 DIIS: error= 2.36D-06 at cycle   2 NSaved=   2.
 NSaved= 2 IEnMin= 2 EnMin=-0.295203077256872     IErMin= 2 ErrMin= 2.36D-06
 ErrMax= 2.36D-06  0.00D+00 EMaxC= 1.00D-01 BMatC= 3.57D-10 BMatP= 3.59D-09
 IDIUse=1 WtCom= 1.00D+00 WtEn= 0.00D+00
 Coeff-Com: -0.309D+00 0.131D+01
 Coeff:     -0.309D+00 0.131D+01
 Gap=     0.402 Goal=   None    Shift=    0.000
 RMSDP=1.52D-06 MaxDP=7.44D-06 DE=-8.69D-09 OVMax= 1.48D-05

 Cycle   3  Pass 1  IDiag  3:
 E=-0.295203078814780     Delta-E=       -0.000000001558 Rises=F Damp=F
 DIIS: error= 9.68D-07 at cycle   3 NSaved=   3.
 NSaved= 3 IEnMin= 3 EnMin=-0.295203078814780     IErMin= 3 ErrMin= 9.68D-07
 ErrMax= 9.68D-07  0.00D+00 EMaxC= 1.00D-01 BMatC= 3.97D-11 BMatP= 3.57D-10
 IDIUse=1 WtCom= 1.00D+00 WtEn= 0.00D+00
 Coeff-Com:  0.181D+00-0.966D+00 0.179D+01
 Coeff:      0.181D+00-0.966D+00 0.179D+01
 Gap=     0.402 Goal=   None    Shift=    0.000
 RMSDP=8.36D-07 MaxDP=4.59D-06 DE=-1.56D-09 OVMax= 8.16D-06

 Cycle   4  Pass 1  IDiag  3:
 E=-0.295203079062333     Delta-E=       -0.000000000248 Rises=F Damp=F
 DIIS: error= 1.41D-07 at cycle   4 NSaved=   4.
 NSaved= 4 IEnMin= 4 EnMin=-0.295203079062333     IErMin= 4 ErrMin= 1.41D-07
 ErrMax= 1.41D-07  0.00D+00 EMaxC= 1.00D-01 BMatC= 1.26D-12 BMatP= 3.97D-11
 IDIUse=1 WtCom= 1.00D+00 WtEn= 0.00D+00
 Coeff-Com: -0.886D-01 0.488D+00-0.101D+01 0.161D+01
 Coeff:     -0.886D-01 0.488D+00-0.101D+01 0.161D+01
 Gap=     0.402 Goal=   None    Shift=    0.000
 RMSDP=1.54D-07 MaxDP=7.76D-07 DE=-2.48D-10 OVMax= 1.32D-06

 Cycle   5  Pass 1  IDiag  3:
 E=-0.295203079070490     Delta-E=       -0.000000000008 Rises=F Damp=F
 DIIS: error= 3.93D-08 at cycle   5 NSaved=   5.
 NSaved= 5 IEnMin= 5 EnMin=-0.295203079070490     IErMin= 5 ErrMin= 3.93D-08
 ErrMax= 3.93D-08  0.00D+00 EMaxC= 1.00D-01 BMatC= 3.98D-14 BMatP= 1.26D-12
 IDIUse=1 WtCom= 1.00D+00 WtEn= 0.00D+00
 Coeff-Com:  0.322D-01-0.177D+00 0.370D+00-0.686D+00 0.146D+01
 Coeff:      0.322D-01-0.177D+00 0.370D+00-0.686D+00 0.146D+01
 Gap=     0.402 Goal=   None    Shift=    0.000
 RMSDP=2.43D-08 MaxDP=1.36D-07 DE=-8.16D-12 OVMax= 1.79D-07

 Cycle   6  Pass 1  IDiag  3:
 E=-0.295203079070348     Delta-E=        0.000000000000 Rises=F Damp=F
 DIIS: error= 6.80D-09 at cycle   6 NSaved=   6.
 NSaved= 6 IEnMin= 5 EnMin=-0.295203079070490     IErMin= 6 ErrMin= 6.80D-09
 ErrMax= 6.80D-09  0.00D+00 EMaxC= 1.00D-01 BMatC= 1.90D-15 BMatP= 3.98D-14
 IDIUse=1 WtCom= 1.00D+00 WtEn= 0.00D+00
 Coeff-Com: -0.111D-01 0.610D-01-0.127D+00 0.245D+00-0.660D+00 0.149D+01
 Coeff:     -0.111D-01 0.610D-01-0.127D+00 0.245D+00-0.660D+00 0.149D+01
 Gap=     0.402 Goal=   None    Shift=    0.000
 RMSDP=5.32D-09 MaxDP=3.32D-08 DE= 1.42D-13 OVMax= 4.03D-08

 Cycle   7  Pass 2  IDiag  1:
 SCF Done:  E(RAM1) = -0.295203079070     A.U. after    7 cycles
            NFock=  6  Conv=0.53D-08     -V/T= 0.9979
 KE=-1.431933438644D+02 PE=-3.161632335880D+02 EE= 2.109823972625D+02
 Leave Link  502 at Thu Apr  2 13:26:56 2026, MaxMem=  2147483648 cpu:               0.2 elap:               0.0
 (Enter /Users/yarger/Applications/g16/l701.exe)
 ... and contract with generalized density number  0.
 Compute integral first derivatives.
 Leave Link  701 at Thu Apr  2 13:26:56 2026, MaxMem=  2147483648 cpu:               0.2 elap:               0.1
 (Enter /Users/yarger/Applications/g16/l702.exe)
 L702 exits ... SP integral derivatives will be done elsewhere.
 Leave Link  702 at Thu Apr  2 13:26:56 2026, MaxMem=  2147483648 cpu:               0.1 elap:               0.0
 (Enter /Users/yarger/Applications/g16/l703.exe)
 Integral derivatives from FoFJK, PRISM(SPDF).
 Compute integral first derivatives, UseDBF=F ICtDFT=           0.
 Calling FoFJK, ICntrl=      2127 FMM=F ISym2X=0 I1Cent= 0 IOpClX= 0 NMat=1 NMatS=1 NMatT=0.
 FoFJK:  IHMeth= 8 ICntrl=    2127 DoSepK=F KAlg= 0 I1Cent=           0 FoldK=F
 IRaf=         0 NMat=       1 IRICut=       1 DoRegI=T DoRafI=F ISym2E= 0 IDoP0=3 IntGTp=3.
 FoFCou: FMM=F IPFlag=           0 FMFlag=      100000 FMFlg1=         800
         NFxFlg=           0 DoJE=F BraDBF=F KetDBF=F FulRan=T
         wScrn=  0.000000 ICntrl=      2127 IOpCl=  0 I1Cent=           0 NGrid=           0
         NMat0=    1 NMatS0=      1 NMatT0=    0 NMatD0=    1 NMtDS0=    0 NMtDT0=    0
 Symmetry not used in FoFCou.
 Leave Link  703 at Thu Apr  2 13:26:56 2026, MaxMem=  2147483648 cpu:               0.2 elap:               0.0
 (Enter /Users/yarger/Applications/g16/l716.exe)
 Dipole        = 7.66365250D-01-6.26478865D-01-2.02000948D-07
 ***** Axes restored to original set *****
 -------------------------------------------------------------------
 Center     Atomic                   Forces (Hartrees/Bohr)
 Number     Number              X              Y              Z
 -------------------------------------------------------------------
      1        6          -0.000014293   -0.000028187    0.000000008
      2        1           0.000000143   -0.000001444   -0.000000005
      3        1          -0.000000392    0.000001914   -0.000000006
      4        6           0.000016774    0.000013543    0.000000021
      5        6           0.000000169   -0.000008192   -0.000000005
      6        9           0.000003509    0.000006660    0.000000001
      7        9          -0.000000380    0.000000296   -0.000000689
      8        9          -0.000000380    0.000000294    0.000000686
      9        9          -0.000005151    0.000015116   -0.000000011
 -------------------------------------------------------------------
 Cartesian Forces:  Max     0.000028187 RMS     0.000008277
 Leave Link  716 at Thu Apr  2 13:26:56 2026, MaxMem=  2147483648 cpu:               0.1 elap:               0.0
 (Enter /Users/yarger/Applications/g16/l103.exe)

 GradGradGradGradGradGradGradGradGradGradGradGradGradGradGradGradGradGrad
 Berny optimization.
 Using GEDIIS/GDIIS optimizer.
 FormGI is forming the generalized inverse of G from B-inverse, IUseBI=4.
 Internal  Forces:  Max     0.000031074 RMS     0.000006621
 Search for a local minimum.
 Step number   7 out of a maximum of   40
 All quantities printed in internal units (Hartrees-Bohrs-Radians)
 RMS Force = .66209D-05 SwitMx=.10000D-02 MixMth= 2
 Mixed Optimization -- En-DIIS/RFO-DIIS
 Swapping is turned off.
 Update second derivatives using D2CorX and points    1    2    3    4    5
                                                      6    7
 DE= -9.99D-09 DEPred=-1.14D-08 R= 8.73D-01
 Trust test= 8.73D-01 RLast= 2.71D-04 DXMaxT set to 5.05D-01
 ITU=  0  0  1  1  1  1  0
     Eigenvalues ---    0.00610   0.01703   0.03046   0.03046   0.09910
     Eigenvalues ---    0.10054   0.11256   0.15146   0.21799   0.23473
     Eigenvalues ---    0.25000   0.25830   0.26187   0.35048   0.35965
     Eigenvalues ---    0.45200   0.54151   0.56547   0.59175   0.74777
     Eigenvalues ---    0.89299
 En-DIIS/RFO-DIIS/Sim-DIIS IScMMF=       -3 using points:     7    6    5    4
 RFO step:  Lambda=-1.53267959D-09.
 NNeg= 0 NGDIIS= 4 SimSw=  2.50D-01 Rises=F DC= -9.99D-09 SmlDif=  1.00D-05
 NRisDI= 0 DoIntr=F SqrtH=F CThrHd= 10.0 CDAdj=  3.0
 RMS Error=  0.9656342175D-05 NUsed= 4 OKEnD=F EnDIS=F
 InvSVX:  RCond= 7.55D-09 Info=           0 Equed=N FErr=  1.57D-15 BErr=  1.11D-16
 DIIS inversion failure, remove point   4.
 InvSVX:  RCond= 1.03D-08 Info=           0 Equed=N FErr=  1.42D-15 BErr=  9.53D-17
 DIIS inversion failure, remove point   3.
 InvSVX:  RCond= 1.83D-08 Info=           0 Equed=N FErr=  1.04D-15 BErr=  3.09D-17
 DIIS inversion failure, remove point   2.
 Use linear search instead of GDIIS.
 RFO step:  Lambda= 0.00000000D+00 EMin= 6.10148446D-03
 Quartic linear search produced a step of -0.11348.
 Iteration  1 RMS(Cart)=  0.00000987 RMS(Int)=  0.00000000
 Iteration  2 RMS(Cart)=  0.00000000 RMS(Int)=  0.00000000
 ITry= 1 IFail=0 DXMaxC= 2.91D-05 DCOld= 1.00D+10 DXMaxT= 5.05D-01 DXLimC= 3.00D+00 Rises=F
 Variable       Old X    -DE/DX   Delta X   Delta X   Delta X     New X
                                 (Linear)    (Quad)   (Total)
    R1        2.07464  -0.00000  -0.00001   0.00000  -0.00000   2.07464
    R2        2.07448  -0.00000  -0.00000   0.00000   0.00000   2.07448
    R3        2.53259  -0.00003  -0.00001  -0.00002  -0.00004   2.53255
    R4        2.91806  -0.00000  -0.00000   0.00000  -0.00000   2.91806
    R5        2.54927  -0.00002  -0.00000  -0.00001  -0.00002   2.54925
    R6        2.58706  -0.00001   0.00001  -0.00002  -0.00001   2.58704
    R7        2.59229  -0.00000   0.00000   0.00000   0.00000   2.59229
    R8        2.59229  -0.00000   0.00000   0.00000   0.00000   2.59229
    A1        2.04059  -0.00000   0.00001  -0.00002  -0.00001   2.04058
    A2        2.11029  -0.00000   0.00000  -0.00001  -0.00001   2.11028
    A3        2.13231   0.00000  -0.00001   0.00003   0.00002   2.13233
    A4        2.12183   0.00000  -0.00000   0.00002   0.00001   2.12184
    A5        2.16924  -0.00000  -0.00001   0.00000  -0.00001   2.16923
    A6        1.99212  -0.00000   0.00001  -0.00002  -0.00001   1.99211
    A7        1.98843  -0.00000  -0.00001   0.00001   0.00000   1.98844
    A8        1.98211   0.00000   0.00001  -0.00001  -0.00000   1.98211
    A9        1.98211   0.00000   0.00001  -0.00001  -0.00000   1.98211
   A10        1.83474  -0.00000  -0.00001   0.00001   0.00000   1.83474
   A11        1.83474  -0.00000  -0.00001   0.00001   0.00000   1.83474
   A12        1.82540  -0.00000  -0.00000  -0.00000  -0.00000   1.82540
    D1        0.00000  -0.00000   0.00000   0.00000   0.00000   0.00000
    D2       -3.14159  -0.00000  -0.00000  -0.00000  -0.00000  -3.14159
    D3        3.14159   0.00000   0.00000   0.00000   0.00000  -3.14159
    D4        0.00000   0.00000  -0.00000  -0.00000  -0.00000  -0.00000
    D5       -3.14158  -0.00000  -0.00000   0.00000   0.00000  -3.14158
    D6       -1.04146   0.00000  -0.00000   0.00001   0.00000  -1.04146
    D7        1.04148  -0.00000   0.00000  -0.00001  -0.00000   1.04148
    D8        0.00001   0.00000  -0.00000   0.00000   0.00000   0.00001
    D9        2.10013   0.00000  -0.00000   0.00001   0.00000   2.10013
   D10       -2.10011  -0.00000   0.00000  -0.00001  -0.00000  -2.10012
         Item               Value     Threshold  Converged?
 Maximum Force            0.000031     0.000015     NO 
 RMS     Force            0.000007     0.000010     YES
 Maximum Displacement     0.000029     0.000060     YES
 RMS     Displacement     0.000010     0.000040     YES
 Predicted change in Energy=-8.203543D-10
 Lowest energy point so far.  Saving SCF results.
 GradGradGradGradGradGradGradGradGradGradGradGradGradGradGradGradGradGrad

 Leave Link  103 at Thu Apr  2 13:26:56 2026, MaxMem=  2147483648 cpu:               0.1 elap:               0.0
 (Enter /Users/yarger/Applications/g16/l202.exe)
                          Input orientation:                          
 ---------------------------------------------------------------------
 Center     Atomic      Atomic             Coordinates (Angstroms)
 Number     Number       Type             X           Y           Z
 ---------------------------------------------------------------------
      1          6           0        1.745777    1.067002   -0.000000
      2          1           0        1.290230    2.065877    0.000001
      3          1           0        2.842581    1.021020   -0.000001
      4          6           0        0.985269   -0.036484   -0.000001
      5          6           0       -0.556784    0.044373   -0.000000
      6          9           0       -1.176819   -1.176171    0.000010
      7          9           0       -1.071238    0.707143    1.085289
      8          9           0       -1.071240    0.707126   -1.085299
      9          9           0        1.471743   -1.294719   -0.000001
 ---------------------------------------------------------------------
                    Distance matrix (angstroms):
                    1          2          3          4          5
     1  C    0.000000
     2  H    1.097850   0.000000
     3  H    1.097768   1.871235   0.000000
     4  C    1.340169   2.124365   2.137270   0.000000
     5  C    2.519435   2.738237   3.536880   1.544171   0.000000
     6  F    3.684208   4.073967   4.580745   2.444077   1.369004
     7  F    3.040218   2.932668   4.073617   2.441323   1.371780
     8  F    3.040225   2.932681   4.073622   2.441323   1.371780
     9  F    2.377566   3.365495   2.691068   1.349004   2.430655
                    6          7          8          9
     6  F    0.000000
     7  F    2.176200   0.000000
     8  F    2.176200   2.170587   0.000000
     9  F    2.651214   3.413511   3.413504   0.000000
 Stoichiometry    C3H2F4
 Framework group  C1[X(C3H2F4)]
 Deg. of freedom    21
 Full point group                 C1      NOp   1
 RotChk:  IX=0 Diff= 5.05D-07
 Largest Abelian subgroup         C1      NOp   1
 Largest concise Abelian subgroup C1      NOp   1
                         Standard orientation:                         
 ---------------------------------------------------------------------
 Center     Atomic      Atomic             Coordinates (Angstroms)
 Number     Number       Type             X           Y           Z
 ---------------------------------------------------------------------
      1          6           0        1.681645   -1.150246   -0.000000
      2          1           0        1.177736   -2.125618   -0.000001
      3          1           0        2.779385   -1.158023    0.000000
      4          6           0        0.976081   -0.010846    0.000000
      5          6           0       -0.568082   -0.016101   -0.000000
      6          9           0       -1.127611    1.233338   -0.000010
      7          9           0       -1.114371   -0.652886   -1.085289
      8          9           0       -1.114372   -0.652869    1.085298
      9          9           0        1.523579    1.222060    0.000001
 ---------------------------------------------------------------------
 Rotational constants (GHZ):           3.6340704           2.3065801           1.8811095
 Leave Link  202 at Thu Apr  2 13:26:56 2026, MaxMem=  2147483648 cpu:               0.0 elap:               0.0
 (Enter /Users/yarger/Applications/g16/l301.exe)
 Standard basis: VSTO-6G (5D, 7F)
 Ernie: Thresh=  0.10000D-02 Tol=  0.10000D-05 Strict=F.
  NNHCO=     0 NNPyr=     0 NCTC=     0               EPep=         0.000000000
    EC=       159.780540546  ECS=         1.704364034   EG=         0.438297751
   EHC=         0.000000000  EAt=       -85.052729409  AtH=         1.103463817
 EPDDG=         0.000000000  ECC=       161.923202331 EAtT=        86.156193227
 There are    30 symmetry adapted cartesian basis functions of A   symmetry.
 There are    30 symmetry adapted basis functions of A   symmetry.
    30 basis functions,   180 primitive gaussians,    30 cartesian basis functions
    21 alpha electrons       21 beta electrons
       nuclear repulsion energy       248.0793955576 Hartrees.
 IExCor=    0 DFT=F Ex=HF Corr=None ExCW=0 ScaHFX=  1.000000
 ScaDFX=  1.000000  1.000000  1.000000  1.000000 ScalE2=  1.000000  1.000000
 IRadAn=      5 IRanWt=     -1 IRanGd=            0 ICorTp=0 IEmpDi=  4
 Integral buffers will be    131072 words long.
 Regular integral format.
 Two-electron integral symmetry is turned off.
 Leave Link  301 at Thu Apr  2 13:26:57 2026, MaxMem=  2147483648 cpu:               0.2 elap:               0.0
 (Enter /Users/yarger/Applications/g16/l302.exe)
 Do NDO integrals.
 NPDir=0 NMtPBC=     1 NCelOv=     1 NCel=       1 NClECP=     1 NCelD=      1
         NCelK=      1 NCelE2=     1 NClLst=     1 CellRange=     0.0.
 One-electron integrals computed using PRISM.
 NBasis=    30 RedAO= F EigKep=  0.00D+00  NBF=    30
 NBsUse=    30 1.00D-04 EigRej=  0.00D+00 NBFU=    30
 Leave Link  302 at Thu Apr  2 13:26:57 2026, MaxMem=  2147483648 cpu:               0.3 elap:               0.1
 (Enter /Users/yarger/Applications/g16/l303.exe)
 DipDrv:  MaxL=1.
 Leave Link  303 at Thu Apr  2 13:26:57 2026, MaxMem=  2147483648 cpu:               0.1 elap:               0.0
 (Enter /Users/yarger/Applications/g16/l401.exe)
 Initial guess from the checkpoint file:  "2223Tetrafluoropropene_Opt_Freq_AM1_Gaussian16.chk"
 B after Tr=    -0.000000    0.000000    0.000000
         Rot=    1.000000    0.000000   -0.000000    0.000001 Ang=   0.00 deg.
 Guess basis will be translated and rotated to current coordinates.
 JPrj=0 DoOrth=T DoCkMO=T.
 Leave Link  401 at Thu Apr  2 13:26:57 2026, MaxMem=  2147483648 cpu:               0.3 elap:               0.0
 (Enter /Users/yarger/Applications/g16/l502.exe)
 Keep J ints in memory in canonical form, NReq=861894.
 FoFCou: FMM=F IPFlag=           0 FMFlag=           0 FMFlg1=           0
         NFxFlg=           0 DoJE=F BraDBF=F KetDBF=F FulRan=T
         wScrn=  0.000000 ICntrl=       600 IOpCl=  2 I1Cent=           0 NGrid=           0
         NMat0=    1 NMatS0=     72 NMatT0=    0 NMatD0=    1 NMtDS0=    0 NMtDT0=    0
 Symmetry not used in FoFCou.
 Two-electron integral symmetry not used.
 Closed shell SCF:
 Using DIIS extrapolation, IDIIS=  1040.
 Overlap will be assumed to be unity.
 NGot=  2147483648 LenX=  2147419503 LenY=  2147418162
 Requested convergence on RMS density matrix=1.00D-08 within 128 cycles.
 Requested convergence on MAX density matrix=1.00D-06.
 Requested convergence on             energy=1.00D-06.
 No special actions if energy rises.

 Cycle   1  Pass 1  IDiag  1:
 E=-0.295203079717368    
 DIIS: error= 2.01D-06 at cycle   1 NSaved=   1.
 NSaved= 1 IEnMin= 1 EnMin=-0.295203079717368     IErMin= 1 ErrMin= 2.01D-06
 ErrMax= 2.01D-06  0.00D+00 EMaxC= 1.00D-01 BMatC= 9.21D-11 BMatP= 9.21D-11
 IDIUse=1 WtCom= 1.00D+00 WtEn= 0.00D+00
 Coeff-Com:  0.100D+01
 Coeff:      0.100D+01
 RMSDP=4.13D-07 MaxDP=2.67D-06              OVMax= 0.00D+00

 Cycle   2  Pass 1  IDiag  3:
 E=-0.295203079911289     Delta-E=       -0.000000000194 Rises=F Damp=F
 DIIS: error= 3.99D-07 at cycle   2 NSaved=   2.
 NSaved= 2 IEnMin= 2 EnMin=-0.295203079911289     IErMin= 2 ErrMin= 3.99D-07
 ErrMax= 3.99D-07  0.00D+00 EMaxC= 1.00D-01 BMatC= 5.82D-12 BMatP= 9.21D-11
 IDIUse=1 WtCom= 1.00D+00 WtEn= 0.00D+00
 Coeff-Com: -0.265D+00 0.126D+01
 Coeff:     -0.265D+00 0.126D+01
 Gap=     0.402 Goal=   None    Shift=    0.000
 RMSDP=1.65D-07 MaxDP=9.81D-07 DE=-1.94D-10 OVMax= 9.21D-07

 Cycle   3  Pass 1  IDiag  3:
 E=-0.295203079930502     Delta-E=       -0.000000000019 Rises=F Damp=F
 DIIS: error= 5.45D-08 at cycle   3 NSaved=   3.
 NSaved= 3 IEnMin= 3 EnMin=-0.295203079930502     IErMin= 3 ErrMin= 5.45D-08
 ErrMax= 5.45D-08  0.00D+00 EMaxC= 1.00D-01 BMatC= 2.41D-13 BMatP= 5.82D-12
 IDIUse=1 WtCom= 1.00D+00 WtEn= 0.00D+00
 Coeff-Com:  0.847D-01-0.504D+00 0.142D+01
 Coeff:      0.847D-01-0.504D+00 0.142D+01
 Gap=     0.402 Goal=   None    Shift=    0.000
 RMSDP=4.84D-08 MaxDP=2.42D-07 DE=-1.92D-11 OVMax= 2.84D-07

 Cycle   4  Pass 1  IDiag  3:
 E=-0.295203079931468     Delta-E=       -0.000000000001 Rises=F Damp=F
 DIIS: error= 1.40D-08 at cycle   4 NSaved=   4.
 NSaved= 4 IEnMin= 4 EnMin=-0.295203079931468     IErMin= 4 ErrMin= 1.40D-08
 ErrMax= 1.40D-08  0.00D+00 EMaxC= 1.00D-01 BMatC= 1.12D-14 BMatP= 2.41D-13
 IDIUse=1 WtCom= 1.00D+00 WtEn= 0.00D+00
 Coeff-Com: -0.277D-01 0.182D+00-0.655D+00 0.150D+01
 Coeff:     -0.277D-01 0.182D+00-0.655D+00 0.150D+01
 Gap=     0.402 Goal=   None    Shift=    0.000
 RMSDP=1.26D-08 MaxDP=7.33D-08 DE=-9.66D-13 OVMax= 9.01D-08

 Cycle   5  Pass 1  IDiag  3:
 E=-0.295203079931753     Delta-E=       -0.000000000000 Rises=F Damp=F
 DIIS: error= 3.12D-09 at cycle   5 NSaved=   5.
 NSaved= 5 IEnMin= 5 EnMin=-0.295203079931753     IErMin= 5 ErrMin= 3.12D-09
 ErrMax= 3.12D-09  0.00D+00 EMaxC= 1.00D-01 BMatC= 5.93D-16 BMatP= 1.12D-14
 IDIUse=1 WtCom= 1.00D+00 WtEn= 0.00D+00
 Coeff-Com:  0.891D-02-0.616D-01 0.244D+00-0.724D+00 0.153D+01
 Coeff:      0.891D-02-0.616D-01 0.244D+00-0.724D+00 0.153D+01
 Gap=     0.402 Goal=   None    Shift=    0.000
 RMSDP=3.13D-09 MaxDP=2.08D-08 DE=-2.84D-13 OVMax= 2.93D-08

 Cycle   6  Pass 2  IDiag  1:
 SCF Done:  E(RAM1) = -0.295203079932     A.U. after    6 cycles
            NFock=  5  Conv=0.31D-08     -V/T= 0.9979
 KE=-1.431933729584D+02 PE=-3.161639704919D+02 EE= 2.109827448127D+02
 Leave Link  502 at Thu Apr  2 13:26:57 2026, MaxMem=  2147483648 cpu:               0.2 elap:               0.0
 (Enter /Users/yarger/Applications/g16/l701.exe)
 ... and contract with generalized density number  0.
 Compute integral first derivatives.
 Leave Link  701 at Thu Apr  2 13:26:57 2026, MaxMem=  2147483648 cpu:               0.2 elap:               0.1
 (Enter /Users/yarger/Applications/g16/l702.exe)
 L702 exits ... SP integral derivatives will be done elsewhere.
 Leave Link  702 at Thu Apr  2 13:26:57 2026, MaxMem=  2147483648 cpu:               0.1 elap:               0.0
 (Enter /Users/yarger/Applications/g16/l703.exe)
 Integral derivatives from FoFJK, PRISM(SPDF).
 Compute integral first derivatives, UseDBF=F ICtDFT=           0.
 Calling FoFJK, ICntrl=      2127 FMM=F ISym2X=0 I1Cent= 0 IOpClX= 0 NMat=1 NMatS=1 NMatT=0.
 FoFJK:  IHMeth= 8 ICntrl=    2127 DoSepK=F KAlg= 0 I1Cent=           0 FoldK=F
 IRaf=         0 NMat=       1 IRICut=       1 DoRegI=T DoRafI=F ISym2E= 0 IDoP0=3 IntGTp=3.
 FoFCou: FMM=F IPFlag=           0 FMFlag=      100000 FMFlg1=         800
         NFxFlg=           0 DoJE=F BraDBF=F KetDBF=F FulRan=T
         wScrn=  0.000000 ICntrl=      2127 IOpCl=  0 I1Cent=           0 NGrid=           0
         NMat0=    1 NMatS0=      1 NMatT0=    0 NMatD0=    1 NMtDS0=    0 NMtDT0=    0
 Symmetry not used in FoFCou.
 Leave Link  703 at Thu Apr  2 13:26:57 2026, MaxMem=  2147483648 cpu:               0.2 elap:               0.0
 (Enter /Users/yarger/Applications/g16/l716.exe)
 Dipole        = 7.66364183D-01-6.26455760D-01-1.97050243D-07
 ***** Axes restored to original set *****
 -------------------------------------------------------------------
 Center     Atomic                   Forces (Hartrees/Bohr)
 Number     Number              X              Y              Z
 -------------------------------------------------------------------
      1        6          -0.000001566   -0.000002853   -0.000000002
      2        1           0.000000243    0.000000530    0.000000005
      3        1          -0.000000219    0.000000928    0.000000004
      4        6           0.000002250    0.000001690   -0.000000017
      5        6          -0.000000264    0.000000653    0.000000006
      6        9           0.000000114    0.000000008    0.000000002
      7        9          -0.000000046   -0.000000133   -0.000000819
      8        9          -0.000000047   -0.000000137    0.000000816
      9        9          -0.000000464   -0.000000687    0.000000004
 -------------------------------------------------------------------
 Cartesian Forces:  Max     0.000002853 RMS     0.000000909
 Leave Link  716 at Thu Apr  2 13:26:57 2026, MaxMem=  2147483648 cpu:               0.1 elap:               0.0
 (Enter /Users/yarger/Applications/g16/l103.exe)

 GradGradGradGradGradGradGradGradGradGradGradGradGradGradGradGradGradGrad
 Berny optimization.
 Using GEDIIS/GDIIS optimizer.
 FormGI is forming the generalized inverse of G from B-inverse, IUseBI=4.
 Internal  Forces:  Max     0.000002023 RMS     0.000000610
 Search for a local minimum.
 Step number   8 out of a maximum of   40
 All quantities printed in internal units (Hartrees-Bohrs-Radians)
 RMS Force = .60974D-06 SwitMx=.10000D-02 MixMth= 2
 Mixed Optimization -- En-DIIS/RFO-DIIS
 Swapping is turned off.
 Update second derivatives using D2CorX and points    1    2    3    4    5
                                                      6    7    8
 DE= -8.61D-10 DEPred=-8.20D-10 R= 1.05D+00
 Trust test= 1.05D+00 RLast= 5.29D-05 DXMaxT set to 5.05D-01
 ITU=  0  0  0  1  1  1  1  0
     Eigenvalues ---    0.00610   0.01703   0.03046   0.03046   0.09833
     Eigenvalues ---    0.10054   0.11166   0.14513   0.22135   0.23814
     Eigenvalues ---    0.25000   0.25620   0.26174   0.35021   0.36127
     Eigenvalues ---    0.45227   0.54927   0.56547   0.59749   0.75519
     Eigenvalues ---    0.86718
 En-DIIS/RFO-DIIS/Sim-DIIS IScMMF=       -3 using points:     8    7    6    5    4
 RFO step:  Lambda=-3.26626515D-11.
 NNeg= 0 NGDIIS= 5 SimSw=  2.50D-01 Rises=F DC= -8.61D-10 SmlDif=  1.00D-05
 NRisDI= 0 DoIntr=F SqrtH=F CThrHd= 10.0 CDAdj=  3.0
 RMS Error=  0.2541451972D-05 NUsed= 5 OKEnD=F EnDIS=F
 InvSVX:  RCond= 2.36D-10 Info=           0 Equed=N FErr=  2.44D-15 BErr=  8.67D-17
 DIIS inversion failure, remove point   5.
 InvSVX:  RCond= 3.31D-10 Info=           0 Equed=N FErr=  1.98D-15 BErr=  1.00D-16
 DIIS inversion failure, remove point   4.
 InvSVX:  RCond= 4.42D-10 Info=           0 Equed=N FErr=  1.60D-15 BErr=  5.71D-17
 DIIS inversion failure, remove point   3.
 InvSVX:  RCond= 6.99D-10 Info=           0 Equed=N FErr=  1.27D-15 BErr=  4.24D-17
 DIIS inversion failure, remove point   2.
 Use linear search instead of GDIIS.
 RFO step:  Lambda= 0.00000000D+00 EMin= 6.10144712D-03
 Quartic linear search produced a step of  0.05233.
 Iteration  1 RMS(Cart)=  0.00000409 RMS(Int)=  0.00000000
 Iteration  2 RMS(Cart)=  0.00000000 RMS(Int)=  0.00000000
 ITry= 1 IFail=0 DXMaxC= 1.35D-05 DCOld= 1.00D+10 DXMaxT= 5.05D-01 DXLimC= 3.00D+00 Rises=F
 Variable       Old X    -DE/DX   Delta X   Delta X   Delta X     New X
                                 (Linear)    (Quad)   (Total)
    R1        2.07464   0.00000  -0.00000   0.00000   0.00000   2.07464
    R2        2.07448  -0.00000   0.00000  -0.00000  -0.00000   2.07448
    R3        2.53255  -0.00000  -0.00000  -0.00000  -0.00000   2.53255
    R4        2.91806   0.00000  -0.00000   0.00000   0.00000   2.91806
    R5        2.54925   0.00000  -0.00000   0.00000   0.00000   2.54925
    R6        2.58704  -0.00000  -0.00000   0.00000  -0.00000   2.58704
    R7        2.59229  -0.00000   0.00000  -0.00000  -0.00000   2.59229
    R8        2.59229  -0.00000   0.00000  -0.00000  -0.00000   2.59229
    A1        2.04058  -0.00000  -0.00000  -0.00001  -0.00001   2.04057
    A2        2.11028  -0.00000  -0.00000   0.00000  -0.00000   2.11028
    A3        2.13233   0.00000   0.00000   0.00001   0.00001   2.13234
    A4        2.12184  -0.00000   0.00000  -0.00000  -0.00000   2.12184
    A5        2.16923   0.00000  -0.00000   0.00001   0.00001   2.16924
    A6        1.99211  -0.00000  -0.00000  -0.00000  -0.00000   1.99211
    A7        1.98844  -0.00000   0.00000  -0.00000  -0.00000   1.98844
    A8        1.98211   0.00000  -0.00000   0.00000   0.00000   1.98211
    A9        1.98211   0.00000  -0.00000   0.00000   0.00000   1.98211
   A10        1.83474  -0.00000   0.00000   0.00000   0.00000   1.83474
   A11        1.83474  -0.00000   0.00000   0.00000   0.00000   1.83474
   A12        1.82540  -0.00000  -0.00000  -0.00000  -0.00000   1.82539
    D1        0.00000   0.00000   0.00000  -0.00000  -0.00000   0.00000
    D2       -3.14159   0.00000  -0.00000   0.00000   0.00000  -3.14159
    D3       -3.14159  -0.00000   0.00000  -0.00000  -0.00000  -3.14159
    D4       -0.00000  -0.00000  -0.00000   0.00000   0.00000   0.00000
    D5       -3.14158   0.00000   0.00000   0.00000   0.00000  -3.14158
    D6       -1.04146   0.00000   0.00000   0.00000   0.00000  -1.04146
    D7        1.04148  -0.00000  -0.00000  -0.00000  -0.00000   1.04148
    D8        0.00001  -0.00000   0.00000   0.00000   0.00000   0.00001
    D9        2.10013   0.00000   0.00000   0.00000   0.00000   2.10014
   D10       -2.10012  -0.00000  -0.00000  -0.00000  -0.00000  -2.10012
         Item               Value     Threshold  Converged?
 Maximum Force            0.000002     0.000015     YES
 RMS     Force            0.000001     0.000010     YES
 Maximum Displacement     0.000013     0.000060     YES
 RMS     Displacement     0.000004     0.000040     YES
 Predicted change in Energy=-1.968932D-11
 Optimization completed.
    -- Stationary point found.
                           ----------------------------
                           !   Optimized Parameters   !
                           ! (Angstroms and Degrees)  !
 --------------------------                            --------------------------
 ! Name  Definition              Value          Derivative Info.                !
 --------------------------------------------------------------------------------
 ! R1    R(1,2)                  1.0979         -DE/DX =    0.0                 !
 ! R2    R(1,3)                  1.0978         -DE/DX =    0.0                 !
 ! R3    R(1,4)                  1.3402         -DE/DX =    0.0                 !
 ! R4    R(4,5)                  1.5442         -DE/DX =    0.0                 !
 ! R5    R(4,9)                  1.349          -DE/DX =    0.0                 !
 ! R6    R(5,6)                  1.369          -DE/DX =    0.0                 !
 ! R7    R(5,7)                  1.3718         -DE/DX =    0.0                 !
 ! R8    R(5,8)                  1.3718         -DE/DX =    0.0                 !
 ! A1    A(2,1,3)              116.9164         -DE/DX =    0.0                 !
 ! A2    A(2,1,4)              120.9101         -DE/DX =    0.0                 !
 ! A3    A(3,1,4)              122.1735         -DE/DX =    0.0                 !
 ! A4    A(1,4,5)              121.5725         -DE/DX =    0.0                 !
 ! A5    A(1,4,9)              124.2879         -DE/DX =    0.0                 !
 ! A6    A(5,4,9)              114.1396         -DE/DX =    0.0                 !
 ! A7    A(4,5,6)              113.929          -DE/DX =    0.0                 !
 ! A8    A(4,5,7)              113.5664         -DE/DX =    0.0                 !
 ! A9    A(4,5,8)              113.5664         -DE/DX =    0.0                 !
 ! A10   A(6,5,7)              105.123          -DE/DX =    0.0                 !
 ! A11   A(6,5,8)              105.123          -DE/DX =    0.0                 !
 ! A12   A(7,5,8)              104.5876         -DE/DX =    0.0                 !
 ! D1    D(2,1,4,5)              0.0            -DE/DX =    0.0                 !
 ! D2    D(2,1,4,9)           -180.0            -DE/DX =    0.0                 !
 ! D3    D(3,1,4,5)           -180.0            -DE/DX =    0.0                 !
 ! D4    D(3,1,4,9)              0.0            -DE/DX =    0.0                 !
 ! D5    D(1,4,5,6)           -179.9995         -DE/DX =    0.0                 !
 ! D6    D(1,4,5,7)            -59.6712         -DE/DX =    0.0                 !
 ! D7    D(1,4,5,8)             59.6722         -DE/DX =    0.0                 !
 ! D8    D(9,4,5,6)              0.0005         -DE/DX =    0.0                 !
 ! D9    D(9,4,5,7)            120.3288         -DE/DX =    0.0                 !
 ! D10   D(9,4,5,8)           -120.3278         -DE/DX =    0.0                 !
 --------------------------------------------------------------------------------
 Lowest energy point so far.  Saving SCF results.
 Largest change from initial coordinates is atom    2       0.076 Angstoms.
 GradGradGradGradGradGradGradGradGradGradGradGradGradGradGradGradGradGrad

 Leave Link  103 at Thu Apr  2 13:26:57 2026, MaxMem=  2147483648 cpu:               0.1 elap:               0.0
 (Enter /Users/yarger/Applications/g16/l202.exe)
                          Input orientation:                          
 ---------------------------------------------------------------------
 Center     Atomic      Atomic             Coordinates (Angstroms)
 Number     Number       Type             X           Y           Z
 ---------------------------------------------------------------------
      1          6           0        1.745777    1.067002   -0.000000
      2          1           0        1.290230    2.065877    0.000001
      3          1           0        2.842581    1.021020   -0.000001
      4          6           0        0.985269   -0.036484   -0.000001
      5          6           0       -0.556784    0.044373   -0.000000
      6          9           0       -1.176819   -1.176171    0.000010
      7          9           0       -1.071238    0.707143    1.085289
      8          9           0       -1.071240    0.707126   -1.085299
      9          9           0        1.471743   -1.294719   -0.000001
 ---------------------------------------------------------------------
                    Distance matrix (angstroms):
                    1          2          3          4          5
     1  C    0.000000
     2  H    1.097850   0.000000
     3  H    1.097768   1.871235   0.000000
     4  C    1.340169   2.124365   2.137270   0.000000
     5  C    2.519435   2.738237   3.536880   1.544171   0.000000
     6  F    3.684208   4.073967   4.580745   2.444077   1.369004
     7  F    3.040218   2.932668   4.073617   2.441323   1.371780
     8  F    3.040225   2.932681   4.073622   2.441323   1.371780
     9  F    2.377566   3.365495   2.691068   1.349004   2.430655
                    6          7          8          9
     6  F    0.000000
     7  F    2.176200   0.000000
     8  F    2.176200   2.170587   0.000000
     9  F    2.651214   3.413511   3.413504   0.000000
 Stoichiometry    C3H2F4
 Framework group  C1[X(C3H2F4)]
 Deg. of freedom    21
 Full point group                 C1      NOp   1
 RotChk:  IX=0 Diff= 7.85D-17
 Largest Abelian subgroup         C1      NOp   1
 Largest concise Abelian subgroup C1      NOp   1
                         Standard orientation:                         
 ---------------------------------------------------------------------
 Center     Atomic      Atomic             Coordinates (Angstroms)
 Number     Number       Type             X           Y           Z
 ---------------------------------------------------------------------
      1          6           0        1.681645   -1.150246   -0.000000
      2          1           0        1.177736   -2.125618   -0.000001
      3          1           0        2.779385   -1.158023    0.000000
      4          6           0        0.976081   -0.010846    0.000000
      5          6           0       -0.568082   -0.016101   -0.000000
      6          9           0       -1.127611    1.233338   -0.000010
      7          9           0       -1.114371   -0.652886   -1.085289
      8          9           0       -1.114372   -0.652869    1.085298
      9          9           0        1.523579    1.222060    0.000001
 ---------------------------------------------------------------------
 Rotational constants (GHZ):           3.6340704           2.3065801           1.8811095
 Leave Link  202 at Thu Apr  2 13:26:57 2026, MaxMem=  2147483648 cpu:               0.0 elap:               0.0
 (Enter /Users/yarger/Applications/g16/l601.exe)
 Copying SCF densities to generalized density rwf, IOpCl= 0 IROHF=0.

 **********************************************************************

            Population analysis using the SCF density.

 **********************************************************************

 Orbital symmetries:
       Occupied  (A) (A) (A) (A) (A) (A) (A) (A) (A) (A) (A) (A)
                 (A) (A) (A) (A) (A) (A) (A) (A) (A)
       Virtual   (A) (A) (A) (A) (A) (A) (A) (A) (A)
 The electronic state is 1-A.
 Alpha  occ. eigenvalues --   -1.92143  -1.85219  -1.79823  -1.79716  -1.25932
 Alpha  occ. eigenvalues --   -1.01448  -0.83809  -0.73710  -0.72746  -0.71783
 Alpha  occ. eigenvalues --   -0.63254  -0.61728  -0.58670  -0.57395  -0.57208
 Alpha  occ. eigenvalues --   -0.55114  -0.54174  -0.54037  -0.53145  -0.47527
 Alpha  occ. eigenvalues --   -0.41013
 Alpha virt. eigenvalues --   -0.00803   0.03497   0.09723   0.11051   0.11333
 Alpha virt. eigenvalues --    0.11513   0.13801   0.14680   0.16883
          Condensed to atoms (all electrons):
               1          2          3          4          5          6
     1  C    4.190669   0.000000   0.000000   0.000000   0.000000   0.000000
     2  H    0.000000   0.847997   0.000000   0.000000   0.000000   0.000000
     3  H    0.000000   0.000000   0.847602   0.000000   0.000000   0.000000
     4  C    0.000000   0.000000   0.000000   4.017577   0.000000   0.000000
     5  C    0.000000   0.000000   0.000000   0.000000   3.557220   0.000000
     6  F    0.000000   0.000000   0.000000   0.000000   0.000000   7.147530
     7  F    0.000000   0.000000   0.000000   0.000000   0.000000   0.000000
     8  F    0.000000   0.000000   0.000000   0.000000   0.000000   0.000000
     9  F    0.000000   0.000000   0.000000   0.000000   0.000000   0.000000
               7          8          9
     1  C    0.000000   0.000000   0.000000
     2  H    0.000000   0.000000   0.000000
     3  H    0.000000   0.000000   0.000000
     4  C    0.000000   0.000000   0.000000
     5  C    0.000000   0.000000   0.000000
     6  F    0.000000   0.000000   0.000000
     7  F    7.156815   0.000000   0.000000
     8  F    0.000000   7.156815   0.000000
     9  F    0.000000   0.000000   7.077772
 Mulliken charges:
               1
     1  C   -0.190669
     2  H    0.152003
     3  H    0.152398
     4  C   -0.017577
     5  C    0.442780
     6  F   -0.147530
     7  F   -0.156815
     8  F   -0.156815
     9  F   -0.077772
 Sum of Mulliken charges =  -0.00000
 Mulliken charges with hydrogens summed into heavy atoms:
               1
     1  C    0.113731
     4  C   -0.017577
     5  C    0.442780
     6  F   -0.147530
     7  F   -0.156815
     8  F   -0.156815
     9  F   -0.077772
 Charge=             -0.0000 electrons
 Dipole moment (field-independent basis, Debye):
    X=              1.9479    Y=             -1.5923    Z=             -0.0000  Tot=              2.5159
 N-N= 2.480793955576D+02 E-N=-3.161639704980D+02  KE=-1.431933729584D+02
 Leave Link  601 at Thu Apr  2 13:26:57 2026, MaxMem=  2147483648 cpu:               0.1 elap:               0.0
 (Enter /Users/yarger/Applications/g16/l9999.exe)
 1\1\GINC-YARGERMBP2021-2\FOpt\RAM1\ZDO\C3H2F4\ROOT\02-Apr-2026\0\\#p o
 pt=tight freq=raman am1 guess=save geom=connectivity polar\\r1234yf - 
 2,3,3,3-Tetrafluoropropene\\0,1\C,1.7457768923,1.0670016435,-0.0000002
 649\H,1.2902300858,2.0658773489,0.0000005649\H,2.8425810797,1.02101991
 46,-0.0000008282\C,0.9852694642,-0.036484153,-0.0000005063\C,-0.556783
 544,0.0443728322,-0.000000173\F,-1.1768193563,-1.1761707697,0.00000975
 69\F,-1.0712383759,0.7071426936,1.0852886784\F,-1.0712397946,0.7071256
 557,-1.085298757\F,1.4717425488,-1.2947191658,-0.000001477\\Version=EM
 64M-G16RevA.03\State=1-A\HF=-0.2952031\RMSD=3.135e-09\RMSF=9.095e-07\D
 ipole=0.7961187,0.5881801,0.0000002\PG=C01 [X(C3H2F4)]\\@


 MOM AND DAD WENT TO ALPHA CENTAURI AND ALL
 I GOT WAS THIS DUMB T-SHIRT.
 Leave Link 9999 at Thu Apr  2 13:26:57 2026, MaxMem=  2147483648 cpu:               0.1 elap:               0.0
 Job cpu time:       0 days  0 hours  0 minutes 20.1 seconds.
 Elapsed time:       0 days  0 hours  0 minutes  3.4 seconds.
 File lengths (MBytes):  RWF=      6 Int=      0 D2E=      0 Chk=      2 Scr=      1
 Normal termination of Gaussian 16 at Thu Apr  2 13:26:57 2026.
 (Enter /Users/yarger/Applications/g16/l1.exe)
 Link1:  Proceeding to internal job step number  2.
 -------------------------------------------------------------
 #P Geom=AllCheck Guess=TCheck SCRF=Check GenChk RAM1/ZDO Freq
 -------------------------------------------------------------
 1/7=10,10=4,29=7,30=1,38=1,40=1/1,3;
 2/12=2,40=1/2;
 3/5=2,14=-4,25=1,41=700000,70=2,71=2,116=1,135=40,140=1/1,2,3;
 4/5=101,35=1/1;
 5/5=2,35=1,38=6,98=1/2;
 8/6=4,10=90,11=11/1;
 10/13=10,15=4/2;
 11/6=3,8=1,9=11,15=111,16=1/1,2,10;
 10/6=1/2;
 6/7=2,8=2,9=2,10=2,28=1/1;
 7/8=1,10=1,25=1/1,2,3,16;
 1/7=10,10=4,30=1/3;
 99//99;
 Leave Link    1 at Thu Apr  2 13:26:57 2026, MaxMem=  2147483648 cpu:               0.1 elap:               0.0
 (Enter /Users/yarger/Applications/g16/l101.exe)
 Structure from the checkpoint file:  "2223Tetrafluoropropene_Opt_Freq_AM1_Gaussian16.chk"
 ------------------------------------
 r1234yf - 2,3,3,3-Tetrafluoropropene
 ------------------------------------
 Charge =  0 Multiplicity = 1
 Redundant internal coordinates found in file.  (old form).
 C,0,1.7457768923,1.0670016435,-0.0000002649
 H,0,1.2902300858,2.0658773489,0.0000005649
 H,0,2.8425810797,1.0210199146,-0.0000008282
 C,0,0.9852694642,-0.036484153,-0.0000005063
 C,0,-0.556783544,0.0443728322,-0.000000173
 F,0,-1.1768193563,-1.1761707697,0.0000097569
 F,0,-1.0712383759,0.7071426936,1.0852886784
 F,0,-1.0712397946,0.7071256557,-1.085298757
 F,0,1.4717425488,-1.2947191658,-0.000001477
 Recover connectivity data from disk.
 ITRead=  0  0  0  0  0  0  0  0  0
 MicOpt= -1 -1 -1 -1 -1 -1 -1 -1 -1
 NAtoms=      9 NQM=        9 NQMF=       0 NMMI=      0 NMMIF=      0
                NMic=       0 NMicF=      0.
                    Isotopes and Nuclear Properties:
 (Nuclear quadrupole moments (NQMom) in fm**2, nuclear magnetic moments (NMagM)
  in nuclear magnetons)

  Atom         1           2           3           4           5           6           7           8           9
 IAtWgt=          12           1           1          12          12          19          19          19          19
 AtmWgt=  12.0000000   1.0078250   1.0078250  12.0000000  12.0000000  18.9984033  18.9984033  18.9984033  18.9984033
 NucSpn=           0           1           1           0           0           1           1           1           1
 AtZEff=   3.9000000   1.0000000   1.0000000   3.9000000   3.9000000   7.2000000   7.2000000   7.2000000   7.2000000
 NQMom=    0.0000000   0.0000000   0.0000000   0.0000000   0.0000000   0.0000000   0.0000000   0.0000000   0.0000000
 NMagM=    0.0000000   2.7928460   2.7928460   0.0000000   0.0000000   2.6288670   2.6288670   2.6288670   2.6288670
 AtZNuc=   6.0000000   1.0000000   1.0000000   6.0000000   6.0000000   9.0000000   9.0000000   9.0000000   9.0000000
 Leave Link  101 at Thu Apr  2 13:26:57 2026, MaxMem=  2147483648 cpu:               2.0 elap:               0.3
 (Enter /Users/yarger/Applications/g16/l103.exe)

 GradGradGradGradGradGradGradGradGradGradGradGradGradGradGradGradGradGrad
 Berny optimization.
 Initialization pass.
                           ----------------------------
                           !    Initial Parameters    !
                           ! (Angstroms and Degrees)  !
 --------------------------                            --------------------------
 ! Name  Definition              Value          Derivative Info.                !
 --------------------------------------------------------------------------------
 ! R1    R(1,2)                  1.0979         calculate D2E/DX2 analytically  !
 ! R2    R(1,3)                  1.0978         calculate D2E/DX2 analytically  !
 ! R3    R(1,4)                  1.3402         calculate D2E/DX2 analytically  !
 ! R4    R(4,5)                  1.5442         calculate D2E/DX2 analytically  !
 ! R5    R(4,9)                  1.349          calculate D2E/DX2 analytically  !
 ! R6    R(5,6)                  1.369          calculate D2E/DX2 analytically  !
 ! R7    R(5,7)                  1.3718         calculate D2E/DX2 analytically  !
 ! R8    R(5,8)                  1.3718         calculate D2E/DX2 analytically  !
 ! A1    A(2,1,3)              116.9164         calculate D2E/DX2 analytically  !
 ! A2    A(2,1,4)              120.9101         calculate D2E/DX2 analytically  !
 ! A3    A(3,1,4)              122.1735         calculate D2E/DX2 analytically  !
 ! A4    A(1,4,5)              121.5725         calculate D2E/DX2 analytically  !
 ! A5    A(1,4,9)              124.2879         calculate D2E/DX2 analytically  !
 ! A6    A(5,4,9)              114.1396         calculate D2E/DX2 analytically  !
 ! A7    A(4,5,6)              113.929          calculate D2E/DX2 analytically  !
 ! A8    A(4,5,7)              113.5664         calculate D2E/DX2 analytically  !
 ! A9    A(4,5,8)              113.5664         calculate D2E/DX2 analytically  !
 ! A10   A(6,5,7)              105.123          calculate D2E/DX2 analytically  !
 ! A11   A(6,5,8)              105.123          calculate D2E/DX2 analytically  !
 ! A12   A(7,5,8)              104.5876         calculate D2E/DX2 analytically  !
 ! D1    D(2,1,4,5)              0.0            calculate D2E/DX2 analytically  !
 ! D2    D(2,1,4,9)           -180.0            calculate D2E/DX2 analytically  !
 ! D3    D(3,1,4,5)           -180.0            calculate D2E/DX2 analytically  !
 ! D4    D(3,1,4,9)              0.0            calculate D2E/DX2 analytically  !
 ! D5    D(1,4,5,6)           -179.9995         calculate D2E/DX2 analytically  !
 ! D6    D(1,4,5,7)            -59.6712         calculate D2E/DX2 analytically  !
 ! D7    D(1,4,5,8)             59.6722         calculate D2E/DX2 analytically  !
 ! D8    D(9,4,5,6)              0.0005         calculate D2E/DX2 analytically  !
 ! D9    D(9,4,5,7)            120.3288         calculate D2E/DX2 analytically  !
 ! D10   D(9,4,5,8)           -120.3278         calculate D2E/DX2 analytically  !
 --------------------------------------------------------------------------------
 Trust Radius=3.00D-01 FncErr=1.00D-07 GrdErr=1.00D-07 EigMax=2.50D+02 EigMin=1.00D-04
 Number of steps in this run=      2 maximum allowed number of steps=      2.
 GradGradGradGradGradGradGradGradGradGradGradGradGradGradGradGradGradGrad

 Leave Link  103 at Thu Apr  2 13:26:58 2026, MaxMem=  2147483648 cpu:               0.1 elap:               0.0
 (Enter /Users/yarger/Applications/g16/l202.exe)
                          Input orientation:                          
 ---------------------------------------------------------------------
 Center     Atomic      Atomic             Coordinates (Angstroms)
 Number     Number       Type             X           Y           Z
 ---------------------------------------------------------------------
      1          6           0        1.745777    1.067002   -0.000000
      2          1           0        1.290230    2.065877    0.000001
      3          1           0        2.842581    1.021020   -0.000001
      4          6           0        0.985269   -0.036484   -0.000001
      5          6           0       -0.556784    0.044373   -0.000000
      6          9           0       -1.176819   -1.176171    0.000010
      7          9           0       -1.071238    0.707143    1.085289
      8          9           0       -1.071240    0.707126   -1.085299
      9          9           0        1.471743   -1.294719   -0.000001
 ---------------------------------------------------------------------
                    Distance matrix (angstroms):
                    1          2          3          4          5
     1  C    0.000000
     2  H    1.097850   0.000000
     3  H    1.097768   1.871235   0.000000
     4  C    1.340169   2.124365   2.137270   0.000000
     5  C    2.519435   2.738237   3.536880   1.544171   0.000000
     6  F    3.684208   4.073967   4.580745   2.444077   1.369004
     7  F    3.040218   2.932668   4.073617   2.441323   1.371780
     8  F    3.040225   2.932681   4.073622   2.441323   1.371780
     9  F    2.377566   3.365495   2.691068   1.349004   2.430655
                    6          7          8          9
     6  F    0.000000
     7  F    2.176200   0.000000
     8  F    2.176200   2.170587   0.000000
     9  F    2.651214   3.413511   3.413504   0.000000
 Stoichiometry    C3H2F4
 Framework group  C1[X(C3H2F4)]
 Deg. of freedom    21
 Full point group                 C1      NOp   1
 RotChk:  IX=0 Diff= 5.00D-16
 Largest Abelian subgroup         C1      NOp   1
 Largest concise Abelian subgroup C1      NOp   1
                         Standard orientation:                         
 ---------------------------------------------------------------------
 Center     Atomic      Atomic             Coordinates (Angstroms)
 Number     Number       Type             X           Y           Z
 ---------------------------------------------------------------------
      1          6           0        1.681645   -1.150246   -0.000000
      2          1           0        1.177736   -2.125618   -0.000001
      3          1           0        2.779385   -1.158023    0.000000
      4          6           0        0.976081   -0.010846    0.000000
      5          6           0       -0.568082   -0.016101   -0.000000
      6          9           0       -1.127611    1.233338   -0.000010
      7          9           0       -1.114371   -0.652886   -1.085289
      8          9           0       -1.114372   -0.652869    1.085298
      9          9           0        1.523579    1.222060    0.000001
 ---------------------------------------------------------------------
 Rotational constants (GHZ):           3.6340704           2.3065801           1.8811095
 Leave Link  202 at Thu Apr  2 13:26:58 2026, MaxMem=  2147483648 cpu:               0.0 elap:               0.0
 (Enter /Users/yarger/Applications/g16/l301.exe)
 Standard basis: VSTO-6G (5D, 7F)
 Ernie: Thresh=  0.10000D-02 Tol=  0.10000D-05 Strict=F.
  NNHCO=     0 NNPyr=     0 NCTC=     0               EPep=         0.000000000
    EC=       159.780540546  ECS=         1.704364034   EG=         0.438297751
   EHC=         0.000000000  EAt=       -85.052729409  AtH=         1.103463817
 EPDDG=         0.000000000  ECC=       161.923202331 EAtT=        86.156193227
 There are    30 symmetry adapted cartesian basis functions of A   symmetry.
 There are    30 symmetry adapted basis functions of A   symmetry.
    30 basis functions,   180 primitive gaussians,    30 cartesian basis functions
    21 alpha electrons       21 beta electrons
       nuclear repulsion energy       248.0793955576 Hartrees.
 IExCor=    0 DFT=F Ex=HF Corr=None ExCW=0 ScaHFX=  1.000000
 ScaDFX=  1.000000  1.000000  1.000000  1.000000 ScalE2=  1.000000  1.000000
 IRadAn=      5 IRanWt=     -1 IRanGd=            0 ICorTp=0 IEmpDi=  4
 Integral buffers will be    131072 words long.
 Regular integral format.
 Two-electron integral symmetry is turned off.
 Leave Link  301 at Thu Apr  2 13:26:58 2026, MaxMem=  2147483648 cpu:               0.2 elap:               0.0
 (Enter /Users/yarger/Applications/g16/l302.exe)
 Do NDO integrals.
 NPDir=0 NMtPBC=     1 NCelOv=     1 NCel=       1 NClECP=     1 NCelD=      1
         NCelK=      1 NCelE2=     1 NClLst=     1 CellRange=     0.0.
 One-electron integrals computed using PRISM.
 NBasis=    30 RedAO= F EigKep=  0.00D+00  NBF=    30
 NBsUse=    30 1.00D-04 EigRej=  0.00D+00 NBFU=    30
 Leave Link  302 at Thu Apr  2 13:26:58 2026, MaxMem=  2147483648 cpu:               0.4 elap:               0.1
 (Enter /Users/yarger/Applications/g16/l303.exe)
 DipDrv:  MaxL=1.
 Leave Link  303 at Thu Apr  2 13:26:58 2026, MaxMem=  2147483648 cpu:               0.2 elap:               0.0
 (Enter /Users/yarger/Applications/g16/l401.exe)
 Initial guess from the checkpoint file:  "2223Tetrafluoropropene_Opt_Freq_AM1_Gaussian16.chk"
 B after Tr=    -0.000000   -0.000000   -0.000000
         Rot=    1.000000   -0.000000   -0.000000    0.000000 Ang=   0.00 deg.
 Guess basis will be translated and rotated to current coordinates.
 JPrj=0 DoOrth=T DoCkMO=T.
 Leave Link  401 at Thu Apr  2 13:26:58 2026, MaxMem=  2147483648 cpu:               0.3 elap:               0.0
 (Enter /Users/yarger/Applications/g16/l502.exe)
 Keep J ints in memory in canonical form, NReq=861894.
 FoFCou: FMM=F IPFlag=           0 FMFlag=           0 FMFlg1=           0
         NFxFlg=           0 DoJE=F BraDBF=F KetDBF=F FulRan=T
         wScrn=  0.000000 ICntrl=       600 IOpCl=  2 I1Cent=           0 NGrid=           0
         NMat0=    1 NMatS0=     72 NMatT0=    0 NMatD0=    1 NMtDS0=    0 NMtDT0=    0
 Symmetry not used in FoFCou.
 Two-electron integral symmetry not used.
 Closed shell SCF:
 Using DIIS extrapolation, IDIIS=  1040.
 Overlap will be assumed to be unity.
 NGot=  2147483648 LenX=  2147419503 LenY=  2147418162
 Requested convergence on RMS density matrix=1.00D-08 within 128 cycles.
 Requested convergence on MAX density matrix=1.00D-06.
 Requested convergence on             energy=1.00D-06.
 No special actions if energy rises.

 Cycle   1  Pass 1  IDiag  1:
 E=-0.295203079931895    
 DIIS: error= 6.87D-10 at cycle   1 NSaved=   1.
 NSaved= 1 IEnMin= 1 EnMin=-0.295203079931895     IErMin= 1 ErrMin= 6.87D-10
 ErrMax= 6.87D-10  0.00D+00 EMaxC= 1.00D-01 BMatC= 3.20D-17 BMatP= 3.20D-17
 IDIUse=1 WtCom= 1.00D+00 WtEn= 0.00D+00
 Coeff-Com:  0.100D+01
 Coeff:      0.100D+01
 RMSDP=4.00D-10 MaxDP=2.39D-09              OVMax= 0.00D+00

 Cycle   2  Pass 2  IDiag  1:
 SCF Done:  E(RAM1) = -0.295203079932     A.U. after    2 cycles
            NFock=  1  Conv=0.40D-09     -V/T= 0.9979
 KE=-1.431933729525D+02 PE=-3.161639705039D+02 EE= 2.109827448189D+02
 Leave Link  502 at Thu Apr  2 13:26:58 2026, MaxMem=  2147483648 cpu:               0.2 elap:               0.0
 (Enter /Users/yarger/Applications/g16/l801.exe)
 Range of M.O.s used for correlation:     1    30
 NBasis=    30 NAE=    21 NBE=    21 NFC=     0 NFV=     0
 NROrb=     30 NOA=    21 NOB=    21 NVA=     9 NVB=     9
 Leave Link  801 at Thu Apr  2 13:26:58 2026, MaxMem=  2147483648 cpu:               0.1 elap:               0.0
 (Enter /Users/yarger/Applications/g16/l1002.exe)
 Minotr:  Closed shell wavefunction.
          Direct CPHF calculation.
          Differentiating once with respect to electric field.
                with respect to dipole field.
          Electric field/nuclear overlap derivatives assumed to be zero.
          Requested convergence is 1.0D-08 RMS, and 1.0D-07 maximum.
          NewPWx=F KeepS1=T KeepF1=T KeepIn=T MapXYZ=F SortEE=F KeepMc=T.
 Keep J ints in memory in canonical form, NReq=862665.
 FoFCou: FMM=F IPFlag=           0 FMFlag=           0 FMFlg1=           0
         NFxFlg=           0 DoJE=F BraDBF=F KetDBF=F FulRan=T
         wScrn=  0.000000 ICntrl=       600 IOpCl=  2 I1Cent=           0 NGrid=           0
         NMat0=    1 NMatS0=     72 NMatT0=    0 NMatD0=    1 NMtDS0=    0 NMtDT0=    0
 Symmetry not used in FoFCou.
 Two-electron integral symmetry not used.
          MDV=    2147483648 using IRadAn=       1.
          Solving linear equations separately, MaxMat=       0.
          There are     3 degrees of freedom in the 1st order CPHF.  IDoFFX=0 NUNeed=     3.
 LinEq1:  Iter=  0 NonCon=     3 RMS=2.91D-01 Max=2.96D+00 NDo=     3
 AX will form     3 AO Fock derivatives at one time.
 LinEq1:  Iter=  1 NonCon=     3 RMS=3.33D-02 Max=1.19D-01 NDo=     3
 LinEq1:  Iter=  2 NonCon=     3 RMS=3.40D-03 Max=1.31D-02 NDo=     3
 LinEq1:  Iter=  3 NonCon=     3 RMS=4.69D-04 Max=2.63D-03 NDo=     3
 LinEq1:  Iter=  4 NonCon=     3 RMS=6.58D-05 Max=2.47D-04 NDo=     3
 LinEq1:  Iter=  5 NonCon=     3 RMS=7.85D-06 Max=3.53D-05 NDo=     3
 LinEq1:  Iter=  6 NonCon=     3 RMS=9.78D-07 Max=4.32D-06 NDo=     3
 LinEq1:  Iter=  7 NonCon=     3 RMS=1.14D-07 Max=5.42D-07 NDo=     3
 LinEq1:  Iter=  8 NonCon=     2 RMS=1.45D-08 Max=5.68D-08 NDo=     3
 LinEq1:  Iter=  9 NonCon=     0 RMS=1.88D-09 Max=6.20D-09 NDo=     3
 Linear equations converged to 1.000D-08 1.000D-07 after     9 iterations.
 End of Minotr F.D. properties file   721 does not exist.
 End of Minotr F.D. properties file   722 does not exist.
 End of Minotr F.D. properties file   788 does not exist.
 Leave Link 1002 at Thu Apr  2 13:26:58 2026, MaxMem=  2147483648 cpu:               0.3 elap:               0.1
 (Enter /Users/yarger/Applications/g16/l1101.exe)
 Using compressed storage, NAtomX=     9.
 Will process     10 centers per pass.
 Leave Link 1101 at Thu Apr  2 13:26:58 2026, MaxMem=  2147483648 cpu:               0.2 elap:               0.1
 (Enter /Users/yarger/Applications/g16/l1102.exe)
 Symmetrizing basis deriv contribution to polar:
 IMax=3 JMax=2 DiffMx= 0.00D+00
 Leave Link 1102 at Thu Apr  2 13:26:58 2026, MaxMem=  2147483648 cpu:               0.1 elap:               0.0
 (Enter /Users/yarger/Applications/g16/l1110.exe)
 Forming Gx(P) for the SCF density, NAtomX=     9.
 Integral derivatives from FoFJK, PRISM(SPDF).
 Do as many integral derivatives as possible in FoFJK.
 G2DrvN: MDV=    2147423988.
 G2DrvN: will do    10 centers at a time, making    1 passes.
 PxScal for G2LodP:  IOpCl= 0 ISclPx=1 IMOff=     1 NMtTot=     4 NTT=     465 ScalPx= 3.76D+00
 Calling FoFCou, ICntrl=  3107 FMM=F I1Cent=   0 AccDes= 0.00D+00.
 FoFJK:  IHMeth= 8 ICntrl=    3107 DoSepK=F KAlg= 0 I1Cent=           0 FoldK=F
 IRaf=         0 NMat=       1 IRICut=       1 DoRegI=T DoRafI=F ISym2E= 0 IDoP0=3 IntGTp=3.
 FoFCou: FMM=F IPFlag=           0 FMFlag=      100000 FMFlg1=           0
         NFxFlg=           0 DoJE=F BraDBF=F KetDBF=F FulRan=T
         wScrn=  0.000000 ICntrl=      3107 IOpCl=  0 I1Cent=           0 NGrid=           0
         NMat0=    1 NMatS0=      1 NMatT0=    0 NMatD0=    4 NMtDS0=    3 NMtDT0=    0
 Symmetry not used in FoFCou.
 End of G2Drv F.D. properties file   721 does not exist.
 End of G2Drv F.D. properties file   722 does not exist.
 End of G2Drv F.D. properties file   788 does not exist.
 Leave Link 1110 at Thu Apr  2 13:26:58 2026, MaxMem=  2147483648 cpu:               0.2 elap:               0.0
 (Enter /Users/yarger/Applications/g16/l1002.exe)
 Minotr:  Closed shell wavefunction.
          IDoAtm=111111111
          Direct CPHF calculation.
          Differentiating once with respect to electric field.
                with respect to dipole field.
          Differentiating once with respect to nuclear coordinates.
          Electric field/nuclear overlap derivatives assumed to be zero.
          Requested convergence is 1.0D-08 RMS, and 1.0D-07 maximum.
          NewPWx=T KeepS1=F KeepF1=F KeepIn=T MapXYZ=F SortEE=F KeepMc=T.
 Keep J ints in memory in canonical form, NReq=862872.
 FoFCou: FMM=F IPFlag=           0 FMFlag=           0 FMFlg1=           0
         NFxFlg=           0 DoJE=F BraDBF=F KetDBF=F FulRan=T
         wScrn=  0.000000 ICntrl=       600 IOpCl=  2 I1Cent=           0 NGrid=           0
         NMat0=    1 NMatS0=     72 NMatT0=    0 NMatD0=    1 NMtDS0=    0 NMtDT0=    0
 Symmetry not used in FoFCou.
 Two-electron integral symmetry not used.
          MDV=    2147483648 using IRadAn=       1.
          Solving linear equations separately, MaxMat=       0.
          There are    30 degrees of freedom in the 1st order CPHF.  IDoFFX=5 NUNeed=    30.
 Recover   3 previous solutions.
 LinEq1:  Iter=  0 NonCon=    27 RMS=2.91D-02 Max=1.35D-01 NDo=    27
 AX will form    27 AO Fock derivatives at one time.
 LinEq1:  Iter=  1 NonCon=    27 RMS=4.90D-03 Max=2.43D-02 NDo=    27
 LinEq1:  Iter=  2 NonCon=    27 RMS=7.73D-04 Max=4.55D-03 NDo=    27
 LinEq1:  Iter=  3 NonCon=    27 RMS=1.02D-04 Max=6.51D-04 NDo=    27
 LinEq1:  Iter=  4 NonCon=    27 RMS=1.30D-05 Max=5.97D-05 NDo=    27
 LinEq1:  Iter=  5 NonCon=    27 RMS=1.51D-06 Max=7.65D-06 NDo=    27
 LinEq1:  Iter=  6 NonCon=    27 RMS=2.11D-07 Max=1.00D-06 NDo=    27
 LinEq1:  Iter=  7 NonCon=    16 RMS=2.29D-08 Max=1.01D-07 NDo=    27
 LinEq1:  Iter=  8 NonCon=     0 RMS=2.88D-09 Max=1.10D-08 NDo=    27
 Linear equations converged to 1.000D-08 1.000D-07 after     8 iterations.
 FullF1:  Do perturbations      1 to       3.
 Isotropic polarizability for W=    0.000000       29.66 Bohr**3.
 FullF1:  Do perturbations      1 to       6.
 End of Minotr F.D. properties file   721 does not exist.
 End of Minotr F.D. properties file   722 does not exist.
 End of Minotr F.D. properties file   788 does not exist.
 Leave Link 1002 at Thu Apr  2 13:26:58 2026, MaxMem=  2147483648 cpu:               0.3 elap:               0.1
 (Enter /Users/yarger/Applications/g16/l601.exe)
 Copying SCF densities to generalized density rwf, IOpCl= 0 IROHF=0.

 **********************************************************************

            Population analysis using the SCF density.

 **********************************************************************

 Orbital symmetries:
       Occupied  (A) (A) (A) (A) (A) (A) (A) (A) (A) (A) (A) (A)
                 (A) (A) (A) (A) (A) (A) (A) (A) (A)
       Virtual   (A) (A) (A) (A) (A) (A) (A) (A) (A)
 The electronic state is 1-A.
 Alpha  occ. eigenvalues --   -1.92143  -1.85219  -1.79823  -1.79716  -1.25932
 Alpha  occ. eigenvalues --   -1.01448  -0.83809  -0.73710  -0.72746  -0.71783
 Alpha  occ. eigenvalues --   -0.63254  -0.61728  -0.58670  -0.57395  -0.57208
 Alpha  occ. eigenvalues --   -0.55114  -0.54174  -0.54037  -0.53145  -0.47527
 Alpha  occ. eigenvalues --   -0.41013
 Alpha virt. eigenvalues --   -0.00803   0.03497   0.09723   0.11051   0.11333
 Alpha virt. eigenvalues --    0.11513   0.13801   0.14680   0.16883
          Condensed to atoms (all electrons):
               1          2          3          4          5          6
     1  C    4.190669   0.000000   0.000000   0.000000   0.000000   0.000000
     2  H    0.000000   0.847997   0.000000   0.000000   0.000000   0.000000
     3  H    0.000000   0.000000   0.847602   0.000000   0.000000   0.000000
     4  C    0.000000   0.000000   0.000000   4.017577   0.000000   0.000000
     5  C    0.000000   0.000000   0.000000   0.000000   3.557220   0.000000
     6  F    0.000000   0.000000   0.000000   0.000000   0.000000   7.147530
     7  F    0.000000   0.000000   0.000000   0.000000   0.000000   0.000000
     8  F    0.000000   0.000000   0.000000   0.000000   0.000000   0.000000
     9  F    0.000000   0.000000   0.000000   0.000000   0.000000   0.000000
               7          8          9
     1  C    0.000000   0.000000   0.000000
     2  H    0.000000   0.000000   0.000000
     3  H    0.000000   0.000000   0.000000
     4  C    0.000000   0.000000   0.000000
     5  C    0.000000   0.000000   0.000000
     6  F    0.000000   0.000000   0.000000
     7  F    7.156815   0.000000   0.000000
     8  F    0.000000   7.156815   0.000000
     9  F    0.000000   0.000000   7.077772
 Mulliken charges:
               1
     1  C   -0.190669
     2  H    0.152003
     3  H    0.152398
     4  C   -0.017577
     5  C    0.442780
     6  F   -0.147530
     7  F   -0.156815
     8  F   -0.156815
     9  F   -0.077772
 Sum of Mulliken charges =   0.00000
 Mulliken charges with hydrogens summed into heavy atoms:
               1
     1  C    0.113731
     4  C   -0.017577
     5  C    0.442780
     6  F   -0.147530
     7  F   -0.156815
     8  F   -0.156815
     9  F   -0.077772
 APT charges:
               1
     1  C   -0.233575
     2  H    0.146856
     3  H    0.157579
     4  C    0.220069
     5  C    1.270507
     6  F   -0.395979
     7  F   -0.412473
     8  F   -0.412473
     9  F   -0.340512
 Sum of APT charges =  -0.00000
 APT charges with hydrogens summed into heavy atoms:
               1
     1  C    0.070860
     4  C    0.220069
     5  C    1.270507
     6  F   -0.395979
     7  F   -0.412473
     8  F   -0.412473
     9  F   -0.340512
 Charge=              0.0000 electrons
 Dipole moment (field-independent basis, Debye):
    X=              1.9479    Y=             -1.5923    Z=             -0.0000  Tot=              2.5159
 N-N= 2.480793955576D+02 E-N=-3.161639705020D+02  KE=-1.431933729525D+02
  Exact polarizability:  33.435  -7.771  40.890   0.000   0.000  14.651
 Approx polarizability:  20.323  -5.070  33.386  -0.000   0.000  11.527
 Leave Link  601 at Thu Apr  2 13:26:58 2026, MaxMem=  2147483648 cpu:               0.1 elap:               0.0
 (Enter /Users/yarger/Applications/g16/l701.exe)
 ... and contract with generalized density number  0.
 Compute integral second derivatives.
 Leave Link  701 at Thu Apr  2 13:26:58 2026, MaxMem=  2147483648 cpu:               0.3 elap:               0.1
 (Enter /Users/yarger/Applications/g16/l702.exe)
 L702 exits ... SP integral derivatives will be done elsewhere.
 Leave Link  702 at Thu Apr  2 13:26:58 2026, MaxMem=  2147483648 cpu:               0.1 elap:               0.0
 (Enter /Users/yarger/Applications/g16/l703.exe)
 Integral derivatives from FoFJK, PRISM(SPDF).
 Compute integral second derivatives, UseDBF=F ICtDFT=           0.
 Calling FoFJK, ICntrl=    100127 FMM=F ISym2X=0 I1Cent= 0 IOpClX= 0 NMat=1 NMatS=1 NMatT=0.
 FoFJK:  IHMeth= 8 ICntrl=  100127 DoSepK=F KAlg= 0 I1Cent=           0 FoldK=F
 IRaf=         0 NMat=       1 IRICut=       1 DoRegI=T DoRafI=F ISym2E= 0 IDoP0=3 IntGTp=3.
 FoFCou: FMM=F IPFlag=           0 FMFlag=      100000 FMFlg1=         800
         NFxFlg=           0 DoJE=F BraDBF=F KetDBF=F FulRan=T
         wScrn=  0.000000 ICntrl=    100127 IOpCl=  0 I1Cent=           0 NGrid=           0
         NMat0=    1 NMatS0=      1 NMatT0=    0 NMatD0=    1 NMtDS0=    0 NMtDT0=    0
 Symmetry not used in FoFCou.
 Leave Link  703 at Thu Apr  2 13:26:59 2026, MaxMem=  2147483648 cpu:               0.2 elap:               0.0
 (Enter /Users/yarger/Applications/g16/l716.exe)
 Dipole        = 7.66364179D-01-6.26455759D-01-1.96927281D-07
 Polarizability= 3.34352636D+01-7.77121230D+00 4.08895165D+01
                 1.11042723D-06 9.77866457D-06 1.46505749D+01
 HyperPolar    = 6.11596916D+01-2.13128788D+01 2.33877116D+00
                -9.71820097D+01-7.55489834D-06-1.69577389D-05
                 1.07474541D-04 1.28012666D+01 4.91432309D+00
                -1.86288139D-04
 Full mass-weighted force constant matrix:
 Low frequencies ---  -22.4201   -0.3247   -0.0752   -0.0005    0.1620    0.7566
 Low frequencies ---    0.8300  221.9475  260.7738
 ******    1 imaginary frequencies (negative Signs) ****** 
 Diagonal vibrational polarizability:
        6.4818055       4.3763491      91.3158589
 Diagonal vibrational hyperpolarizability:
       30.5361528       8.7625315      -0.0033214
 Harmonic frequencies (cm**-1), IR intensities (KM/Mole), Raman scattering
 activities (A**4/AMU), depolarization ratios for plane and unpolarized
 incident light, reduced masses (AMU), force constants (mDyne/A),
 and normal coordinates:
                      1                      2                      3
                      A                      A                      A
 Frequencies --    -22.4201               221.9475               260.7738
 Red. masses --      7.0283                 6.5806                 8.6389
 Frc consts  --      0.0021                 0.1910                 0.3461
 IR Inten    --      1.6145                 2.3938                 0.1571
 Raman Activ --      4.6060                 1.0920                 7.6942
 Depolar (P) --      0.7500                 0.7401                 0.7500
 Depolar (U) --      0.8571                 0.8506                 0.8571
  Atom  AN      X      Y      Z        X      Y      Z        X      Y      Z
     1   6     0.00   0.00  -0.38     0.30   0.06  -0.00     0.00  -0.00   0.25
     2   1     0.00   0.00  -0.68     0.61  -0.09   0.00     0.00  -0.00   0.10
     3   1     0.00   0.00  -0.38     0.31   0.40  -0.00     0.00   0.00   0.72
     4   6     0.00  -0.00  -0.03     0.00  -0.13   0.00     0.00  -0.00  -0.16
     5   6    -0.00  -0.00  -0.01     0.00  -0.11   0.00     0.00  -0.00  -0.20
     6   9     0.00  -0.00  -0.21     0.33   0.05   0.00    -0.00  -0.00  -0.12
     7   9    -0.01  -0.18   0.10    -0.16   0.02   0.01    -0.38   0.05  -0.03
     8   9     0.01   0.18   0.10    -0.16   0.02  -0.01     0.38  -0.05  -0.03
     9   9    -0.00  -0.00   0.34    -0.27   0.00  -0.00    -0.00  -0.00   0.19
                      4                      5                      6
                      A                      A                      A
 Frequencies --    369.1179               384.2123               430.2996
 Red. masses --      4.8304                15.5798                10.0541
 Frc consts  --      0.3878                 1.3550                 1.0968
 IR Inten    --      2.5136                 3.5808                 5.0567
 Raman Activ --      5.9347                 2.8145                 0.9426
 Depolar (P) --      0.6623                 0.7338                 0.7500
 Depolar (U) --      0.7969                 0.8465                 0.8571
  Atom  AN      X      Y      Z        X      Y      Z        X      Y      Z
     1   6    -0.28  -0.06  -0.00     0.06   0.22   0.00     0.00   0.00   0.08
     2   1    -0.66   0.12  -0.00     0.12   0.19   0.00     0.00   0.00  -0.20
     3   1    -0.30  -0.47  -0.00     0.06   0.30  -0.00    -0.00   0.00   0.63
     4   6    -0.01   0.09   0.00     0.04   0.22   0.00     0.00   0.00  -0.29
     5   6     0.02   0.00   0.00    -0.01   0.08   0.00     0.00   0.00  -0.26
     6   9     0.24   0.10  -0.00     0.06   0.10  -0.00     0.00   0.00   0.43
     7   9     0.07  -0.12   0.05    -0.29  -0.26   0.33     0.04  -0.31  -0.11
     8   9     0.07  -0.12  -0.05    -0.29  -0.26  -0.33    -0.04   0.31  -0.11
     9   9    -0.16   0.14   0.00     0.46   0.06   0.00     0.00  -0.00   0.05
                      7                      8                      9
                      A                      A                      A
 Frequencies --    556.1476               607.0476               625.8223
 Red. masses --      7.1536                 7.7347                 1.1170
 Frc consts  --      1.3036                 1.6793                 0.2578
 IR Inten    --     13.8237                32.3092                 2.2344
 Raman Activ --      2.0176                 4.1193                 5.2477
 Depolar (P) --      0.7329                 0.7006                 0.7500
 Depolar (U) --      0.8458                 0.8239                 0.8571
  Atom  AN      X      Y      Z        X      Y      Z        X      Y      Z
     1   6     0.07   0.00   0.00     0.13  -0.25  -0.00     0.00   0.00   0.00
     2   1     0.53  -0.21   0.00    -0.21  -0.09   0.00    -0.00  -0.00   0.71
     3   1     0.09   0.53   0.00     0.12  -0.68  -0.00     0.00   0.00  -0.70
     4   6    -0.17  -0.14  -0.00     0.28  -0.13   0.00    -0.00  -0.00   0.02
     5   6    -0.14   0.25   0.00     0.24   0.15   0.00    -0.00   0.00  -0.04
     6   9    -0.09   0.34  -0.00    -0.19  -0.02  -0.00    -0.00   0.00   0.02
     7   9     0.15  -0.11   0.08    -0.02   0.07   0.26    -0.02  -0.03  -0.02
     8   9     0.15  -0.11  -0.08    -0.02   0.07  -0.26     0.02   0.03  -0.02
     9   9    -0.10  -0.20  -0.00    -0.19   0.07  -0.00    -0.00  -0.00   0.03
                     10                     11                     12
                      A                      A                      A
 Frequencies --    699.2831               873.5312              1035.1002
 Red. masses --      7.1859                 4.1328                 1.9637
 Frc consts  --      2.0703                 1.8580                 1.2396
 IR Inten    --     10.5570                 7.1006                 9.3402
 Raman Activ --     15.4126                16.4273                 7.3604
 Depolar (P) --      0.7500                 0.0955                 0.3168
 Depolar (U) --      0.8571                 0.1744                 0.4811
  Atom  AN      X      Y      Z        X      Y      Z        X      Y      Z
     1   6     0.00   0.00  -0.07    -0.20   0.09  -0.00    -0.10  -0.18  -0.00
     2   1     0.00   0.00  -0.70     0.32  -0.15  -0.00     0.63  -0.53  -0.00
     3   1     0.00  -0.00  -0.03    -0.18   0.79   0.00    -0.06   0.50  -0.00
     4   6    -0.00  -0.00   0.63    -0.20   0.02   0.00     0.07  -0.02  -0.00
     5   6    -0.00   0.00  -0.14     0.19  -0.00   0.00    -0.01   0.00  -0.00
     6   9    -0.00   0.00   0.07     0.06  -0.17   0.00    -0.01   0.02  -0.00
     7   9    -0.13  -0.09  -0.09     0.05   0.08   0.14    -0.01  -0.02  -0.03
     8   9     0.13   0.09  -0.09     0.05   0.08  -0.14    -0.01  -0.02   0.03
     9   9     0.00   0.00  -0.11    -0.03  -0.09  -0.00     0.03   0.14   0.00
                     13                     14                     15
                      A                      A                      A
 Frequencies --   1045.5624              1352.2453              1408.1489
 Red. masses --      1.3350                 1.9278                 2.3438
 Frc consts  --      0.8599                 2.0769                 2.7382
 IR Inten    --     48.6390                60.5908                82.6802
 Raman Activ --     11.3010                11.9403                16.2755
 Depolar (P) --      0.7500                 0.7482                 0.7225
 Depolar (U) --      0.8571                 0.8559                 0.8389
  Atom  AN      X      Y      Z        X      Y      Z        X      Y      Z
     1   6     0.00  -0.00  -0.17    -0.03  -0.01  -0.00    -0.06   0.09   0.00
     2   1    -0.00  -0.00   0.68    -0.52   0.27  -0.00     0.60  -0.26   0.00
     3   1    -0.00  -0.00   0.71    -0.03   0.77   0.00    -0.05  -0.68  -0.00
     4   6     0.00  -0.00   0.05     0.13   0.02   0.00    -0.05   0.05   0.00
     5   6    -0.00  -0.00  -0.00     0.18   0.00   0.00     0.27  -0.00  -0.00
     6   9    -0.00   0.00   0.00    -0.04   0.06  -0.00    -0.04   0.07  -0.00
     7   9     0.00   0.00   0.00    -0.04  -0.03  -0.06    -0.04  -0.03  -0.06
     8   9    -0.00  -0.00   0.00    -0.04  -0.03   0.06    -0.04  -0.03   0.06
     9   9     0.00   0.00   0.00    -0.04  -0.06  -0.00    -0.02  -0.04  -0.00
                     16                     17                     18
                      A                      A                      A
 Frequencies --   1478.8405              1483.9895              1511.5473
 Red. masses --      6.7100                13.2974                13.2414
 Frc consts  --      8.6460                17.2535                17.8250
 IR Inten    --     36.9190               175.9839               126.8374
 Raman Activ --      2.8654                 4.8135                 3.2127
 Depolar (P) --      0.4877                 0.7500                 0.7441
 Depolar (U) --      0.6557                 0.8571                 0.8533
  Atom  AN      X      Y      Z        X      Y      Z        X      Y      Z
     1   6    -0.17   0.14   0.00     0.00  -0.00   0.00     0.02  -0.00  -0.00
     2   1     0.66  -0.23   0.00    -0.00   0.00   0.00     0.08  -0.03   0.00
     3   1    -0.14  -0.12   0.00     0.00   0.00   0.12     0.03  -0.07  -0.00
     4   6     0.47   0.27   0.00    -0.00  -0.00  -0.06     0.05   0.02   0.00
     5   6    -0.24  -0.06   0.00     0.00   0.00   0.88    -0.03   0.89  -0.00
     6   9     0.02  -0.02   0.00    -0.00   0.00  -0.02     0.15  -0.33   0.00
     7   9     0.01   0.02   0.04    -0.13  -0.14  -0.26    -0.07  -0.09  -0.13
     8   9     0.01   0.02  -0.04     0.13   0.14  -0.26    -0.07  -0.09   0.13
     9   9    -0.10  -0.23  -0.00     0.00   0.00   0.01    -0.04  -0.05  -0.00
                     19                     20                     21
                      A                      A                      A
 Frequencies --   1873.7088              3181.5954              3209.1895
 Red. masses --     10.2673                 1.1079                 1.0521
 Frc consts  --     21.2379                 6.6076                 6.3840
 IR Inten    --     11.4496                46.1692                69.3913
 Raman Activ --     67.8777                91.7616               104.2572
 Depolar (P) --      0.3224                 0.7366                 0.1540
 Depolar (U) --      0.4875                 0.8484                 0.2669
  Atom  AN      X      Y      Z        X      Y      Z        X      Y      Z
     1   6     0.27  -0.45  -0.00    -0.08  -0.05  -0.00    -0.03   0.05   0.00
     2   1    -0.13  -0.25  -0.00     0.30   0.65   0.00    -0.33  -0.62  -0.00
     3   1     0.29   0.06   0.00     0.70  -0.03   0.00     0.71   0.00   0.00
     4   6    -0.25   0.69   0.00    -0.00  -0.00  -0.00     0.00  -0.00   0.00
     5   6     0.03  -0.03   0.00     0.00  -0.00   0.00    -0.00  -0.00  -0.00
     6   9     0.01  -0.00   0.00     0.00   0.00  -0.00     0.00   0.00  -0.00
     7   9    -0.00   0.00  -0.00     0.00  -0.00   0.00     0.00   0.00   0.00
     8   9    -0.00   0.00   0.00     0.00  -0.00  -0.00     0.00   0.00  -0.00
     9   9    -0.05  -0.12  -0.00     0.00   0.00   0.00    -0.00  -0.00  -0.00

 -------------------
 - Thermochemistry -
 -------------------
 Temperature   298.150 Kelvin.  Pressure   1.00000 Atm.
 Atom     1 has atomic number  6 and mass  12.00000
 Atom     2 has atomic number  1 and mass   1.00783
 Atom     3 has atomic number  1 and mass   1.00783
 Atom     4 has atomic number  6 and mass  12.00000
 Atom     5 has atomic number  6 and mass  12.00000
 Atom     6 has atomic number  9 and mass  18.99840
 Atom     7 has atomic number  9 and mass  18.99840
 Atom     8 has atomic number  9 and mass  18.99840
 Atom     9 has atomic number  9 and mass  18.99840
 Molecular mass:   114.00926 amu.
 Principal axes and moments of inertia in atomic units:
                           1         2         3
     Eigenvalues --   496.61701 782.43160 959.40252
           X            0.99517  -0.09822  -0.00000
           Y            0.09822   0.99517  -0.00000
           Z            0.00000   0.00000   1.00000
 This molecule is an asymmetric top.
 Rotational symmetry number  1.
 Warning -- assumption of classical behavior for rotation
           may cause significant error
 Rotational temperatures (Kelvin)      0.17441     0.11070     0.09028
 Rotational constants (GHZ):           3.63407     2.30658     1.88111
    1 imaginary frequencies ignored.
 Zero-point vibrational energy     135226.5 (Joules/Mol)
                                   32.31992 (Kcal/Mol)
 Warning -- explicit consideration of   7 degrees of freedom as
           vibrations may cause significant error
 Vibrational temperatures:    319.33   375.20   531.08   552.80   619.11
          (Kelvin)            800.17   873.41   900.42  1006.11  1256.82
                             1489.28  1504.33  1945.58  2026.01  2127.72
                             2135.13  2174.78  2695.85  4577.61  4617.31
 
 Zero-point correction=                           0.051505 (Hartree/Particle)
 Thermal correction to Energy=                    0.057039
 Thermal correction to Enthalpy=                  0.057984
 Thermal correction to Gibbs Free Energy=         0.021797
 Sum of electronic and zero-point Energies=             -0.243698
 Sum of electronic and thermal Energies=                -0.238164
 Sum of electronic and thermal Enthalpies=              -0.237220
 Sum of electronic and thermal Free Energies=           -0.273406
 
                     E (Thermal)             CV                S
                      KCal/Mol        Cal/Mol-Kelvin    Cal/Mol-Kelvin
 Total                   35.793             19.595             76.161
 Electronic               0.000              0.000              0.000
 Translational            0.889              2.981             40.109
 Rotational               0.889              2.981             27.413
 Vibrational             34.015             13.633              8.639
 Vibration     1          0.648              1.808              1.943
 Vibration     2          0.669              1.744              1.657
 Vibration     3          0.741              1.536              1.083
 Vibration     4          0.753              1.504              1.023
 Vibration     5          0.791              1.404              0.858
 Vibration     6          0.912              1.126              0.532
 Vibration     7          0.966              1.017              0.438
                       Q            Log10(Q)             Ln(Q)
 Total Bot       0.942261D-10        -10.025829        -23.085324
 Total V=0       0.462206D+14         13.664836         31.464447
 Vib (Bot)       0.901005D-23        -23.045273        -53.063702
 Vib (Bot)    1  0.890487D+00         -0.050372         -0.115986
 Vib (Bot)    2  0.744544D+00         -0.128110         -0.294984
 Vib (Bot)    3  0.493523D+00         -0.306692         -0.706185
 Vib (Bot)    4  0.469196D+00         -0.328645         -0.756734
 Vib (Bot)    5  0.404829D+00         -0.392728         -0.904290
 Vib (Bot)    6  0.280510D+00         -0.552052         -1.271147
 Vib (Bot)    7  0.244192D+00         -0.612269         -1.409801
 Vib (V=0)       0.441969D+01          0.645392          1.486069
 Vib (V=0)    1  0.152126D+01          0.182203          0.419538
 Vib (V=0)    2  0.139685D+01          0.145151          0.334222
 Vib (V=0)    3  0.120254D+01          0.080100          0.184438
 Vib (V=0)    4  0.118567D+01          0.073964          0.170309
 Vib (V=0)    5  0.114334D+01          0.058175          0.133954
 Vib (V=0)    6  0.107331D+01          0.030726          0.070748
 Vib (V=0)    7  0.105644D+01          0.023846          0.054908
 Electronic      0.100000D+01          0.000000          0.000000
 Translational   0.478480D+08          7.679864         17.683541
 Rotational      0.218565D+06          5.339580         12.294837
 
                                                 r1234yf - 2,3,3,3-Tetrafluoropro
 pene
                                                             IR Spectrum
 
     3 3                                                  1             111  1 1           11                                        
     2 1                                                  8             544  4 3           00     8      6 66 5    4 33   2 2        
     0 8                                                  7             187  0 5           43     7      9 20 5    3 86   6 2        
     9 2                                                  4             249  8 2           65     4      9 67 6    0 49   1 2        
 
     X X                                                  X             XXX  X X           XX     X      X XX X    X XX   X X        
     X X                                                                XXX  X X           X                X X                      
     X X                                                                XXX  X X           X                X                        
     X X                                                                XXX  X X           X                X                        
     X X                                                                XX   X X           X                                         
     X                                                                  XX   X X           X                                         
     X                                                                  XX   X X                                                     
     X                                                                  XX   X                                                       
                                                                        XX   X                                                       
                                                                        XX                                                           
                                                                        XX                                                           
                                                                        XX                                                           
                                                                        XX                                                           
                                                                        XX                                                           
                                                                         X                                                           
                                                                         X                                                           
                                                                         X                                                           
                                                                         X                                                           
                                                                         X                                                           
                                                                         X                                                           
 
 
                                                 r1234yf - 2,3,3,3-Tetrafluoropro
 pene
                                                            Raman Spectrum
 
     3 3                                                  1             111  1 1           11                                        
     2 1                                                  8             544  4 3           00     8      6 66 5    4 33   2 2        
     0 8                                                  7             187  0 5           43     7      9 20 5    3 86   6 2        
     9 2                                                  4             249  8 2           65     4      9 67 6    0 49   1 2        
 
     X X                                                  X             XXX  X X           XX     X      X XX X    X XX   X X        
     X X                                                  X                  X X           X      X      X                           
     X X                                                  X                  X                    X      X                           
     X X                                                  X                                                                          
     X X                                                  X                                                                          
     X X                                                  X                                                                          
     X X                                                  X                                                                          
     X X                                                  X                                                                          
     X X                                                  X                                                                          
     X X                                                  X                                                                          
     X X                                                  X                                                                          
     X X                                                  X                                                                          
     X X                                                  X                                                                          
     X X                                                                                                                             
     X X                                                                                                                             
     X X                                                                                                                             
     X X                                                                                                                             
     X X                                                                                                                             
     X                                                                                                                               
     X                                                                                                                               
 
 ***** Axes restored to original set *****
 -------------------------------------------------------------------
 Center     Atomic                   Forces (Hartrees/Bohr)
 Number     Number              X              Y              Z
 -------------------------------------------------------------------
      1        6          -0.000001567   -0.000002853   -0.000000001
      2        1           0.000000243    0.000000530    0.000000005
      3        1          -0.000000219    0.000000928    0.000000004
      4        6           0.000002250    0.000001691   -0.000000017
      5        6          -0.000000263    0.000000652    0.000000006
      6        9           0.000000114    0.000000007    0.000000002
      7        9          -0.000000047   -0.000000132   -0.000000820
      8        9          -0.000000048   -0.000000136    0.000000817
      9        9          -0.000000464   -0.000000688    0.000000004
 -------------------------------------------------------------------
 Cartesian Forces:  Max     0.000002853 RMS     0.000000910
 Force constants in Cartesian coordinates: 
                1             2             3             4             5 
      1  0.703570D+00
      2  0.163132D+00  0.852840D+00
      3  0.000000D+00  0.000000D+00  0.128223D+00
      4 -0.886230D-01  0.111641D+00  0.000000D+00  0.981431D-01
      5  0.105461D+00 -0.268521D+00  0.000000D+00 -0.114942D+00  0.313071D+00
      6  0.000000D+00  0.000000D+00 -0.406375D-01  0.000000D+00  0.000000D+00
      7 -0.318131D+00  0.117826D-01  0.000000D+00 -0.164046D-01  0.809462D-02
      8  0.175176D-01 -0.392394D-01  0.000000D+00  0.241493D-01 -0.317502D-02
      9  0.000000D+00  0.000000D+00 -0.432428D-01  0.000000D+00  0.000000D+00
     10 -0.259566D+00 -0.253420D+00  0.000000D+00  0.734940D-02  0.502135D-02
     11 -0.255565D+00 -0.439435D+00  0.000000D+00 -0.166165D-01 -0.404671D-01
     12  0.000000D+00  0.000000D+00 -0.563840D-01  0.000000D+00  0.000000D+00
     13 -0.406887D-01 -0.183539D-01  0.000000D+00  0.514200D-03 -0.297642D-02
     14 -0.279460D-01 -0.189259D-02  0.000000D+00 -0.224997D-02 -0.864247D-04
     15  0.000000D+00  0.000000D+00  0.356089D-02  0.000000D+00  0.000000D+00
     16 -0.582857D-02  0.121658D-02  0.000000D+00  0.115484D-03  0.495666D-03
     17 -0.190218D-02  0.936135D-03  0.000000D+00  0.374883D-03  0.253919D-04
     18  0.000000D+00  0.000000D+00  0.415492D-03  0.000000D+00  0.000000D+00
     19 -0.268155D-02  0.161227D-03  0.104827D-02  0.381894D-04  0.550132D-03
     20  0.203459D-03 -0.255803D-03  0.203793D-04  0.705026D-03 -0.216493D-03
     21  0.110021D-02 -0.224511D-03  0.127641D-04 -0.473201D-05 -0.659394D-04
     22 -0.268154D-02  0.161243D-03 -0.104826D-02  0.381946D-04  0.550144D-03
     23  0.203461D-03 -0.255813D-03 -0.203786D-04  0.705017D-03 -0.216484D-03
     24 -0.110021D-02  0.224529D-03  0.127538D-04  0.473801D-05  0.659457D-04
     25  0.146297D-01 -0.163214D-01  0.000000D+00 -0.117103D-02 -0.225390D-02
     26 -0.110448D-02 -0.104176D+00  0.000000D+00 -0.376679D-02 -0.413838D-03
     27  0.000000D+00  0.000000D+00  0.803896D-02  0.000000D+00  0.000000D+00
                6             7             8             9            10 
      6  0.228061D-01
      7  0.000000D+00  0.363169D+00
      8  0.000000D+00 -0.756671D-02  0.481623D-01
      9  0.855887D-02  0.000000D+00  0.000000D+00  0.229574D-01
     10  0.000000D+00 -0.271788D-01 -0.330490D-01  0.000000D+00  0.691874D+00
     11  0.000000D+00 -0.128903D-01 -0.316644D-02  0.000000D+00  0.117651D+00
     12  0.132327D-02  0.000000D+00  0.000000D+00  0.678508D-02  0.000000D+00
     13  0.000000D+00 -0.153125D-02 -0.526448D-03  0.000000D+00 -0.177155D+00
     14  0.000000D+00 -0.596906D-03 -0.264230D-02  0.000000D+00 -0.614790D-02
     15 -0.140447D-02  0.000000D+00  0.000000D+00  0.930544D-02  0.000000D+00
     16  0.000000D+00 -0.906142D-04 -0.914594D-03  0.000000D+00 -0.460826D-01
     17  0.000000D+00 -0.117537D-03 -0.231030D-03  0.000000D+00 -0.274337D-01
     18  0.402035D-04  0.000000D+00  0.000000D+00 -0.565202D-03  0.000000D+00
     19  0.973445D-04  0.325864D-03 -0.153539D-03 -0.139661D-02 -0.400741D-01
     20 -0.472710D-03 -0.794482D-04  0.268309D-03  0.487979D-03  0.188935D-01
     21 -0.325447D-03 -0.393922D-04  0.118136D-03  0.822069D-04  0.254105D-01
     22 -0.973505D-04  0.325865D-03 -0.153549D-03  0.139663D-02 -0.400743D-01
     23  0.472710D-03 -0.794457D-04  0.268307D-03 -0.487977D-03  0.188932D-01
     24 -0.325446D-03  0.393911D-04 -0.118138D-03  0.822182D-04 -0.254108D-01
     25  0.000000D+00 -0.483799D-03  0.696925D-03  0.000000D+00 -0.109093D+00
     26  0.000000D+00  0.145312D-02 -0.244627D-03  0.000000D+00  0.159591D+00
     27  0.996442D-02  0.000000D+00  0.000000D+00 -0.396296D-02  0.000000D+00
               11            12            13            14            15 
     11  0.103058D+01
     12  0.000000D+00  0.172135D+00
     13  0.156755D-02  0.000000D+00  0.652127D+00
     14 -0.597283D-01  0.000000D+00  0.361410D-02  0.766058D+00
     15  0.000000D+00 -0.723809D-01  0.000000D+00  0.000000D+00  0.718471D+00
     16 -0.450881D-01  0.000000D+00 -0.151780D+00 -0.179231D+00  0.149895D-05
     17 -0.168120D-01  0.000000D+00 -0.195341D+00 -0.384906D+00  0.279490D-05
     18  0.000000D+00  0.879556D-02  0.160783D-05  0.276502D-05 -0.444633D-01
     19  0.235099D-01  0.359047D-01 -0.118499D+00  0.810332D-01  0.134656D+00
     20 -0.535760D-03 -0.126021D-01  0.873107D-01 -0.144505D+00 -0.163534D+00
     21 -0.126333D-01 -0.875577D-02  0.143864D+00 -0.164045D+00 -0.311199D+00
     22  0.235093D-01 -0.359051D-01 -0.118499D+00  0.810314D-01 -0.134657D+00
     23 -0.535330D-03  0.126019D-01  0.873086D-01 -0.144500D+00  0.163532D+00
     24  0.126331D-01 -0.875607D-02 -0.143866D+00  0.164042D+00 -0.311204D+00
     25  0.163921D+00  0.000000D+00 -0.444886D-01  0.504927D-01  0.000000D+00
     26 -0.469898D+00  0.000000D+00  0.373972D-01 -0.277982D-01  0.000000D+00
     27  0.000000D+00 -0.427620D-01  0.000000D+00  0.000000D+00  0.931420D-02
               16            17            18            19            20 
     16  0.179116D+00
     17  0.227212D+00  0.505429D+00
     18 -0.185517D-05 -0.366690D-05  0.548993D-01
     19  0.116749D-01 -0.117952D-02 -0.554933D-02  0.142096D+00
     20 -0.205422D-02 -0.535530D-01 -0.368705D-01 -0.101235D+00  0.185026D+00
     21 -0.594825D-02 -0.381285D-01 -0.945892D-02 -0.165525D+00  0.213962D+00
     22  0.116750D-01 -0.117938D-02  0.554931D-02  0.116539D-01 -0.398598D-02
     23 -0.205408D-02 -0.535519D-01  0.368712D-01 -0.398596D-02  0.128105D-01
     24  0.594826D-02  0.381292D-01 -0.946012D-02  0.705318D-03 -0.896706D-03
     25  0.120021D-02 -0.433689D-03  0.000000D+00 -0.453479D-02  0.241649D-03
     26  0.417460D-03  0.266323D-02  0.000000D+00  0.129905D-02  0.961633D-03
     27  0.000000D+00  0.000000D+00 -0.203048D-03  0.597927D-04 -0.942871D-04
               21            22            23            24            25 
     21  0.406562D+00
     22 -0.705369D-03  0.142097D+00
     23  0.895307D-03 -0.101232D+00  0.185019D+00
     24 -0.763823D-01  0.165527D+00 -0.213958D+00  0.406568D+00
     25  0.184771D-02 -0.453472D-02  0.241603D-03 -0.184771D-02  0.148476D+00
     26  0.121999D-03  0.129904D-02  0.961621D-03 -0.121982D-03 -0.196586D+00
     27 -0.535268D-03 -0.597771D-04  0.942726D-04 -0.535270D-03  0.000000D+00
               26            27 
     26  0.597944D+00
     27  0.000000D+00  0.206812D-01
 FormGI is forming the generalized inverse of G from B-inverse, IUseBI=4.
 Force constants in internal coordinates: 
                1             2             3             4             5 
      1  0.362855D+00
      2  0.147002D-01  0.363249D+00
      3  0.247785D-01  0.253528D-01  0.802443D+00
      4  0.153347D-02  0.854276D-03  0.448488D-01  0.409565D+00
      5 -0.167094D-02 -0.154852D-02  0.796678D-01  0.585849D-01  0.671738D+00
      6 -0.644261D-04  0.119721D-03  0.149015D-02  0.475335D-01  0.233438D-02
      7 -0.464197D-03 -0.203366D-03  0.828931D-03  0.505951D-01  0.111357D-02
      8 -0.464191D-03 -0.203363D-03  0.828902D-03  0.505950D-01  0.111358D-02
      9  0.451013D-02  0.468861D-02 -0.352963D-01 -0.107753D-02 -0.210940D-02
     10  0.165051D-01 -0.210822D-01  0.183828D-01 -0.128989D-02  0.335793D-02
     11 -0.210152D-01  0.163936D-01  0.169135D-01  0.236741D-02 -0.124853D-02
     12  0.327970D-03  0.120502D-02  0.986051D-02  0.180477D-01 -0.686353D-01
     13  0.115089D-02 -0.665170D-03  0.443860D-01 -0.552222D-01  0.416129D-01
     14 -0.147886D-02 -0.539855D-03 -0.542465D-01  0.371745D-01  0.270224D-01
     15 -0.686729D-03  0.179069D-03  0.361235D-02  0.324527D-01 -0.465357D-02
     16 -0.289387D-03 -0.405078D-03  0.818777D-04  0.361519D-01  0.454267D-02
     17 -0.289409D-03 -0.405079D-03  0.818435D-04  0.361518D-01  0.454257D-02
     18  0.347360D-03  0.161370D-03 -0.181504D-02 -0.395153D-01 -0.127354D-02
     19  0.347370D-03  0.161371D-03 -0.181502D-02 -0.395153D-01 -0.127353D-02
     20  0.756765D-03  0.395403D-03 -0.702752D-03 -0.406228D-01 -0.245448D-02
     21  0.000000D+00  0.000000D+00  0.000000D+00  0.000000D+00  0.000000D+00
     22  0.000000D+00  0.000000D+00  0.000000D+00  0.000000D+00  0.000000D+00
     23  0.000000D+00  0.000000D+00  0.000000D+00  0.000000D+00  0.000000D+00
     24  0.000000D+00  0.000000D+00  0.000000D+00  0.000000D+00  0.000000D+00
     25  0.000000D+00  0.000000D+00  0.000000D+00  0.000000D+00  0.000000D+00
     26 -0.284235D-03  0.407788D-04  0.403287D-03 -0.114837D-03 -0.176527D-02
     27  0.284228D-03 -0.407791D-04 -0.403282D-03  0.114831D-03  0.176530D-02
     28  0.000000D+00  0.000000D+00  0.000000D+00  0.000000D+00  0.000000D+00
     29 -0.284234D-03  0.407785D-04  0.403273D-03 -0.114819D-03 -0.176528D-02
     30  0.284228D-03 -0.407794D-04 -0.403296D-03  0.114849D-03  0.176529D-02
                6             7             8             9            10 
      6  0.621987D+00
      7  0.541317D-01  0.616134D+00
      8  0.541317D-01  0.549873D-01  0.616134D+00
      9 -0.118618D-03 -0.287113D-03 -0.287101D-03  0.653915D-01
     10 -0.106099D-02  0.915567D-05  0.912747D-05 -0.329005D-01  0.769532D-01
     11  0.117961D-02  0.277958D-03  0.277974D-03 -0.324910D-01 -0.440527D-01
     12  0.607902D-02  0.551150D-03  0.551157D-03 -0.104076D-02 -0.607492D-02
     13 -0.167466D-02 -0.420812D-02 -0.420807D-02 -0.177101D-02  0.911277D-02
     14 -0.440436D-02  0.365697D-02  0.365691D-02  0.281176D-02 -0.303785D-02
     15  0.267449D-01 -0.305233D-01 -0.305233D-01 -0.110460D-02 -0.587557D-03
     16 -0.304403D-01  0.266685D-01 -0.297820D-01  0.533889D-03 -0.603945D-03
     17 -0.304403D-01 -0.297820D-01  0.266685D-01  0.533879D-03 -0.603961D-03
     18  0.182944D-01  0.178479D-01  0.200697D-02 -0.374187D-04  0.965453D-03
     19  0.182944D-01  0.200697D-02  0.178479D-01 -0.374185D-04  0.965462D-03
     20  0.186667D-02  0.188500D-01  0.188500D-01  0.130368D-03  0.114340D-03
     21  0.000000D+00 -0.504244D-03  0.504246D-03  0.000000D+00  0.000000D+00
     22  0.000000D+00 -0.425704D-03  0.425698D-03  0.000000D+00  0.000000D+00
     23  0.000000D+00 -0.763243D-03  0.763257D-03  0.000000D+00  0.000000D+00
     24  0.000000D+00 -0.684702D-03  0.684709D-03  0.000000D+00  0.000000D+00
     25  0.000000D+00 -0.214811D-01  0.214810D-01  0.000000D+00  0.000000D+00
     26  0.214632D-01 -0.488385D-03 -0.220993D-01 -0.484201D-03  0.374761D-03
     27 -0.214632D-01  0.220993D-01  0.488368D-03  0.484206D-03 -0.374768D-03
     28  0.000000D+00 -0.215522D-01  0.215522D-01  0.000000D+00  0.000000D+00
     29  0.214632D-01 -0.559493D-03 -0.220281D-01 -0.484202D-03  0.374763D-03
     30 -0.214632D-01  0.220282D-01  0.559487D-03  0.484205D-03 -0.374766D-03
               11            12            13            14            15 
     11  0.765437D-01
     12  0.711568D-02  0.123356D+00
     13 -0.734176D-02 -0.600070D-01  0.150503D+00
     14  0.226084D-03 -0.633486D-01 -0.904961D-01  0.153845D+00
     15  0.169215D-02  0.118980D-01 -0.967001D-03 -0.109310D-01  0.165965D+00
     16  0.700559D-04 -0.272943D-02 -0.451155D-02  0.724097D-02 -0.224650D-01
     17  0.700818D-04 -0.272939D-02 -0.451142D-02  0.724081D-02 -0.224650D-01
     18 -0.928035D-03 -0.344113D-02  0.353421D-02 -0.930813D-04 -0.711401D-01
     19 -0.928043D-03 -0.344111D-02  0.353416D-02 -0.930480D-04 -0.711402D-01
     20 -0.244708D-03 -0.564478D-03  0.432284D-02 -0.375837D-02  0.309518D-02
     21  0.000000D+00  0.000000D+00  0.000000D+00  0.000000D+00  0.000000D+00
     22  0.000000D+00  0.000000D+00  0.000000D+00  0.000000D+00  0.000000D+00
     23  0.000000D+00  0.000000D+00  0.000000D+00  0.000000D+00  0.000000D+00
     24  0.000000D+00  0.000000D+00  0.000000D+00  0.000000D+00  0.000000D+00
     25  0.000000D+00  0.000000D+00  0.000000D+00  0.000000D+00  0.000000D+00
     26  0.109440D-03  0.240800D-02  0.507622D-03 -0.291562D-02  0.147050D-01
     27 -0.109438D-03 -0.240805D-02 -0.507599D-03  0.291565D-02 -0.147050D-01
     28  0.000000D+00  0.000000D+00  0.000000D+00  0.000000D+00  0.000000D+00
     29  0.109439D-03  0.240801D-02  0.507591D-03 -0.291560D-02  0.147050D-01
     30 -0.109439D-03 -0.240804D-02 -0.507630D-03  0.291567D-02 -0.147050D-01
               16            17            18            19            20 
     16  0.167233D+00
     17 -0.192169D-01  0.167233D+00
     18 -0.727266D-01  0.211694D-02  0.111058D+00
     19  0.211694D-02 -0.727266D-01  0.254721D-01  0.111058D+00
     20 -0.723453D-01 -0.723452D-01  0.253840D-01  0.253840D-01  0.111002D+00
     21 -0.689445D-03  0.689474D-03 -0.611888D-04  0.611923D-04  0.000000D+00
     22  0.943233D-03 -0.943241D-03 -0.257872D-03  0.257876D-03  0.000000D+00
     23 -0.329245D-02  0.329250D-02  0.500432D-03 -0.500426D-03  0.000000D+00
     24 -0.165977D-02  0.165978D-02  0.303749D-03 -0.303743D-03  0.000000D+00
     25 -0.136095D-01  0.136094D-01 -0.191017D-01  0.191017D-01  0.000000D+00
     26  0.769872D-03 -0.155323D-01  0.187883D-01  0.315326D-03 -0.194001D-01
     27  0.155323D-01 -0.769904D-03 -0.315332D-03 -0.187883D-01  0.194001D-01
     28 -0.150877D-01  0.150877D-01 -0.189236D-01  0.189236D-01  0.000000D+00
     29 -0.708341D-03 -0.140540D-01  0.189664D-01  0.137250D-03 -0.194001D-01
     30  0.140541D-01  0.708346D-03 -0.137257D-03 -0.189664D-01  0.194001D-01
               21            22            23            24            25 
     21  0.181700D-01
     22  0.148721D-01  0.243443D-01
     23 -0.419911D-02 -0.122638D-01  0.225679D-01
     24 -0.749703D-02 -0.279162D-02  0.145032D-01  0.192086D-01
     25 -0.127787D-02  0.391841D-02 -0.247061D-02  0.272567D-02  0.263352D-01
     26 -0.188995D-02  0.429978D-02 -0.433542D-02  0.185431D-02 -0.963386D-02
     27 -0.188995D-02  0.429977D-02 -0.433540D-02  0.185432D-02 -0.963388D-02
     28  0.170804D-02 -0.465763D-02  0.483109D-02 -0.153458D-02  0.216305D-01
     29  0.109596D-02 -0.427626D-02  0.296628D-02 -0.240594D-02 -0.143385D-01
     30  0.109596D-02 -0.427627D-02  0.296630D-02 -0.240593D-02 -0.143386D-01
               26            27            28            29            30 
     26  0.272882D-01
     27 -0.935470D-02  0.272882D-01
     28 -0.152380D-01 -0.152380D-01  0.273939D-01
     29  0.216841D-01 -0.149588D-01 -0.947457D-02  0.265480D-01
     30 -0.149588D-01  0.216841D-01 -0.947457D-02 -0.100949D-01  0.265480D-01
 Leave Link  716 at Thu Apr  2 13:26:59 2026, MaxMem=  2147483648 cpu:               0.2 elap:               0.0
 (Enter /Users/yarger/Applications/g16/l103.exe)

 GradGradGradGradGradGradGradGradGradGradGradGradGradGradGradGradGradGrad
 Berny optimization.
 Red2BG is reusing G-inverse.
 Internal  Forces:  Max     0.000002023 RMS     0.000000610
 Search for a local minimum.
 Step number   1 out of a maximum of    2
 All quantities printed in internal units (Hartrees-Bohrs-Radians)
 Second derivative matrix not updated -- analytic derivatives used.
 ITU=  0
     Eigenvalues ---   -0.00036   0.02146   0.02702   0.05120   0.09491
     Eigenvalues ---    0.10873   0.10894   0.11239   0.16379   0.19265
     Eigenvalues ---    0.22131   0.22684   0.24659   0.35443   0.37521
     Eigenvalues ---    0.45968   0.57622   0.58198   0.65500   0.75009
     Eigenvalues ---    0.86185
 Eigenvalue     1 is  -3.63D-04 should be greater than     0.000000 Eigenvector:
                          D10       D9        D8        D7        D6
   1                    0.41254   0.41254   0.41125   0.40454   0.40454
                          D5        D1        D3        D2        A11
   1                    0.40325   0.01862   0.01031   0.00978  -0.00170
 Angle between quadratic step and forces=  55.65 degrees.
 Linear search not attempted -- first point.
 Iteration  1 RMS(Cart)=  0.00000731 RMS(Int)=  0.00000000
 Iteration  2 RMS(Cart)=  0.00000000 RMS(Int)=  0.00000000
 ITry= 1 IFail=0 DXMaxC= 2.02D-05 DCOld= 1.00D+10 DXMaxT= 3.00D-01 DXLimC= 3.00D+00 Rises=F
 Variable       Old X    -DE/DX   Delta X   Delta X   Delta X     New X
                                 (Linear)    (Quad)   (Total)
    R1        2.07464   0.00000   0.00000   0.00000   0.00000   2.07464
    R2        2.07448  -0.00000   0.00000  -0.00000  -0.00000   2.07448
    R3        2.53255  -0.00000   0.00000  -0.00000  -0.00000   2.53255
    R4        2.91806   0.00000   0.00000   0.00000   0.00000   2.91806
    R5        2.54925   0.00000   0.00000   0.00000   0.00000   2.54925
    R6        2.58704  -0.00000   0.00000   0.00000   0.00000   2.58704
    R7        2.59229  -0.00000   0.00000  -0.00000  -0.00000   2.59229
    R8        2.59229  -0.00000   0.00000  -0.00000  -0.00000   2.59229
    A1        2.04058  -0.00000   0.00000  -0.00001  -0.00001   2.04057
    A2        2.11028  -0.00000   0.00000   0.00000   0.00000   2.11028
    A3        2.13233   0.00000   0.00000   0.00001   0.00001   2.13234
    A4        2.12184  -0.00000   0.00000  -0.00001  -0.00001   2.12184
    A5        2.16923   0.00000   0.00000   0.00001   0.00001   2.16924
    A6        1.99211  -0.00000   0.00000  -0.00000  -0.00000   1.99211
    A7        1.98844  -0.00000   0.00000  -0.00000  -0.00000   1.98843
    A8        1.98211   0.00000   0.00000   0.00000   0.00000   1.98211
    A9        1.98211   0.00000   0.00000   0.00000   0.00000   1.98211
   A10        1.83474  -0.00000   0.00000   0.00000   0.00000   1.83474
   A11        1.83474  -0.00000   0.00000   0.00000   0.00000   1.83474
   A12        1.82540  -0.00000   0.00000  -0.00000  -0.00000   1.82540
    D1        0.00000   0.00000   0.00000   0.00000   0.00000   0.00000
    D2       -3.14159   0.00000   0.00000   0.00000   0.00000  -3.14159
    D3       -3.14159  -0.00000   0.00000   0.00000   0.00000  -3.14159
    D4       -0.00000  -0.00000   0.00000   0.00000   0.00000   0.00000
    D5       -3.14158   0.00000   0.00000   0.00001   0.00001  -3.14158
    D6       -1.04146   0.00000   0.00000   0.00001   0.00001  -1.04145
    D7        1.04148  -0.00000   0.00000   0.00001   0.00001   1.04148
    D8        0.00001  -0.00000   0.00000   0.00001   0.00001   0.00002
    D9        2.10013   0.00000   0.00000   0.00001   0.00001   2.10014
   D10       -2.10012  -0.00000   0.00000   0.00001   0.00001  -2.10011
         Item               Value     Threshold  Converged?
 Maximum Force            0.000002     0.000015     YES
 RMS     Force            0.000001     0.000010     YES
 Maximum Displacement     0.000020     0.000060     YES
 RMS     Displacement     0.000007     0.000040     YES
 Predicted change in Energy=-2.623128D-11
 Optimization completed.
    -- Stationary point found.
                           ----------------------------
                           !   Optimized Parameters   !
                           ! (Angstroms and Degrees)  !
 --------------------------                            --------------------------
 ! Name  Definition              Value          Derivative Info.                !
 --------------------------------------------------------------------------------
 ! R1    R(1,2)                  1.0979         -DE/DX =    0.0                 !
 ! R2    R(1,3)                  1.0978         -DE/DX =    0.0                 !
 ! R3    R(1,4)                  1.3402         -DE/DX =    0.0                 !
 ! R4    R(4,5)                  1.5442         -DE/DX =    0.0                 !
 ! R5    R(4,9)                  1.349          -DE/DX =    0.0                 !
 ! R6    R(5,6)                  1.369          -DE/DX =    0.0                 !
 ! R7    R(5,7)                  1.3718         -DE/DX =    0.0                 !
 ! R8    R(5,8)                  1.3718         -DE/DX =    0.0                 !
 ! A1    A(2,1,3)              116.9164         -DE/DX =    0.0                 !
 ! A2    A(2,1,4)              120.9101         -DE/DX =    0.0                 !
 ! A3    A(3,1,4)              122.1735         -DE/DX =    0.0                 !
 ! A4    A(1,4,5)              121.5725         -DE/DX =    0.0                 !
 ! A5    A(1,4,9)              124.2879         -DE/DX =    0.0                 !
 ! A6    A(5,4,9)              114.1396         -DE/DX =    0.0                 !
 ! A7    A(4,5,6)              113.929          -DE/DX =    0.0                 !
 ! A8    A(4,5,7)              113.5664         -DE/DX =    0.0                 !
 ! A9    A(4,5,8)              113.5664         -DE/DX =    0.0                 !
 ! A10   A(6,5,7)              105.123          -DE/DX =    0.0                 !
 ! A11   A(6,5,8)              105.123          -DE/DX =    0.0                 !
 ! A12   A(7,5,8)              104.5876         -DE/DX =    0.0                 !
 ! D1    D(2,1,4,5)              0.0            -DE/DX =    0.0                 !
 ! D2    D(2,1,4,9)           -180.0            -DE/DX =    0.0                 !
 ! D3    D(3,1,4,5)           -180.0            -DE/DX =    0.0                 !
 ! D4    D(3,1,4,9)              0.0            -DE/DX =    0.0                 !
 ! D5    D(1,4,5,6)           -179.9995         -DE/DX =    0.0                 !
 ! D6    D(1,4,5,7)            -59.6712         -DE/DX =    0.0                 !
 ! D7    D(1,4,5,8)             59.6722         -DE/DX =    0.0                 !
 ! D8    D(9,4,5,6)              0.0005         -DE/DX =    0.0                 !
 ! D9    D(9,4,5,7)            120.3288         -DE/DX =    0.0                 !
 ! D10   D(9,4,5,8)           -120.3278         -DE/DX =    0.0                 !
 --------------------------------------------------------------------------------
 GradGradGradGradGradGradGradGradGradGradGradGradGradGradGradGradGradGrad

 Leave Link  103 at Thu Apr  2 13:26:59 2026, MaxMem=  2147483648 cpu:               0.1 elap:               0.0
 (Enter /Users/yarger/Applications/g16/l9999.exe)

 ----------------------------------------------------------------------

 Electric dipole moment (input orientation):
 (Debye = 10**-18 statcoulomb cm , SI units = C m)
                  (au)            (Debye)         (10**-30 SI)
   Tot        0.989829D+00      0.251589D+01      0.839212D+01
   x          0.796119D+00      0.202353D+01      0.674978D+01
   y          0.588180D+00      0.149500D+01      0.498680D+01
   z          0.000000D+00      0.000000D+00      0.000000D+00

 Dipole polarizability, Alpha (input orientation).
 (esu units = cm**3 , SI units = C**2 m**2 J**-1)
 Alpha(0;0):
               (au)            (10**-24 esu)      (10**-40 SI)
   iso        0.296585D+02      0.439493D+01      0.489002D+01
   aniso      0.270117D+02      0.400272D+01      0.445363D+01
   xx         0.342132D+02      0.506988D+01      0.564100D+01
   yx         0.809850D+01      0.120007D+01      0.133526D+01
   yy         0.401115D+02      0.594392D+01      0.661350D+01
   zx         0.000000D+00      0.000000D+00      0.000000D+00
   zy         0.000000D+00      0.000000D+00      0.000000D+00
   zz         0.146506D+02      0.217099D+01      0.241555D+01

 First dipole hyperpolarizability, Beta (input orientation).
 ||, _|_  parallel and perpendicular components, (z) with respect to z axis,
 vector components x,y,z.  Values do not include the 1/n! factor of 1/2.
 (esu units = statvolt**-1 cm**4 , SI units = C**3 m**3 J**-2)
 Beta(0;0,0):
               (au)            (10**-30 esu)      (10**-50 SI)
   || (z)     0.518211D-04      0.447694D-06      0.166157D-06
   _|_(z)     0.172737D-04      0.149231D-06      0.553857D-07
   x          0.245309D+03      0.211928D+01      0.786548D+00
   y          0.329125D+03      0.284339D+01      0.105529D+01
   z          0.259105D-03      0.223847D-05      0.830786D-06
   ||         0.820974D+02      0.709258D+00      0.263234D+00
   xxx        0.640913D+02      0.553699D+00      0.205500D+00
   xxy        0.186077D+02      0.160756D+00      0.596630D-01
   yxy        0.513301D+01      0.443452D-01      0.164583D-01
   yyy        0.966359D+02      0.834859D+00      0.309850D+00
   xxz        0.000000D+00      0.000000D+00      0.000000D+00
   yxz       -0.225020D-04     -0.194400D-06     -0.721495D-07
   yyz       -0.105540D-03     -0.911784D-06     -0.338400D-06
   zxz        0.125453D+02      0.108382D+00      0.402247D-01
   zyz       -0.553523D+01     -0.478201D-01     -0.177479D-01
   zzz        0.186288D-03      0.160938D-05      0.597307D-06

 ----------------------------------------------------------------------

 Dipole orientation:
     6          0.20122150         -0.27235699          3.85157479
     1         -1.00490013          1.36016100          4.28084490
     1          0.97461253         -1.31916176          5.46697999
     6          0.69038964         -0.93446023          1.45654795
     6         -0.41159892          0.55711132         -0.79643136
     9          0.27700827         -0.37497077         -3.10940122
     9         -3.00300462          0.61326459         -0.83411574
     9          0.29609825          3.05064289         -0.83413785
     9          2.15139169         -2.91196586          0.78304290

 Electric dipole moment (dipole orientation):
 (Debye = 10**-18 statcoulomb cm , SI units = C m)
                  (au)            (Debye)         (10**-30 SI)
   Tot        0.989829D+00      0.251589D+01      0.839212D+01
   x          0.000000D+00      0.000000D+00      0.000000D+00
   y          0.000000D+00      0.000000D+00      0.000000D+00
   z          0.989829D+00      0.251589D+01      0.839212D+01

 Dipole polarizability, Alpha (dipole orientation).
 (esu units = cm**3 , SI units = C**2 m**2 J**-1)
 Alpha(0;0):
               (au)            (10**-24 esu)      (10**-40 SI)
   iso        0.296585D+02      0.439493D+01      0.489002D+01
   aniso      0.270117D+02      0.400272D+01      0.445363D+01
   xx         0.201721D+02      0.298920D+01      0.332593D+01
   yx        -0.747354D+01     -0.110746D+01     -0.123222D+01
   yy         0.247662D+02      0.366997D+01      0.408340D+01
   zx        -0.308895D+01     -0.457736D+00     -0.509300D+00
   zy         0.418099D+01      0.619559D+00      0.689352D+00
   zz         0.440370D+02      0.652562D+01      0.726073D+01

 First dipole hyperpolarizability, Beta (dipole orientation).
 ||, _|_  parallel and perpendicular components, (z) with respect to z axis,
 vector components x,y,z.  Values do not include the 1/n! factor of 1/2.
 (esu units = statvolt**-1 cm**4 , SI units = C**3 m**3 J**-2)
 Beta(0;0,0):
               (au)            (10**-30 esu)      (10**-50 SI)
   || (z)     0.785752D+02      0.678828D+00      0.251940D+00
   _|_(z)     0.261917D+02      0.226276D+00      0.839801D-01
   x         -0.706812D+02     -0.610631D+00     -0.226630D+00
   y          0.956688D+02      0.826504D+00      0.306749D+00
   z          0.392876D+03      0.339414D+01      0.125970D+01
   ||         0.820974D+02      0.709258D+00      0.263234D+00
   xxx        0.391826D+01      0.338507D-01      0.125633D-01
   xxy        0.138495D+02      0.119649D+00      0.444064D-01
   yxy       -0.246327D+02     -0.212808D+00     -0.789814D-01
   yyy        0.141880D+02      0.122573D+00      0.454917D-01
   xxz        0.201841D+02      0.174375D+00      0.647177D-01
   yxz       -0.181145D+02     -0.156495D+00     -0.580817D-01
   yyz        0.313196D+02      0.270577D+00      0.100422D+00
   zxz       -0.284595D+01     -0.245868D-01     -0.912514D-02
   zyz        0.385219D+01      0.332799D-01      0.123515D-01
   zzz        0.794548D+02      0.686428D+00      0.254761D+00

 ----------------------------------------------------------------------
 1\1\GINC-YARGERMBP2021-2\Freq\RAM1\ZDO\C3H2F4\ROOT\02-Apr-2026\0\\#P G
 eom=AllCheck Guess=TCheck SCRF=Check GenChk RAM1/ZDO Freq\\r1234yf - 2
 ,3,3,3-Tetrafluoropropene\\0,1\C,1.7457768923,1.0670016435,-0.00000026
 49\H,1.2902300858,2.0658773489,0.0000005649\H,2.8425810797,1.021019914
 6,-0.0000008282\C,0.9852694642,-0.036484153,-0.0000005063\C,-0.5567835
 44,0.0443728322,-0.000000173\F,-1.1768193563,-1.1761707697,0.000009756
 9\F,-1.0712383759,0.7071426936,1.0852886784\F,-1.0712397946,0.70712565
 57,-1.085298757\F,1.4717425488,-1.2947191658,-0.000001477\\Version=EM6
 4M-G16RevA.03\State=1-A\HF=-0.2952031\RMSD=3.997e-10\RMSF=9.097e-07\Ze
 roPoint=0.0515051\Thermal=0.0570393\Dipole=0.7961187,0.5881801,0.00000
 02\DipoleDeriv=-0.2894551,0.0054087,0.,0.106703,-0.1735106,0.,0.,0.000
 0001,-0.2377596,0.0577235,-0.0541902,0.,0.0192797,0.2324864,0.,0.,0.,0
 .1503591,0.2305753,0.0696814,0.,-0.0224043,0.0599451,0.,0.,-0.0000001,
 0.1822171,0.2212542,-0.4007278,-0.0000003,-0.0822308,0.5987111,0.00000
 04,0.0000002,0.000001,-0.1597589,1.3408727,0.2437237,0.0000002,-0.0598
 154,1.0883028,0.,0.0000001,-0.0000004,1.382345,-0.4237922,-0.163105,0.
 0000011,-0.02581,-0.4519966,0.0000015,0.0000002,0.0000014,-0.3121476,-
 0.4334427,0.0438926,0.1032828,0.0399797,-0.3344896,-0.0977314,0.024879
 4,-0.077178,-0.4694859,-0.4334433,0.0438903,-0.1032841,0.0399793,-0.33
 44871,0.09773,-0.02488,0.0771765,-0.4694885,-0.2702921,0.2114295,0.000
 0002,-0.01568,-0.6849611,-0.0000003,0.,-0.0000006,-0.066284\Polar=34.2
 132416,8.0985021,40.1115385,-0.0000006,0.0000098,14.6505749\PolarDeriv
 =0.960044,6.2295381,6.7827703,0.0000079,0.0000064,0.7480306,3.4534024,
 8.3487752,9.5501363,0.000001,-0.0000046,1.0518218,0.0000082,0.0000027,
 -0.0000098,7.3883881,10.1998026,0.0000061,-0.8649452,2.9760587,-2.1349
 498,0.0000008,-0.0000013,-0.3163525,-0.0368422,-1.40472,8.7066071,0.00
 00002,0.0000045,0.0371505,-0.0000011,-0.0000004,0.0000051,-1.4639817,0
 .6008532,0.0000018,11.9808646,1.2465548,-0.2844905,-0.0000038,-0.00000
 14,0.1545574,-0.7113493,2.6588404,0.9321061,0.0000009,0.0000002,-0.268
 5992,-0.0000053,-0.0000004,0.0000011,1.1762701,-1.1885722,-0.0000026,7
 .0656832,-6.832808,-2.9970025,-0.0000144,-0.0000076,0.0375072,-5.18835
 45,-7.4740502,-15.4213858,-0.0000022,0.000004,-1.096836,-0.0000058,-0.
 0000019,0.0000047,-4.8631747,-9.0308813,-0.0000042,-10.6446755,1.28617
 21,1.3734705,0.0000162,0.0000053,1.2991384,0.1805109,1.175845,2.714722
 5,-0.0000048,-0.0000428,-1.9105971,0.0000259,0.0000065,-0.00004,3.5590
 944,0.0715026,0.0000458,-3.1805694,-4.3695508,-1.8889666,0.000031,0.00
 00085,-0.08247,0.2578152,-3.2100115,-7.9040899,0.0000128,0.0000411,0.2
 251081,-0.0000073,0.0000131,0.0000212,-1.6241482,-2.9180406,0.0000459,
 -3.1999544,1.7463551,-0.1675451,3.2653682,-0.6277503,-0.8703525,0.2893
 217,-1.6000476,2.2245908,-0.7689326,2.8694712,0.8597262,-0.1009376,-0.
 6264059,0.1215194,-2.7702252,1.9879546,6.6021748,-3.1999703,1.7462986,
 -0.1675331,-3.2654037,0.6277402,-0.8703648,0.2893246,-1.6000305,2.2245
 073,0.768924,-2.8694699,0.8597202,0.1009217,0.6263855,-0.1214993,-2.77
 02546,1.9879063,-6.6022633,1.0835248,-4.0286163,-0.5157727,-0.0000022,
 0.0000001,-0.0996995,1.4661767,3.1053923,-3.0271715,0.0000008,-0.00000
 38,0.2425094,0.0000012,0.0000008,-0.0000026,1.3680623,-1.7105139,-0.00
 00042\HyperPolar=64.0912761,18.6076827,5.1330081,96.6359369,0.0000056,
 -0.0000225,-0.0001055,12.545287,-5.5352299,0.0001863\PG=C01 [X(C3H2F4)
 ]\NImag=1\\0.70357045,0.16313216,0.85283991,-0.00000020,0.00000035,0.1
 2822325,-0.08862296,0.11164130,0.00000009,0.09814312,0.10546070,-0.268
 52092,-0.00000019,-0.11494225,0.31307102,0.00000009,-0.00000020,-0.040
 63752,-0.00000011,0.00000023,0.02280610,-0.31813117,0.01178259,0.00000
 014,-0.01640458,0.00809462,0.00000002,0.36316853,0.01751765,-0.0392394
 5,0.,0.02414930,-0.00317502,-0.00000002,-0.00756671,0.04816226,0.00000
 014,0.,-0.04324282,0.00000003,-0.00000001,0.00855887,-0.00000017,0.000
 00002,0.02295743,-0.25956562,-0.25341988,-0.00000005,0.00734940,0.0050
 2135,0.,-0.02717884,-0.03304904,0.,0.69187363,-0.25556469,-0.43943525,
 -0.00000010,-0.01661653,-0.04046714,-0.00000001,-0.01289033,-0.0031664
 4,0.,0.11765117,1.03057824,-0.00000005,-0.00000011,-0.05638395,-0.0000
 0001,-0.00000003,0.00132327,0.,0.,0.00678508,-0.00000009,0.00000045,0.
 17213457,-0.04068874,-0.01835389,0.,0.00051420,-0.00297642,0.,-0.00153
 125,-0.00052645,0.,-0.17715474,0.00156755,0.,0.65212738,-0.02794603,-0
 .00189259,0.,-0.00224997,-0.00008642,0.,-0.00059691,-0.00264230,0.,-0.
 00614790,-0.05972833,0.,0.00361410,0.76605793,0.,0.,0.00356089,0.,0.,-
 0.00140447,0.,0.,0.00930544,0.00000006,0.,-0.07238092,-0.00000006,-0.0
 0000002,0.71847117,-0.00582857,0.00121658,0.00000001,0.00011548,0.0004
 9567,0.,-0.00009061,-0.00091459,-0.00000002,-0.04608257,-0.04508814,0.
 00000036,-0.15178000,-0.17923074,0.00000150,0.17911607,-0.00190218,0.0
 0093613,0.,0.00037488,0.00002539,0.,-0.00011754,-0.00023103,0.,-0.0274
 3371,-0.01681196,0.00000017,-0.19534091,-0.38490556,0.00000279,0.22721
 210,0.50542884,0.00000002,0.,0.00041549,0.,0.,0.00004020,0.,0.,-0.0005
 6520,0.00000024,0.00000021,0.00879556,0.00000161,0.00000277,-0.0444633
 0,-0.00000186,-0.00000367,0.05489931,-0.00268155,0.00016123,0.00104827
 ,0.00003819,0.00055013,0.00009734,0.00032586,-0.00015354,-0.00139661,-
 0.04007415,0.02350989,0.03590471,-0.11849875,0.08103322,0.13465555,0.0
 1167494,-0.00117952,-0.00554933,0.14209625,0.00020346,-0.00025580,0.00
 002038,0.00070503,-0.00021649,-0.00047271,-0.00007945,0.00026831,0.000
 48798,0.01889353,-0.00053576,-0.01260208,0.08731066,-0.14450500,-0.163
 53429,-0.00205422,-0.05355305,-0.03687047,-0.10123466,0.18502581,0.001
 10021,-0.00022451,0.00001276,-0.00000473,-0.00006594,-0.00032545,-0.00
 003939,0.00011814,0.00008221,0.02541048,-0.01263334,-0.00875577,0.1438
 6440,-0.16404512,-0.31119905,-0.00594825,-0.03812854,-0.00945892,-0.16
 552494,0.21396199,0.40656178,-0.00268154,0.00016124,-0.00104826,0.0000
 3819,0.00055014,-0.00009735,0.00032587,-0.00015355,0.00139663,-0.04007
 427,0.02350928,-0.03590506,-0.11849910,0.08103137,-0.13465710,0.011674
 97,-0.00117938,0.00554931,0.01165388,-0.00398598,-0.00070537,0.1420966
 0,0.00020346,-0.00025581,-0.00002038,0.00070502,-0.00021648,0.00047271
 ,-0.00007945,0.00026831,-0.00048798,0.01889315,-0.00053533,0.01260192,
 0.08730862,-0.14449985,0.16353155,-0.00205408,-0.05355188,0.03687117,-
 0.00398596,0.01281046,0.00089531,-0.10123233,0.18501909,-0.00110021,0.
 00022453,0.00001275,0.00000474,0.00006595,-0.00032545,0.00003939,-0.00
 011814,0.00008222,-0.02541075,0.01263311,-0.00875607,-0.14386600,0.164
 04241,-0.31120382,0.00594826,0.03812923,-0.00946012,0.00070532,-0.0008
 9671,-0.07638234,0.16552686,-0.21395838,0.40656804,0.01462970,-0.01632
 136,-0.00000001,-0.00117103,-0.00225390,0.,-0.00048380,0.00069692,0.,-
 0.10909296,0.16392148,0.00000012,-0.04448860,0.05049270,0.00000006,0.0
 0120021,-0.00043369,0.,-0.00453479,0.00024165,0.00184771,-0.00453472,0
 .00024160,-0.00184771,0.14847599,-0.00110448,-0.10417618,-0.00000006,-
 0.00376679,-0.00041384,0.,0.00145312,-0.00024463,0.,0.15959147,-0.4698
 9818,-0.00000033,0.03739716,-0.02779818,-0.00000004,0.00041746,0.00266
 323,-0.00000001,0.00129905,0.00096163,0.00012200,0.00129904,0.00096162
 ,-0.00012198,-0.19658570,0.59794446,0.,-0.00000005,0.00803896,0.,0.,0.
 00996442,0.,0.,-0.00396296,0.00000012,-0.00000033,-0.04276203,0.000000
 04,-0.00000002,0.00931420,0.,0.,-0.00020305,0.00005979,-0.00009429,-0.
 00053527,-0.00005978,0.00009427,-0.00053527,-0.00000017,0.00000042,0.0
 2068120\\0.00000157,0.00000285,0.,-0.00000024,-0.00000053,0.,0.0000002
 2,-0.00000093,0.,-0.00000225,-0.00000169,0.00000002,0.00000026,-0.0000
 0065,0.,-0.00000011,0.,0.,0.00000005,0.00000013,0.00000082,0.00000005,
 0.00000014,-0.00000082,0.00000046,0.00000069,0.\\\@


 WE THE UNWILLING
 LED BY THE UNQUALIFIED
 HAVE BEEN DOING THE UNBELIEVABLE SO LONG WITH SO LITTLE
 THAT WE NOW ATTEMPT THE IMPOSSIBLE WITH NOTHING.

                                    -- ANONYMOUS
 Job cpu time:       0 days  0 hours  0 minutes  6.3 seconds.
 Elapsed time:       0 days  0 hours  0 minutes  1.0 seconds.
 File lengths (MBytes):  RWF=      6 Int=      0 D2E=      0 Chk=      2 Scr=      1
 Normal termination of Gaussian 16 at Thu Apr  2 13:26:59 2026.
