 Entering Gaussian System, Link 0=g16
 Input=/Users/yarger/Downloads/2223Tetrafluoropropene_Opt_Freq_HF_631pd_Gaussian16.gjf
 Output=/Users/yarger/Downloads/2223Tetrafluoropropene_Opt_Freq_HF_631pd_Gaussian16.log
 Initial command:
 /Users/yarger/Applications/g16/l1.exe "/Users/yarger/Applications/scratch/Gau-79161.inp" -scrdir="/Users/yarger/Applications/scratch/"
 Entering Link 1 = /Users/yarger/Applications/g16/l1.exe PID=     79162.
  
 Copyright (c) 1988,1990,1992,1993,1995,1998,2003,2009,2016,
            Gaussian, Inc.  All Rights Reserved.
  
 This is part of the Gaussian(R) 16 program.  It is based on
 the Gaussian(R) 09 system (copyright 2009, Gaussian, Inc.),
 the Gaussian(R) 03 system (copyright 2003, Gaussian, Inc.),
 the Gaussian(R) 98 system (copyright 1998, Gaussian, Inc.),
 the Gaussian(R) 94 system (copyright 1995, Gaussian, Inc.),
 the Gaussian 92(TM) system (copyright 1992, Gaussian, Inc.),
 the Gaussian 90(TM) system (copyright 1990, Gaussian, Inc.),
 the Gaussian 88(TM) system (copyright 1988, Gaussian, Inc.),
 the Gaussian 86(TM) system (copyright 1986, Carnegie Mellon
 University), and the Gaussian 82(TM) system (copyright 1983,
 Carnegie Mellon University). Gaussian is a federally registered
 trademark of Gaussian, Inc.
  
 This software contains proprietary and confidential information,
 including trade secrets, belonging to Gaussian, Inc.
  
 This software is provided under written license and may be
 used, copied, transmitted, or stored only in accord with that
 written license.
  
 The following legend is applicable only to US Government
 contracts under FAR:
  
                    RESTRICTED RIGHTS LEGEND
  
 Use, reproduction and disclosure by the US Government is
 subject to restrictions as set forth in subparagraphs (a)
 and (c) of the Commercial Computer Software - Restricted
 Rights clause in FAR 52.227-19.
  
 Gaussian, Inc.
 340 Quinnipiac St., Bldg. 40, Wallingford CT 06492
  
  
 ---------------------------------------------------------------
 Warning -- This program may not be used in any manner that
 competes with the business of Gaussian, Inc. or will provide
 assistance to any competitor of Gaussian, Inc.  The licensee
 of this program is prohibited from giving any competitor of
 Gaussian, Inc. access to this program.  By using this program,
 the user acknowledges that Gaussian, Inc. is engaged in the
 business of creating and licensing software in the field of
 computational chemistry and represents and warrants to the
 licensee that it is not a competitor of Gaussian, Inc. and that
 it will not use this program in any manner prohibited above.
 ---------------------------------------------------------------
  

 Cite this work as:
 Gaussian 16, Revision A.03,
 M. J. Frisch, G. W. Trucks, H. B. Schlegel, G. E. Scuseria, 
 M. A. Robb, J. R. Cheeseman, G. Scalmani, V. Barone, 
 G. A. Petersson, H. Nakatsuji, X. Li, M. Caricato, A. V. Marenich, 
 J. Bloino, B. G. Janesko, R. Gomperts, B. Mennucci, H. P. Hratchian, 
 J. V. Ortiz, A. F. Izmaylov, J. L. Sonnenberg, D. Williams-Young, 
 F. Ding, F. Lipparini, F. Egidi, J. Goings, B. Peng, A. Petrone, 
 T. Henderson, D. Ranasinghe, V. G. Zakrzewski, J. Gao, N. Rega, 
 G. Zheng, W. Liang, M. Hada, M. Ehara, K. Toyota, R. Fukuda, 
 J. Hasegawa, M. Ishida, T. Nakajima, Y. Honda, O. Kitao, H. Nakai, 
 T. Vreven, K. Throssell, J. A. Montgomery, Jr., J. E. Peralta, 
 F. Ogliaro, M. J. Bearpark, J. J. Heyd, E. N. Brothers, K. N. Kudin, 
 V. N. Staroverov, T. A. Keith, R. Kobayashi, J. Normand, 
 K. Raghavachari, A. P. Rendell, J. C. Burant, S. S. Iyengar, 
 J. Tomasi, M. Cossi, J. M. Millam, M. Klene, C. Adamo, R. Cammi, 
 J. W. Ochterski, R. L. Martin, K. Morokuma, O. Farkas, 
 J. B. Foresman, and D. J. Fox, Gaussian, Inc., Wallingford CT, 2016.
 
 ******************************************
 Gaussian 16:  EM64M-G16RevA.03 25-Dec-2016
                 2-Apr-2026 
 ******************************************
 %nprocshared=8
 Will use up to    8 processors via shared memory.
 %mem=16GB
 %chk=2223Tetrafluoropropene_Opt_Freq_HF_631pd_Gaussian16.chk
 ----------------------------------------------------------------------
 #p opt=tight freq=raman hf/6-31+g(d) guess=save geom=connectivity pola
 r
 ----------------------------------------------------------------------
 1/7=10,18=20,19=15,38=1,57=2/1,3;
 2/9=110,12=2,17=6,18=5,40=1/2;
 3/5=1,6=6,7=11,11=9,25=1,30=1,71=1/1,2,3;
 4//1;
 5/5=2,38=5,98=1/2;
 6/7=2,8=2,9=2,10=2,28=1/1;
 7//1,2,3,16;
 1/7=10,18=20,19=15/3(2);
 2/9=110/2;
 99//99;
 2/9=110/2;
 3/5=1,6=6,7=11,11=9,25=1,30=1,71=1/1,2,3;
 4/5=5,16=3,69=1/1;
 5/5=2,38=5,98=1/2;
 7//1,2,3,16;
 1/7=10,18=20,19=15/3(-5);
 2/9=110/2;
 6/7=2,8=2,9=2,10=2,19=2,28=1/1;
 99/9=1/99;
 Leave Link    1 at Thu Apr  2 13:28:55 2026, MaxMem=  2147483648 cpu:               0.1 elap:               0.0
 (Enter /Users/yarger/Applications/g16/l101.exe)
 ------------------------------------
 r1234yf - 2,3,3,3-Tetrafluoropropene
 ------------------------------------
 Symbolic Z-matrix:
 Charge =  0 Multiplicity = 1
 C                     1.74822   1.06421   0. 
 H                     1.38429   2.08656  0. 
 H                     2.83259   0.99597   0. 
 C                     0.94847   0.00447  0. 
 C                    -0.56314   0.02673   0. 
 F                    -1.16412  -1.16916   0.00001 
 F                    -1.0876    0.66408   1.05937 
 F                    -1.0876    0.66406  -1.05938 
 F                     1.4484   -1.23175   0. 
 
 ITRead=  0  0  0  0  0  0  0  0  0
 MicOpt= -1 -1 -1 -1 -1 -1 -1 -1 -1
 NAtoms=      9 NQM=        9 NQMF=       0 NMMI=      0 NMMIF=      0
                NMic=       0 NMicF=      0.
                    Isotopes and Nuclear Properties:
 (Nuclear quadrupole moments (NQMom) in fm**2, nuclear magnetic moments (NMagM)
  in nuclear magnetons)

  Atom         1           2           3           4           5           6           7           8           9
 IAtWgt=          12           1           1          12          12          19          19          19          19
 AtmWgt=  12.0000000   1.0078250   1.0078250  12.0000000  12.0000000  18.9984033  18.9984033  18.9984033  18.9984033
 NucSpn=           0           1           1           0           0           1           1           1           1
 AtZEff=  -0.0000000  -0.0000000  -0.0000000  -0.0000000  -0.0000000  -0.0000000  -0.0000000  -0.0000000  -0.0000000
 NQMom=    0.0000000   0.0000000   0.0000000   0.0000000   0.0000000   0.0000000   0.0000000   0.0000000   0.0000000
 NMagM=    0.0000000   2.7928460   2.7928460   0.0000000   0.0000000   2.6288670   2.6288670   2.6288670   2.6288670
 AtZNuc=   6.0000000   1.0000000   1.0000000   6.0000000   6.0000000   9.0000000   9.0000000   9.0000000   9.0000000
 Leave Link  101 at Thu Apr  2 13:28:55 2026, MaxMem=  2147483648 cpu:               2.0 elap:               0.3
 (Enter /Users/yarger/Applications/g16/l103.exe)

 GradGradGradGradGradGradGradGradGradGradGradGradGradGradGradGradGradGrad
 Berny optimization.
 Initialization pass.
                           ----------------------------
                           !    Initial Parameters    !
                           ! (Angstroms and Degrees)  !
 --------------------------                            --------------------------
 ! Name  Definition              Value          Derivative Info.                !
 --------------------------------------------------------------------------------
 ! R1    R(1,2)                  1.0852         estimate D2E/DX2                !
 ! R2    R(1,3)                  1.0865         estimate D2E/DX2                !
 ! R3    R(1,4)                  1.3276         estimate D2E/DX2                !
 ! R4    R(4,5)                  1.5118         estimate D2E/DX2                !
 ! R5    R(4,9)                  1.3335         estimate D2E/DX2                !
 ! R6    R(5,6)                  1.3384         estimate D2E/DX2                !
 ! R7    R(5,7)                  1.343          estimate D2E/DX2                !
 ! R8    R(5,8)                  1.343          estimate D2E/DX2                !
 ! A1    A(2,1,3)              113.1955         estimate D2E/DX2                !
 ! A2    A(2,1,4)              123.3649         estimate D2E/DX2                !
 ! A3    A(3,1,4)              123.4395         estimate D2E/DX2                !
 ! A4    A(1,4,5)              126.1968         estimate D2E/DX2                !
 ! A5    A(1,4,9)              120.9413         estimate D2E/DX2                !
 ! A6    A(5,4,9)              112.8619         estimate D2E/DX2                !
 ! A7    A(4,5,6)              115.8373         estimate D2E/DX2                !
 ! A8    A(4,5,7)              113.42           estimate D2E/DX2                !
 ! A9    A(4,5,8)              113.42           estimate D2E/DX2                !
 ! A10   A(6,5,7)              104.4002         estimate D2E/DX2                !
 ! A11   A(6,5,8)              104.4002         estimate D2E/DX2                !
 ! A12   A(7,5,8)              104.1543         estimate D2E/DX2                !
 ! D1    D(2,1,4,5)             -0.0002         estimate D2E/DX2                !
 ! D2    D(2,1,4,9)            179.9999         estimate D2E/DX2                !
 ! D3    D(3,1,4,5)            179.9999         estimate D2E/DX2                !
 ! D4    D(3,1,4,9)              0.0001         estimate D2E/DX2                !
 ! D5    D(1,4,5,6)           -179.9996         estimate D2E/DX2                !
 ! D6    D(1,4,5,7)            -59.2781         estimate D2E/DX2                !
 ! D7    D(1,4,5,8)             59.279          estimate D2E/DX2                !
 ! D8    D(9,4,5,6)              0.0003         estimate D2E/DX2                !
 ! D9    D(9,4,5,7)            120.7218         estimate D2E/DX2                !
 ! D10   D(9,4,5,8)           -120.7211         estimate D2E/DX2                !
 --------------------------------------------------------------------------------
 Trust Radius=3.00D-01 FncErr=1.00D-07 GrdErr=1.00D-07 EigMax=2.50D+02 EigMin=1.00D-04
 Number of steps in this run=     40 maximum allowed number of steps=    100.
 GradGradGradGradGradGradGradGradGradGradGradGradGradGradGradGradGradGrad

 Leave Link  103 at Thu Apr  2 13:28:55 2026, MaxMem=  2147483648 cpu:               0.1 elap:               0.0
 (Enter /Users/yarger/Applications/g16/l202.exe)
                          Input orientation:                          
 ---------------------------------------------------------------------
 Center     Atomic      Atomic             Coordinates (Angstroms)
 Number     Number       Type             X           Y           Z
 ---------------------------------------------------------------------
      1          6           0        1.748220    1.064211    0.000000
      2          1           0        1.384286    2.086562   -0.000002
      3          1           0        2.832592    0.995970    0.000000
      4          6           0        0.948473    0.004470   -0.000001
      5          6           0       -0.563141    0.026730    0.000000
      6          9           0       -1.164115   -1.169164    0.000008
      7          9           0       -1.087595    0.664077    1.059373
      8          9           0       -1.087597    0.664063   -1.059381
      9          9           0        1.448396   -1.231753    0.000000
 ---------------------------------------------------------------------
                    Distance matrix (angstroms):
                    1          2          3          4          5
     1  C    0.000000
     2  H    1.085196   0.000000
     3  H    1.086517   1.813003   0.000000
     4  C    1.327647   2.127214   2.129079   0.000000
     5  C    2.533526   2.834675   3.531349   1.511778   0.000000
     6  F    3.670103   4.134501   4.545489   2.416701   1.338407
     7  F    3.053559   3.042357   4.074345   2.388080   1.342957
     8  F    3.053566   3.042366   4.074351   2.388081   1.342958
     9  F    2.315458   3.318934   2.622737   1.333481   2.372775
                    6          7          8          9
     6  F    0.000000
     7  F    2.118698   0.000000
     8  F    2.118698   2.118754   0.000000
     9  F    2.613261   3.338816   3.338812   0.000000
 Stoichiometry    C3H2F4
 Framework group  C1[X(C3H2F4)]
 Deg. of freedom    21
 Full point group                 C1      NOp   1
 Largest Abelian subgroup         C1      NOp   1
 Largest concise Abelian subgroup C1      NOp   1
                         Standard orientation:                         
 ---------------------------------------------------------------------
 Center     Atomic      Atomic             Coordinates (Angstroms)
 Number     Number       Type             X           Y           Z
 ---------------------------------------------------------------------
      1          6           0        1.748220   -1.064211   -0.000000
      2          1           0        1.384286   -2.086562    0.000002
      3          1           0        2.832592   -0.995970   -0.000000
      4          6           0        0.948473   -0.004470    0.000001
      5          6           0       -0.563141   -0.026730   -0.000000
      6          9           0       -1.164115    1.169164   -0.000008
      7          9           0       -1.087595   -0.664077   -1.059373
      8          9           0       -1.087597   -0.664063    1.059381
      9          9           0        1.448396    1.231753   -0.000000
 ---------------------------------------------------------------------
 Rotational constants (GHZ):           3.8200226           2.3517624           1.9296269
 Leave Link  202 at Thu Apr  2 13:28:55 2026, MaxMem=  2147483648 cpu:               0.0 elap:               0.0
 (Enter /Users/yarger/Applications/g16/l301.exe)
 Standard basis: 6-31+G(d) (6D, 7F)
 Ernie: Thresh=  0.10000D-02 Tol=  0.10000D-05 Strict=F.
 There are   137 symmetry adapted cartesian basis functions of A   symmetry.
 There are   137 symmetry adapted basis functions of A   symmetry.
   137 basis functions,   232 primitive gaussians,   137 cartesian basis functions
    28 alpha electrons       28 beta electrons
       nuclear repulsion energy       331.2808356383 Hartrees.
 IExCor=    0 DFT=F Ex=HF Corr=None ExCW=0 ScaHFX=  1.000000
 ScaDFX=  1.000000  1.000000  1.000000  1.000000 ScalE2=  1.000000  1.000000
 IRadAn=      5 IRanWt=     -1 IRanGd=            0 ICorTp=0 IEmpDi=  4
 NAtoms=    9 NActive=    9 NUniq=    9 SFac= 1.00D+00 NAtFMM=   60 NAOKFM=F Big=F
 Integral buffers will be    131072 words long.
 Raffenetti 1 integral format.
 Two-electron integral symmetry is turned on.
 Leave Link  301 at Thu Apr  2 13:28:55 2026, MaxMem=  2147483648 cpu:               0.2 elap:               0.0
 (Enter /Users/yarger/Applications/g16/l302.exe)
 NPDir=0 NMtPBC=     1 NCelOv=     1 NCel=       1 NClECP=     1 NCelD=      1
         NCelK=      1 NCelE2=     1 NClLst=     1 CellRange=     0.0.
 One-electron integrals computed using PRISM.
 One-electron integral symmetry used in STVInt
 NBasis=   137 RedAO= T EigKep=  6.52D-05  NBF=   137
 NBsUse=   137 1.00D-06 EigRej= -1.00D+00 NBFU=   137
 Leave Link  302 at Thu Apr  2 13:28:55 2026, MaxMem=  2147483648 cpu:               0.8 elap:               0.1
 (Enter /Users/yarger/Applications/g16/l303.exe)
 DipDrv:  MaxL=1.
 Leave Link  303 at Thu Apr  2 13:28:55 2026, MaxMem=  2147483648 cpu:               0.1 elap:               0.0
 (Enter /Users/yarger/Applications/g16/l401.exe)
 ExpMin= 4.38D-02 ExpMax= 7.00D+03 ExpMxC= 1.05D+03 IAcc=3 IRadAn=         5 AccDes= 0.00D+00
 Harris functional with IExCor=  205 and IRadAn=       5 diagonalized for initial guess.
 HarFok:  IExCor=  205 AccDes= 0.00D+00 IRadAn=         5 IDoV= 1 UseB2=F ITyADJ=14
 ICtDFT=  3500011 ScaDFX=  1.000000  1.000000  1.000000  1.000000
 FoFCou: FMM=F IPFlag=           0 FMFlag=      100000 FMFlg1=           0
         NFxFlg=           0 DoJE=T BraDBF=F KetDBF=T FulRan=T
         wScrn=  0.000000 ICntrl=       500 IOpCl=  0 I1Cent=   200000004 NGrid=           0
         NMat0=    1 NMatS0=      1 NMatT0=    0 NMatD0=    1 NMtDS0=    0 NMtDT0=    0
 Petite list used in FoFCou.
 Harris En= -512.520150738417    
 JPrj=0 DoOrth=F DoCkMO=F.
 Leave Link  401 at Thu Apr  2 13:28:55 2026, MaxMem=  2147483648 cpu:               1.5 elap:               0.3
 (Enter /Users/yarger/Applications/g16/l502.exe)
 Keep R1 ints in memory in canonical form, NReq=46402764.
 FoFCou: FMM=F IPFlag=           0 FMFlag=           0 FMFlg1=           0
         NFxFlg=           0 DoJE=F BraDBF=F KetDBF=F FulRan=T
         wScrn=  0.000000 ICntrl=       600 IOpCl=  0 I1Cent=           0 NGrid=           0
         NMat0=    1 NMatS0=   9453 NMatT0=    0 NMatD0=    1 NMtDS0=    0 NMtDT0=    0
 Symmetry not used in FoFCou.
 Two-electron integral symmetry not used.
 Closed shell SCF:
 Using DIIS extrapolation, IDIIS=  1040.
 NGot=  2147483648 LenX=  2102759234 LenY=  2102740024
 Requested convergence on RMS density matrix=1.00D-08 within 128 cycles.
 Requested convergence on MAX density matrix=1.00D-06.
 Requested convergence on             energy=1.00D-06.
 No special actions if energy rises.

 Cycle   1  Pass 1  IDiag  1:
 E= -512.315421164332    
 DIIS: error= 5.70D-02 at cycle   1 NSaved=   1.
 NSaved= 1 IEnMin= 1 EnMin= -512.315421164332     IErMin= 1 ErrMin= 5.70D-02
 ErrMax= 5.70D-02  0.00D+00 EMaxC= 1.00D-01 BMatC= 4.19D-01 BMatP= 4.19D-01
 IDIUse=3 WtCom= 4.30D-01 WtEn= 5.70D-01
 Coeff-Com:  0.100D+01
 Coeff-En:   0.100D+01
 Coeff:      0.100D+01
 Gap=     0.497 Goal=   None    Shift=    0.000
 GapD=    0.497 DampG=2.000 DampE=0.500 DampFc=1.0000 IDamp=-1.
 RMSDP=6.00D-03 MaxDP=1.48D-01              OVMax= 2.04D-01

 Cycle   2  Pass 1  IDiag  1:
 E= -512.470933945310     Delta-E=       -0.155512780978 Rises=F Damp=F
 DIIS: error= 1.63D-02 at cycle   2 NSaved=   2.
 NSaved= 2 IEnMin= 2 EnMin= -512.470933945310     IErMin= 2 ErrMin= 1.63D-02
 ErrMax= 1.63D-02  0.00D+00 EMaxC= 1.00D-01 BMatC= 4.25D-02 BMatP= 4.19D-01
 IDIUse=3 WtCom= 8.37D-01 WtEn= 1.63D-01
 Coeff-Com:  0.150D+00 0.850D+00
 Coeff-En:   0.000D+00 0.100D+01
 Coeff:      0.125D+00 0.875D+00
 Gap=     0.508 Goal=   None    Shift=    0.000
 RMSDP=1.69D-03 MaxDP=4.60D-02 DE=-1.56D-01 OVMax= 8.22D-02

 Cycle   3  Pass 1  IDiag  1:
 E= -512.501619578270     Delta-E=       -0.030685632960 Rises=F Damp=F
 DIIS: error= 5.46D-03 at cycle   3 NSaved=   3.
 NSaved= 3 IEnMin= 3 EnMin= -512.501619578270     IErMin= 3 ErrMin= 5.46D-03
 ErrMax= 5.46D-03  0.00D+00 EMaxC= 1.00D-01 BMatC= 7.22D-03 BMatP= 4.25D-02
 IDIUse=3 WtCom= 9.45D-01 WtEn= 5.46D-02
 Coeff-Com: -0.283D-01 0.262D+00 0.767D+00
 Coeff-En:   0.000D+00 0.000D+00 0.100D+01
 Coeff:     -0.267D-01 0.247D+00 0.779D+00
 Gap=     0.496 Goal=   None    Shift=    0.000
 RMSDP=5.25D-04 MaxDP=1.93D-02 DE=-3.07D-02 OVMax= 3.59D-02

 Cycle   4  Pass 1  IDiag  1:
 E= -512.507806046657     Delta-E=       -0.006186468387 Rises=F Damp=F
 DIIS: error= 8.78D-04 at cycle   4 NSaved=   4.
 NSaved= 4 IEnMin= 4 EnMin= -512.507806046657     IErMin= 4 ErrMin= 8.78D-04
 ErrMax= 8.78D-04  0.00D+00 EMaxC= 1.00D-01 BMatC= 1.71D-04 BMatP= 7.22D-03
 IDIUse=3 WtCom= 9.91D-01 WtEn= 8.78D-03
 Coeff-Com: -0.732D-02 0.163D-01 0.146D+00 0.845D+00
 Coeff-En:   0.000D+00 0.000D+00 0.000D+00 0.100D+01
 Coeff:     -0.726D-02 0.162D-01 0.145D+00 0.846D+00
 Gap=     0.489 Goal=   None    Shift=    0.000
 RMSDP=1.22D-04 MaxDP=2.16D-03 DE=-6.19D-03 OVMax= 2.79D-03

 Cycle   5  Pass 1  IDiag  1:
 E= -512.507995351422     Delta-E=       -0.000189304765 Rises=F Damp=F
 DIIS: error= 2.98D-04 at cycle   5 NSaved=   5.
 NSaved= 5 IEnMin= 5 EnMin= -512.507995351422     IErMin= 5 ErrMin= 2.98D-04
 ErrMax= 2.98D-04  0.00D+00 EMaxC= 1.00D-01 BMatC= 1.54D-05 BMatP= 1.71D-04
 IDIUse=3 WtCom= 9.97D-01 WtEn= 2.98D-03
 Coeff-Com:  0.324D-02-0.331D-01-0.830D-01-0.547D-01 0.117D+01
 Coeff-En:   0.000D+00 0.000D+00 0.000D+00 0.000D+00 0.100D+01
 Coeff:      0.323D-02-0.330D-01-0.828D-01-0.546D-01 0.117D+01
 Gap=     0.490 Goal=   None    Shift=    0.000
 RMSDP=6.92D-05 MaxDP=1.28D-03 DE=-1.89D-04 OVMax= 3.33D-03

 Cycle   6  Pass 1  IDiag  1:
 E= -512.508032017682     Delta-E=       -0.000036666260 Rises=F Damp=F
 DIIS: error= 9.00D-05 at cycle   6 NSaved=   6.
 NSaved= 6 IEnMin= 6 EnMin= -512.508032017682     IErMin= 6 ErrMin= 9.00D-05
 ErrMax= 9.00D-05  0.00D+00 EMaxC= 1.00D-01 BMatC= 1.66D-06 BMatP= 1.54D-05
 IDIUse=1 WtCom= 1.00D+00 WtEn= 0.00D+00
 Coeff-Com:  0.286D-03-0.773D-03 0.117D-02-0.510D-01-0.245D-01 0.107D+01
 Coeff:      0.286D-03-0.773D-03 0.117D-02-0.510D-01-0.245D-01 0.107D+01
 Gap=     0.490 Goal=   None    Shift=    0.000
 RMSDP=1.84D-05 MaxDP=4.81D-04 DE=-3.67D-05 OVMax= 1.26D-03

 Cycle   7  Pass 1  IDiag  1:
 E= -512.508035636985     Delta-E=       -0.000003619303 Rises=F Damp=F
 DIIS: error= 3.97D-05 at cycle   7 NSaved=   7.
 NSaved= 7 IEnMin= 7 EnMin= -512.508035636985     IErMin= 7 ErrMin= 3.97D-05
 ErrMax= 3.97D-05  0.00D+00 EMaxC= 1.00D-01 BMatC= 3.91D-07 BMatP= 1.66D-06
 IDIUse=1 WtCom= 1.00D+00 WtEn= 0.00D+00
 Coeff-Com: -0.510D-03 0.553D-02 0.169D-01-0.777D-02-0.220D+00 0.181D+00
 Coeff-Com:  0.102D+01
 Coeff:     -0.510D-03 0.553D-02 0.169D-01-0.777D-02-0.220D+00 0.181D+00
 Coeff:      0.102D+01
 Gap=     0.490 Goal=   None    Shift=    0.000
 RMSDP=1.12D-05 MaxDP=2.01D-04 DE=-3.62D-06 OVMax= 5.57D-04

 Cycle   8  Pass 1  IDiag  1:
 E= -512.508036422869     Delta-E=       -0.000000785884 Rises=F Damp=F
 DIIS: error= 1.08D-05 at cycle   8 NSaved=   8.
 NSaved= 8 IEnMin= 8 EnMin= -512.508036422869     IErMin= 8 ErrMin= 1.08D-05
 ErrMax= 1.08D-05  0.00D+00 EMaxC= 1.00D-01 BMatC= 1.92D-08 BMatP= 3.91D-07
 IDIUse=1 WtCom= 1.00D+00 WtEn= 0.00D+00
 Coeff-Com: -0.204D-05-0.240D-03-0.445D-03 0.508D-02 0.181D-01-0.101D+00
 Coeff-Com: -0.123D+00 0.120D+01
 Coeff:     -0.204D-05-0.240D-03-0.445D-03 0.508D-02 0.181D-01-0.101D+00
 Coeff:     -0.123D+00 0.120D+01
 Gap=     0.490 Goal=   None    Shift=    0.000
 RMSDP=3.49D-06 MaxDP=7.62D-05 DE=-7.86D-07 OVMax= 1.88D-04

 Cycle   9  Pass 1  IDiag  1:
 E= -512.508036481439     Delta-E=       -0.000000058570 Rises=F Damp=F
 DIIS: error= 4.24D-06 at cycle   9 NSaved=   9.
 NSaved= 9 IEnMin= 9 EnMin= -512.508036481439     IErMin= 9 ErrMin= 4.24D-06
 ErrMax= 4.24D-06  0.00D+00 EMaxC= 1.00D-01 BMatC= 2.39D-09 BMatP= 1.92D-08
 IDIUse=1 WtCom= 1.00D+00 WtEn= 0.00D+00
 Coeff-Com:  0.437D-04-0.570D-03-0.160D-02 0.887D-03 0.227D-01-0.170D-01
 Coeff-Com: -0.134D+00 0.175D+00 0.955D+00
 Coeff:      0.437D-04-0.570D-03-0.160D-02 0.887D-03 0.227D-01-0.170D-01
 Coeff:     -0.134D+00 0.175D+00 0.955D+00
 Gap=     0.490 Goal=   None    Shift=    0.000
 RMSDP=7.87D-07 MaxDP=1.88D-05 DE=-5.86D-08 OVMax= 3.87D-05

 Cycle  10  Pass 1  IDiag  1:
 E= -512.508036485668     Delta-E=       -0.000000004229 Rises=F Damp=F
 DIIS: error= 1.10D-06 at cycle  10 NSaved=  10.
 NSaved=10 IEnMin=10 EnMin= -512.508036485668     IErMin=10 ErrMin= 1.10D-06
 ErrMax= 1.10D-06  0.00D+00 EMaxC= 1.00D-01 BMatC= 2.36D-10 BMatP= 2.39D-09
 IDIUse=1 WtCom= 1.00D+00 WtEn= 0.00D+00
 Coeff-Com:  0.524D-05-0.404D-04-0.112D-03-0.371D-03 0.538D-03 0.885D-02
 Coeff-Com: -0.958D-02-0.102D+00 0.663D-01 0.104D+01
 Coeff:      0.524D-05-0.404D-04-0.112D-03-0.371D-03 0.538D-03 0.885D-02
 Coeff:     -0.958D-02-0.102D+00 0.663D-01 0.104D+01
 Gap=     0.490 Goal=   None    Shift=    0.000
 RMSDP=3.05D-07 MaxDP=4.79D-06 DE=-4.23D-09 OVMax= 1.17D-05

 Cycle  11  Pass 1  IDiag  1:
 E= -512.508036486123     Delta-E=       -0.000000000455 Rises=F Damp=F
 DIIS: error= 5.01D-07 at cycle  11 NSaved=  11.
 NSaved=11 IEnMin=11 EnMin= -512.508036486123     IErMin=11 ErrMin= 5.01D-07
 ErrMax= 5.01D-07  0.00D+00 EMaxC= 1.00D-01 BMatC= 1.94D-11 BMatP= 2.36D-10
 IDIUse=1 WtCom= 1.00D+00 WtEn= 0.00D+00
 Coeff-Com: -0.346D-05 0.509D-04 0.150D-03-0.184D-03-0.223D-02 0.380D-02
 Coeff-Com:  0.126D-01-0.300D-01-0.869D-01 0.153D+00 0.949D+00
 Coeff:     -0.346D-05 0.509D-04 0.150D-03-0.184D-03-0.223D-02 0.380D-02
 Coeff:      0.126D-01-0.300D-01-0.869D-01 0.153D+00 0.949D+00
 Gap=     0.490 Goal=   None    Shift=    0.000
 RMSDP=6.43D-08 MaxDP=1.49D-06 DE=-4.55D-10 OVMax= 1.80D-06

 Cycle  12  Pass 1  IDiag  1:
 E= -512.508036486155     Delta-E=       -0.000000000032 Rises=F Damp=F
 DIIS: error= 8.20D-08 at cycle  12 NSaved=  12.
 NSaved=12 IEnMin=12 EnMin= -512.508036486155     IErMin=12 ErrMin= 8.20D-08
 ErrMax= 8.20D-08  0.00D+00 EMaxC= 1.00D-01 BMatC= 1.16D-12 BMatP= 1.94D-11
 IDIUse=1 WtCom= 1.00D+00 WtEn= 0.00D+00
 Coeff-Com: -0.293D-06 0.121D-05 0.365D-05 0.443D-04 0.426D-04-0.102D-02
 Coeff-Com:  0.257D-03 0.963D-02-0.265D-02-0.983D-01-0.200D-01 0.111D+01
 Coeff:     -0.293D-06 0.121D-05 0.365D-05 0.443D-04 0.426D-04-0.102D-02
 Coeff:      0.257D-03 0.963D-02-0.265D-02-0.983D-01-0.200D-01 0.111D+01
 Gap=     0.490 Goal=   None    Shift=    0.000
 RMSDP=2.12D-08 MaxDP=4.19D-07 DE=-3.22D-11 OVMax= 6.05D-07

 Cycle  13  Pass 1  IDiag  1:
 E= -512.508036486158     Delta-E=       -0.000000000003 Rises=F Damp=F
 DIIS: error= 1.36D-08 at cycle  13 NSaved=  13.
 NSaved=13 IEnMin=13 EnMin= -512.508036486158     IErMin=13 ErrMin= 1.36D-08
 ErrMax= 1.36D-08  0.00D+00 EMaxC= 1.00D-01 BMatC= 3.96D-14 BMatP= 1.16D-12
 IDIUse=1 WtCom= 1.00D+00 WtEn= 0.00D+00
 Coeff-Com:  0.131D-06-0.187D-05-0.533D-05 0.342D-05 0.785D-04-0.848D-04
 Coeff-Com: -0.469D-03 0.678D-03 0.391D-02-0.259D-02-0.380D-01-0.396D-01
 Coeff-Com:  0.108D+01
 Coeff:      0.131D-06-0.187D-05-0.533D-05 0.342D-05 0.785D-04-0.848D-04
 Coeff:     -0.469D-03 0.678D-03 0.391D-02-0.259D-02-0.380D-01-0.396D-01
 Coeff:      0.108D+01
 Gap=     0.490 Goal=   None    Shift=    0.000
 RMSDP=5.55D-09 MaxDP=1.41D-07 DE=-2.84D-12 OVMax= 8.77D-08

 SCF Done:  E(RHF) =  -512.508036486     A.U. after   13 cycles
            NFock= 13  Conv=0.56D-08     -V/T= 2.0029
 KE= 5.110221142877D+02 PE=-1.880393783749D+03 EE= 5.255827973373D+02
 Leave Link  502 at Thu Apr  2 13:28:56 2026, MaxMem=  2147483648 cpu:               3.2 elap:               0.7
 (Enter /Users/yarger/Applications/g16/l601.exe)
 Copying SCF densities to generalized density rwf, IOpCl= 0 IROHF=0.

 **********************************************************************

            Population analysis using the SCF density.

 **********************************************************************

 Orbital symmetries:
       Occupied  (A) (A) (A) (A) (A) (A) (A) (A) (A) (A) (A) (A)
                 (A) (A) (A) (A) (A) (A) (A) (A) (A) (A) (A) (A)
                 (A) (A) (A) (A)
       Virtual   (A) (A) (A) (A) (A) (A) (A) (A) (A) (A) (A) (A)
                 (A) (A) (A) (A) (A) (A) (A) (A) (A) (A) (A) (A)
                 (A) (A) (A) (A) (A) (A) (A) (A) (A) (A) (A) (A)
                 (A) (A) (A) (A) (A) (A) (A) (A) (A) (A) (A) (A)
                 (A) (A) (A) (A) (A) (A) (A) (A) (A) (A) (A) (A)
                 (A) (A) (A) (A) (A) (A) (A) (A) (A) (A) (A) (A)
                 (A) (A) (A) (A) (A) (A) (A) (A) (A) (A) (A) (A)
                 (A) (A) (A) (A) (A) (A) (A) (A) (A) (A) (A) (A)
                 (A) (A) (A) (A) (A) (A) (A) (A) (A) (A) (A) (A)
                 (A)
 The electronic state is 1-A.
 Alpha  occ. eigenvalues --  -26.36384 -26.36134 -26.36132 -26.36000 -11.54233
 Alpha  occ. eigenvalues --  -11.38360 -11.28811  -1.75165  -1.67063  -1.64508
 Alpha  occ. eigenvalues --   -1.64423  -1.12079  -1.00044  -0.89738  -0.83830
 Alpha  occ. eigenvalues --   -0.83476  -0.81768  -0.74319  -0.73127  -0.71787
 Alpha  occ. eigenvalues --   -0.71059  -0.70177  -0.66757  -0.66663  -0.65305
 Alpha  occ. eigenvalues --   -0.61707  -0.58968  -0.42288
 Alpha virt. eigenvalues --    0.06698   0.08072   0.09123   0.10320   0.11454
 Alpha virt. eigenvalues --    0.11984   0.12605   0.15311   0.16478   0.17994
 Alpha virt. eigenvalues --    0.18149   0.18828   0.21824   0.25749   0.32706
 Alpha virt. eigenvalues --    0.33528   0.34544   0.38242   0.38252   0.39038
 Alpha virt. eigenvalues --    0.40827   0.41460   0.42711   0.43366   0.43879
 Alpha virt. eigenvalues --    0.45543   0.46184   0.46514   0.47513   0.50075
 Alpha virt. eigenvalues --    0.51121   0.52755   0.54962   0.57081   0.57777
 Alpha virt. eigenvalues --    0.59679   0.64465   0.86254   0.89429   0.93873
 Alpha virt. eigenvalues --    0.94557   0.96447   1.00095   1.01506   1.05218
 Alpha virt. eigenvalues --    1.15498   1.22149   1.25831   1.37232   1.40032
 Alpha virt. eigenvalues --    1.41214   1.59014   1.59611   1.66645   1.78744
 Alpha virt. eigenvalues --    1.82069   1.82326   1.87285   1.89888   1.91282
 Alpha virt. eigenvalues --    1.92447   1.92830   1.94672   1.95775   1.96073
 Alpha virt. eigenvalues --    1.97343   1.99587   2.00929   2.01572   2.09691
 Alpha virt. eigenvalues --    2.09955   2.11784   2.13594   2.13929   2.14390
 Alpha virt. eigenvalues --    2.15263   2.20617   2.24244   2.26324   2.31201
 Alpha virt. eigenvalues --    2.39745   2.42962   2.43184   2.45052   2.45476
 Alpha virt. eigenvalues --    2.46959   2.47116   2.55454   2.60382   2.71042
 Alpha virt. eigenvalues --    2.72469   2.78800   2.87093   2.98932   3.06541
 Alpha virt. eigenvalues --    3.07806   3.30168   3.40186   3.52017   3.56424
 Alpha virt. eigenvalues --    3.57150   3.68251   4.58271   4.76318   5.03423
 Alpha virt. eigenvalues --    5.86212   5.87298   6.42174   7.02538
          Condensed to atoms (all electrons):
               1          2          3          4          5          6
     1  C    5.554846   0.363622   0.362171   0.414106  -0.181033   0.036626
     2  H    0.363622   0.411563  -0.015848  -0.039655   0.026269  -0.000092
     3  H    0.362171  -0.015848   0.407655  -0.016232   0.009949  -0.000153
     4  C    0.414106  -0.039655  -0.016232   4.939050   0.325098  -0.050634
     5  C   -0.181033   0.026269   0.009949   0.325098   4.190134   0.159565
     6  F    0.036626  -0.000092  -0.000153  -0.050634   0.159565   9.323451
     7  F   -0.001217  -0.000094   0.000039  -0.051898   0.180764  -0.026075
     8  F   -0.001217  -0.000094   0.000039  -0.051898   0.180764  -0.026075
     9  F   -0.120058   0.004225  -0.002290   0.182058  -0.052894   0.000842
               7          8          9
     1  C   -0.001217  -0.001217  -0.120058
     2  H   -0.000094  -0.000094   0.004225
     3  H    0.000039   0.000039  -0.002290
     4  C   -0.051898  -0.051898   0.182058
     5  C    0.180764   0.180764  -0.052894
     6  F   -0.026075  -0.026075   0.000842
     7  F    9.321109  -0.029254   0.002789
     8  F   -0.029254   9.321109   0.002789
     9  F    0.002789   0.002789   9.361079
 Mulliken charges:
               1
     1  C   -0.427846
     2  H    0.250104
     3  H    0.254669
     4  C    0.350005
     5  C    1.161385
     6  F   -0.417454
     7  F   -0.396162
     8  F   -0.396162
     9  F   -0.378539
 Sum of Mulliken charges =  -0.00000
 Mulliken charges with hydrogens summed into heavy atoms:
               1
     1  C    0.076928
     4  C    0.350005
     5  C    1.161385
     6  F   -0.417454
     7  F   -0.396162
     8  F   -0.396162
     9  F   -0.378539
 Electronic spatial extent (au):  <R**2>=            634.7487
 Charge=             -0.0000 electrons
 Dipole moment (field-independent basis, Debye):
    X=              2.3269    Y=             -1.7939    Z=             -0.0000  Tot=              2.9381
 Quadrupole moment (field-independent basis, Debye-Ang):
   XX=            -36.0691   YY=            -37.5012   ZZ=            -39.5911
   XY=             -3.9187   XZ=              0.0000   YZ=             -0.0000
 Traceless Quadrupole moment (field-independent basis, Debye-Ang):
   XX=              1.6514   YY=              0.2193   ZZ=             -1.8706
   XY=             -3.9187   XZ=              0.0000   YZ=             -0.0000
 Octapole moment (field-independent basis, Debye-Ang**2):
  XXX=             -2.0677  YYY=             -0.1726  ZZZ=             -0.0000  XYY=             -1.1443
  XXY=             -4.7952  XXZ=             -0.0000  XZZ=             -4.6632  YZZ=              5.8011
  YYZ=              0.0000  XYZ=             -0.0000
 Hexadecapole moment (field-independent basis, Debye-Ang**3):
 XXXX=           -339.2324 YYYY=           -186.0080 ZZZZ=            -99.1381 XXXY=             -4.0237
 XXXZ=              0.0000 YYYX=              4.1730 YYYZ=             -0.0000 ZZZX=              0.0000
 ZZZY=              0.0000 XXYY=            -93.3647 XXZZ=            -83.9678 YYZZ=            -50.8120
 XXYZ=              0.0000 YYXZ=             -0.0000 ZZXY=              5.4259
 N-N= 3.312808356383D+02 E-N=-1.880393783408D+03  KE= 5.110221142877D+02
 No NMR shielding tensors so no spin-rotation constants.
 Leave Link  601 at Thu Apr  2 13:28:56 2026, MaxMem=  2147483648 cpu:               0.6 elap:               0.1
 (Enter /Users/yarger/Applications/g16/l701.exe)
 ... and contract with generalized density number  0.
 Compute integral first derivatives.
 Leave Link  701 at Thu Apr  2 13:28:56 2026, MaxMem=  2147483648 cpu:               0.5 elap:               0.1
 (Enter /Users/yarger/Applications/g16/l702.exe)
 L702 exits ... SP integral derivatives will be done elsewhere.
 Leave Link  702 at Thu Apr  2 13:28:56 2026, MaxMem=  2147483648 cpu:               0.1 elap:               0.0
 (Enter /Users/yarger/Applications/g16/l703.exe)
 Integral derivatives from FoFJK, PRISM(SPDF).
 Compute integral first derivatives, UseDBF=F ICtDFT=           0.
 Calling FoFJK, ICntrl=      2127 FMM=F ISym2X=0 I1Cent= 0 IOpClX= 0 NMat=1 NMatS=1 NMatT=0.
 FoFJK:  IHMeth= 1 ICntrl=    2127 DoSepK=F KAlg= 0 I1Cent=           0 FoldK=F
 IRaf=         0 NMat=       1 IRICut=       1 DoRegI=T DoRafI=F ISym2E= 0 IDoP0=0 IntGTp=1.
 FoFCou: FMM=F IPFlag=           0 FMFlag=      100000 FMFlg1=         800
         NFxFlg=           0 DoJE=F BraDBF=F KetDBF=F FulRan=T
         wScrn=  0.000000 ICntrl=      2127 IOpCl=  0 I1Cent=           0 NGrid=           0
         NMat0=    1 NMatS0=      1 NMatT0=    0 NMatD0=    1 NMtDS0=    0 NMtDT0=    0
 Symmetry not used in FoFCou.
 Leave Link  703 at Thu Apr  2 13:28:57 2026, MaxMem=  2147483648 cpu:               3.2 elap:               0.4
 (Enter /Users/yarger/Applications/g16/l716.exe)
 Dipole        = 9.15481463D-01-7.05760927D-01-1.78207253D-07
 ***** Axes restored to original set *****
 -------------------------------------------------------------------
 Center     Atomic                   Forces (Hartrees/Bohr)
 Number     Number              X              Y              Z
 -------------------------------------------------------------------
      1        6          -0.007392007   -0.000924650   -0.000000304
      2        1          -0.005976675   -0.011341518    0.000000136
      3        1          -0.010410970   -0.009103165    0.000000029
      4        6           0.021480309    0.008684105    0.000000346
      5        6          -0.060612451    0.003645326   -0.000000288
      6        9           0.028794765    0.009446452   -0.000000016
      7        9           0.020269949   -0.003438569   -0.006834154
      8        9           0.020270050   -0.003438558    0.006834322
      9        9          -0.006422971    0.006470576   -0.000000070
 -------------------------------------------------------------------
 Cartesian Forces:  Max     0.060612451 RMS     0.015605533
 Leave Link  716 at Thu Apr  2 13:28:57 2026, MaxMem=  2147483648 cpu:               0.1 elap:               0.0
 (Enter /Users/yarger/Applications/g16/l103.exe)

 GradGradGradGradGradGradGradGradGradGradGradGradGradGradGradGradGradGrad
 Berny optimization.
 FormGI is forming the generalized inverse of G from B-inverse, IUseBI=4.
 Internal  Forces:  Max     0.031381585 RMS     0.013195770
 Search for a local minimum.
 Step number   1 out of a maximum of   40
 All quantities printed in internal units (Hartrees-Bohrs-Radians)
 RMS Force = .13196D-01 SwitMx=.10000D-02 MixMth= 1
 Mixed Optimization -- RFO/linear search
 Second derivative matrix not updated -- first step.
 ITU=  0
     Eigenvalues ---    0.00610   0.01669   0.03046   0.03046   0.09678
     Eigenvalues ---    0.10211   0.16000   0.16000   0.25000   0.25000
     Eigenvalues ---    0.25000   0.25000   0.25000   0.31172   0.35218
     Eigenvalues ---    0.35374   0.56547   0.56547   0.57564   0.58691
     Eigenvalues ---    0.60065
 RFO step:  Lambda=-1.58267292D-02 EMin= 6.10148604D-03
 Linear search not attempted -- first point.
 Iteration  1 RMS(Cart)=  0.07539693 RMS(Int)=  0.00263864
 Iteration  2 RMS(Cart)=  0.00236129 RMS(Int)=  0.00110235
 Iteration  3 RMS(Cart)=  0.00000516 RMS(Int)=  0.00110234
 Iteration  4 RMS(Cart)=  0.00000001 RMS(Int)=  0.00110234
 ITry= 1 IFail=0 DXMaxC= 2.10D-01 DCOld= 1.00D+10 DXMaxT= 3.00D-01 DXLimC= 3.00D+00 Rises=F
 Variable       Old X    -DE/DX   Delta X   Delta X   Delta X     New X
                                 (Linear)    (Quad)   (Total)
    R1        2.05072  -0.00868   0.00000  -0.02349  -0.02349   2.02723
    R2        2.05322  -0.00982   0.00000  -0.02668  -0.02668   2.02654
    R3        2.50889  -0.03138   0.00000  -0.05090  -0.05090   2.45798
    R4        2.85685  -0.00863   0.00000  -0.02635  -0.02635   2.83050
    R5        2.51991  -0.00841   0.00000  -0.01395  -0.01395   2.50597
    R6        2.52922  -0.02137   0.00000  -0.03613  -0.03613   2.49309
    R7        2.53782  -0.01494   0.00000  -0.02570  -0.02570   2.51212
    R8        2.53782  -0.01494   0.00000  -0.02570  -0.02570   2.51212
    A1        1.97563   0.01311   0.00000   0.07459   0.07459   2.05022
    A2        2.15312  -0.00623   0.00000  -0.03545  -0.03545   2.11768
    A3        2.15443  -0.00688   0.00000  -0.03914  -0.03914   2.11529
    A4        2.20255  -0.00682   0.00000  -0.02566  -0.02566   2.17689
    A5        2.11082   0.00786   0.00000   0.02955   0.02955   2.14038
    A6        1.96981  -0.00104   0.00000  -0.00390  -0.00390   1.96591
    A7        2.02174  -0.02657   0.00000  -0.10263  -0.10555   1.91619
    A8        1.97955  -0.01522   0.00000  -0.05593  -0.05799   1.92156
    A9        1.97955  -0.01522   0.00000  -0.05593  -0.05799   1.92156
   A10        1.82213   0.02393   0.00000   0.08772   0.08488   1.90700
   A11        1.82213   0.02393   0.00000   0.08772   0.08488   1.90700
   A12        1.81783   0.01827   0.00000   0.07359   0.07239   1.89023
    D1       -0.00000   0.00000   0.00000   0.00000   0.00000  -0.00000
    D2        3.14159   0.00000   0.00000   0.00000   0.00000   3.14159
    D3        3.14159   0.00000   0.00000   0.00000   0.00000   3.14159
    D4        0.00000  -0.00000   0.00000  -0.00000  -0.00000   0.00000
    D5       -3.14158   0.00000   0.00000   0.00000   0.00000  -3.14158
    D6       -1.03460  -0.00088   0.00000  -0.00747  -0.00681  -1.04140
    D7        1.03461   0.00088   0.00000   0.00747   0.00681   1.04142
    D8        0.00001   0.00000   0.00000   0.00000   0.00000   0.00001
    D9        2.10699  -0.00088   0.00000  -0.00747  -0.00680   2.10019
   D10       -2.10698   0.00088   0.00000   0.00747   0.00681  -2.10017
         Item               Value     Threshold  Converged?
 Maximum Force            0.031382     0.000015     NO 
 RMS     Force            0.013196     0.000010     NO 
 Maximum Displacement     0.209923     0.000060     NO 
 RMS     Displacement     0.076480     0.000040     NO 
 Predicted change in Energy=-8.339265D-03
 Lowest energy point so far.  Saving SCF results.
 GradGradGradGradGradGradGradGradGradGradGradGradGradGradGradGradGradGrad

 Leave Link  103 at Thu Apr  2 13:28:57 2026, MaxMem=  2147483648 cpu:               0.1 elap:               0.0
 (Enter /Users/yarger/Applications/g16/l202.exe)
                          Input orientation:                          
 ---------------------------------------------------------------------
 Center     Atomic      Atomic             Coordinates (Angstroms)
 Number     Number       Type             X           Y           Z
 ---------------------------------------------------------------------
      1          6           0        1.701005    1.053825   -0.000000
      2          1           0        1.295529    2.047010   -0.000000
      3          1           0        2.768886    0.955495   -0.000001
      4          6           0        0.928084    0.007672   -0.000001
      5          6           0       -0.569068    0.052917   -0.000000
      6          9           0       -1.053028   -1.174397    0.000009
      7          9           0       -1.006603    0.696887    1.077524
      8          9           0       -1.006604    0.696871   -1.077534
      9          9           0        1.401318   -1.231114   -0.000001
 ---------------------------------------------------------------------
                    Distance matrix (angstroms):
                    1          2          3          4          5
     1  C    0.000000
     2  H    1.072766   0.000000
     3  H    1.072398   1.833626   0.000000
     4  C    1.300709   2.072177   2.070489   0.000000
     5  C    2.480938   2.730042   3.457830   1.497836   0.000000
     6  F    3.542552   3.986626   4.375326   2.306966   1.319287
     7  F    2.935917   2.878142   3.934750   2.319287   1.329358
     8  F    2.935923   2.878154   3.934755   2.319287   1.329358
     9  F    2.304509   3.279831   2.579051   1.326100   2.351842
                    6          7          8          9
     6  F    0.000000
     7  F    2.159838   0.000000
     8  F    2.159838   2.155058   0.000000
     9  F    2.455002   3.267466   3.267460   0.000000
 Stoichiometry    C3H2F4
 Framework group  C1[X(C3H2F4)]
 Deg. of freedom    21
 Full point group                 C1      NOp   1
 RotChk:  IX=0 Diff= 4.79D-02
 Largest Abelian subgroup         C1      NOp   1
 Largest concise Abelian subgroup C1      NOp   1
                         Standard orientation:                         
 ---------------------------------------------------------------------
 Center     Atomic      Atomic             Coordinates (Angstroms)
 Number     Number       Type             X           Y           Z
 ---------------------------------------------------------------------
      1          6           0        1.638977   -1.099565   -0.000000
      2          1           0        1.200087   -2.078444    0.000000
      3          1           0        2.709576   -1.037469    0.000000
      4          6           0        0.901940   -0.027828    0.000000
      5          6           0       -0.595886   -0.022329   -0.000000
      6          9           0       -1.037991    1.220677   -0.000009
      7          9           0       -1.054985   -0.651107   -1.077525
      8          9           0       -1.054986   -0.651091    1.077533
      9          9           0        1.416868    1.194215    0.000001
 ---------------------------------------------------------------------
 Rotational constants (GHZ):           3.7539521           2.5186032           2.0456505
 Leave Link  202 at Thu Apr  2 13:28:57 2026, MaxMem=  2147483648 cpu:               0.0 elap:               0.0
 (Enter /Users/yarger/Applications/g16/l301.exe)
 Standard basis: 6-31+G(d) (6D, 7F)
 Ernie: Thresh=  0.10000D-02 Tol=  0.10000D-05 Strict=F.
 There are   137 symmetry adapted cartesian basis functions of A   symmetry.
 There are   137 symmetry adapted basis functions of A   symmetry.
   137 basis functions,   232 primitive gaussians,   137 cartesian basis functions
    28 alpha electrons       28 beta electrons
       nuclear repulsion energy       336.2995669807 Hartrees.
 IExCor=    0 DFT=F Ex=HF Corr=None ExCW=0 ScaHFX=  1.000000
 ScaDFX=  1.000000  1.000000  1.000000  1.000000 ScalE2=  1.000000  1.000000
 IRadAn=      5 IRanWt=     -1 IRanGd=            0 ICorTp=0 IEmpDi=  4
 NAtoms=    9 NActive=    9 NUniq=    9 SFac= 1.00D+00 NAtFMM=   60 NAOKFM=F Big=F
 Integral buffers will be    131072 words long.
 Raffenetti 1 integral format.
 Two-electron integral symmetry is turned on.
 Leave Link  301 at Thu Apr  2 13:28:57 2026, MaxMem=  2147483648 cpu:               0.1 elap:               0.0
 (Enter /Users/yarger/Applications/g16/l302.exe)
 NPDir=0 NMtPBC=     1 NCelOv=     1 NCel=       1 NClECP=     1 NCelD=      1
         NCelK=      1 NCelE2=     1 NClLst=     1 CellRange=     0.0.
 One-electron integrals computed using PRISM.
 One-electron integral symmetry used in STVInt
 NBasis=   137 RedAO= T EigKep=  5.77D-05  NBF=   137
 NBsUse=   137 1.00D-06 EigRej= -1.00D+00 NBFU=   137
 Leave Link  302 at Thu Apr  2 13:28:57 2026, MaxMem=  2147483648 cpu:               0.8 elap:               0.1
 (Enter /Users/yarger/Applications/g16/l303.exe)
 DipDrv:  MaxL=1.
 Leave Link  303 at Thu Apr  2 13:28:57 2026, MaxMem=  2147483648 cpu:               0.1 elap:               0.0
 (Enter /Users/yarger/Applications/g16/l401.exe)
 Initial guess from the checkpoint file:  "2223Tetrafluoropropene_Opt_Freq_HF_631pd_Gaussian16.chk"
 B after Tr=    -0.000000    0.000000    0.000000
         Rot=    0.999898    0.000000    0.000000    0.014259 Ang=   1.63 deg.
 Guess basis will be translated and rotated to current coordinates.
 JPrj=2 DoOrth=T DoCkMO=T.
 Generating alternative initial guess.
 ExpMin= 4.38D-02 ExpMax= 7.00D+03 ExpMxC= 1.05D+03 IAcc=2 IRadAn=         4 AccDes= 0.00D+00
 Harris functional with IExCor=  205 and IRadAn=       4 diagonalized for initial guess.
 HarFok:  IExCor=  205 AccDes= 0.00D+00 IRadAn=         4 IDoV= 1 UseB2=F ITyADJ=14
 ICtDFT=  3500011 ScaDFX=  1.000000  1.000000  1.000000  1.000000
 FoFCou: FMM=F IPFlag=           0 FMFlag=      100000 FMFlg1=           0
         NFxFlg=           0 DoJE=T BraDBF=F KetDBF=T FulRan=T
         wScrn=  0.000000 ICntrl=       500 IOpCl=  0 I1Cent=   200000004 NGrid=           0
         NMat0=    1 NMatS0=      1 NMatT0=    0 NMatD0=    1 NMtDS0=    0 NMtDT0=    0
 Petite list used in FoFCou.
 Harris En= -512.528839106017    
 Leave Link  401 at Thu Apr  2 13:28:58 2026, MaxMem=  2147483648 cpu:               1.3 elap:               0.2
 (Enter /Users/yarger/Applications/g16/l502.exe)
 Keep R1 ints in memory in canonical form, NReq=46403361.
 FoFCou: FMM=F IPFlag=           0 FMFlag=           0 FMFlg1=           0
         NFxFlg=           0 DoJE=F BraDBF=F KetDBF=F FulRan=T
         wScrn=  0.000000 ICntrl=       600 IOpCl=  0 I1Cent=           0 NGrid=           0
         NMat0=    1 NMatS0=   9453 NMatT0=    0 NMatD0=    1 NMtDS0=    0 NMtDT0=    0
 Symmetry not used in FoFCou.
 Two-electron integral symmetry not used.
 Closed shell SCF:
 Using DIIS extrapolation, IDIIS=  1040.
 NGot=  2147483648 LenX=  2102759234 LenY=  2102740024
 Requested convergence on RMS density matrix=1.00D-08 within 128 cycles.
 Requested convergence on MAX density matrix=1.00D-06.
 Requested convergence on             energy=1.00D-06.
 No special actions if energy rises.

 Cycle   1  Pass 1  IDiag  1:
 E= -512.505065728906    
 DIIS: error= 4.67D-03 at cycle   1 NSaved=   1.
 NSaved= 1 IEnMin= 1 EnMin= -512.505065728906     IErMin= 1 ErrMin= 4.67D-03
 ErrMax= 4.67D-03  0.00D+00 EMaxC= 1.00D-01 BMatC= 6.41D-03 BMatP= 6.41D-03
 IDIUse=3 WtCom= 9.53D-01 WtEn= 4.67D-02
 Coeff-Com:  0.100D+01
 Coeff-En:   0.100D+01
 Coeff:      0.100D+01
 Gap=     0.987 Goal=   None    Shift=    0.000
 GapD=    0.987 DampG=2.000 DampE=1.000 DampFc=2.0000 IDamp=-1.
 RMSDP=1.19D-03 MaxDP=2.54D-02              OVMax= 1.62D-02

 Cycle   2  Pass 1  IDiag  1:
 E= -512.512542183349     Delta-E=       -0.007476454444 Rises=F Damp=F
 DIIS: error= 1.31D-03 at cycle   2 NSaved=   2.
 NSaved= 2 IEnMin= 2 EnMin= -512.512542183349     IErMin= 2 ErrMin= 1.31D-03
 ErrMax= 1.31D-03  0.00D+00 EMaxC= 1.00D-01 BMatC= 4.79D-04 BMatP= 6.41D-03
 IDIUse=3 WtCom= 9.87D-01 WtEn= 1.31D-02
 Coeff-Com: -0.194D+00 0.119D+01
 Coeff-En:   0.000D+00 0.100D+01
 Coeff:     -0.192D+00 0.119D+01
 Gap=     0.486 Goal=   None    Shift=    0.000
 RMSDP=3.00D-04 MaxDP=6.66D-03 DE=-7.48D-03 OVMax= 7.74D-03

 Cycle   3  Pass 1  IDiag  1:
 E= -512.513436661395     Delta-E=       -0.000894478045 Rises=F Damp=F
 DIIS: error= 4.11D-04 at cycle   3 NSaved=   3.
 NSaved= 3 IEnMin= 3 EnMin= -512.513436661395     IErMin= 3 ErrMin= 4.11D-04
 ErrMax= 4.11D-04  0.00D+00 EMaxC= 1.00D-01 BMatC= 5.30D-05 BMatP= 4.79D-04
 IDIUse=3 WtCom= 9.96D-01 WtEn= 4.11D-03
 Coeff-Com: -0.545D-01 0.498D-01 0.100D+01
 Coeff-En:   0.000D+00 0.000D+00 0.100D+01
 Coeff:     -0.543D-01 0.496D-01 0.100D+01
 Gap=     0.489 Goal=   None    Shift=    0.000
 RMSDP=8.93D-05 MaxDP=2.09D-03 DE=-8.94D-04 OVMax= 2.65D-03

 Cycle   4  Pass 1  IDiag  1:
 E= -512.513530702027     Delta-E=       -0.000094040633 Rises=F Damp=F
 DIIS: error= 1.67D-04 at cycle   4 NSaved=   4.
 NSaved= 4 IEnMin= 4 EnMin= -512.513530702027     IErMin= 4 ErrMin= 1.67D-04
 ErrMax= 1.67D-04  0.00D+00 EMaxC= 1.00D-01 BMatC= 8.49D-06 BMatP= 5.30D-05
 IDIUse=3 WtCom= 9.98D-01 WtEn= 1.67D-03
 Coeff-Com:  0.188D-01-0.160D+00 0.115D+00 0.103D+01
 Coeff-En:   0.000D+00 0.000D+00 0.000D+00 0.100D+01
 Coeff:      0.188D-01-0.160D+00 0.114D+00 0.103D+01
 Gap=     0.489 Goal=   None    Shift=    0.000
 RMSDP=4.28D-05 MaxDP=1.08D-03 DE=-9.40D-05 OVMax= 1.09D-03

 Cycle   5  Pass 1  IDiag  1:
 E= -512.513544449358     Delta-E=       -0.000013747331 Rises=F Damp=F
 DIIS: error= 6.46D-05 at cycle   5 NSaved=   5.
 NSaved= 5 IEnMin= 5 EnMin= -512.513544449358     IErMin= 5 ErrMin= 6.46D-05
 ErrMax= 6.46D-05  0.00D+00 EMaxC= 1.00D-01 BMatC= 5.54D-07 BMatP= 8.49D-06
 IDIUse=1 WtCom= 1.00D+00 WtEn= 0.00D+00
 Coeff-Com:  0.794D-02-0.351D-01-0.489D-01 0.197D+00 0.879D+00
 Coeff:      0.794D-02-0.351D-01-0.489D-01 0.197D+00 0.879D+00
 Gap=     0.489 Goal=   None    Shift=    0.000
 RMSDP=8.49D-06 MaxDP=2.00D-04 DE=-1.37D-05 OVMax= 2.61D-04

 Cycle   6  Pass 1  IDiag  1:
 E= -512.513545146221     Delta-E=       -0.000000696863 Rises=F Damp=F
 DIIS: error= 1.10D-05 at cycle   6 NSaved=   6.
 NSaved= 6 IEnMin= 6 EnMin= -512.513545146221     IErMin= 6 ErrMin= 1.10D-05
 ErrMax= 1.10D-05  0.00D+00 EMaxC= 1.00D-01 BMatC= 3.25D-08 BMatP= 5.54D-07
 IDIUse=1 WtCom= 1.00D+00 WtEn= 0.00D+00
 Coeff-Com: -0.153D-02 0.135D-01-0.841D-02-0.911D-01 0.943D-02 0.108D+01
 Coeff:     -0.153D-02 0.135D-01-0.841D-02-0.911D-01 0.943D-02 0.108D+01
 Gap=     0.489 Goal=   None    Shift=    0.000
 RMSDP=3.08D-06 MaxDP=6.00D-05 DE=-6.97D-07 OVMax= 6.53D-05

 Cycle   7  Pass 1  IDiag  1:
 E= -512.513545194397     Delta-E=       -0.000000048176 Rises=F Damp=F
 DIIS: error= 3.13D-06 at cycle   7 NSaved=   7.
 NSaved= 7 IEnMin= 7 EnMin= -512.513545194397     IErMin= 7 ErrMin= 3.13D-06
 ErrMax= 3.13D-06  0.00D+00 EMaxC= 1.00D-01 BMatC= 1.68D-09 BMatP= 3.25D-08
 IDIUse=1 WtCom= 1.00D+00 WtEn= 0.00D+00
 Coeff-Com: -0.472D-03 0.269D-02 0.145D-02-0.186D-01-0.297D-01 0.969D-01
 Coeff-Com:  0.948D+00
 Coeff:     -0.472D-03 0.269D-02 0.145D-02-0.186D-01-0.297D-01 0.969D-01
 Coeff:      0.948D+00
 Gap=     0.489 Goal=   None    Shift=    0.000
 RMSDP=5.93D-07 MaxDP=1.07D-05 DE=-4.82D-08 OVMax= 1.54D-05

 Cycle   8  Pass 1  IDiag  1:
 E= -512.513545196633     Delta-E=       -0.000000002236 Rises=F Damp=F
 DIIS: error= 1.10D-06 at cycle   8 NSaved=   8.
 NSaved= 8 IEnMin= 8 EnMin= -512.513545196633     IErMin= 8 ErrMin= 1.10D-06
 ErrMax= 1.10D-06  0.00D+00 EMaxC= 1.00D-01 BMatC= 1.84D-10 BMatP= 1.68D-09
 IDIUse=1 WtCom= 1.00D+00 WtEn= 0.00D+00
 Coeff-Com:  0.984D-04-0.101D-02 0.120D-02 0.593D-02-0.405D-02-0.932D-01
 Coeff-Com:  0.127D+00 0.964D+00
 Coeff:      0.984D-04-0.101D-02 0.120D-02 0.593D-02-0.405D-02-0.932D-01
 Coeff:      0.127D+00 0.964D+00
 Gap=     0.489 Goal=   None    Shift=    0.000
 RMSDP=2.06D-07 MaxDP=3.45D-06 DE=-2.24D-09 OVMax= 7.63D-06

 Cycle   9  Pass 1  IDiag  1:
 E= -512.513545196943     Delta-E=       -0.000000000310 Rises=F Damp=F
 DIIS: error= 2.77D-07 at cycle   9 NSaved=   9.
 NSaved= 9 IEnMin= 9 EnMin= -512.513545196943     IErMin= 9 ErrMin= 2.77D-07
 ErrMax= 2.77D-07  0.00D+00 EMaxC= 1.00D-01 BMatC= 1.67D-11 BMatP= 1.84D-10
 IDIUse=1 WtCom= 1.00D+00 WtEn= 0.00D+00
 Coeff-Com:  0.270D-04-0.116D-03-0.833D-04 0.588D-03 0.298D-02-0.601D-03
 Coeff-Com: -0.871D-01-0.472D-01 0.113D+01
 Coeff:      0.270D-04-0.116D-03-0.833D-04 0.588D-03 0.298D-02-0.601D-03
 Coeff:     -0.871D-01-0.472D-01 0.113D+01
 Gap=     0.489 Goal=   None    Shift=    0.000
 RMSDP=7.44D-08 MaxDP=1.25D-06 DE=-3.10D-10 OVMax= 2.43D-06

 Cycle  10  Pass 1  IDiag  1:
 E= -512.513545196975     Delta-E=       -0.000000000032 Rises=F Damp=F
 DIIS: error= 9.84D-08 at cycle  10 NSaved=  10.
 NSaved=10 IEnMin=10 EnMin= -512.513545196975     IErMin=10 ErrMin= 9.84D-08
 ErrMax= 9.84D-08  0.00D+00 EMaxC= 1.00D-01 BMatC= 1.71D-12 BMatP= 1.67D-11
 IDIUse=1 WtCom= 1.00D+00 WtEn= 0.00D+00
 Coeff-Com: -0.845D-05 0.910D-04-0.929D-04-0.669D-03 0.930D-03 0.921D-02
 Coeff-Com: -0.206D-01-0.860D-01 0.407D-01 0.106D+01
 Coeff:     -0.845D-05 0.910D-04-0.929D-04-0.669D-03 0.930D-03 0.921D-02
 Coeff:     -0.206D-01-0.860D-01 0.407D-01 0.106D+01
 Gap=     0.489 Goal=   None    Shift=    0.000
 RMSDP=2.29D-08 MaxDP=4.23D-07 DE=-3.22D-11 OVMax= 1.08D-06

 Cycle  11  Pass 1  IDiag  1:
 E= -512.513545196979     Delta-E=       -0.000000000004 Rises=F Damp=F
 DIIS: error= 2.43D-08 at cycle  11 NSaved=  11.
 NSaved=11 IEnMin=11 EnMin= -512.513545196979     IErMin=11 ErrMin= 2.43D-08
 ErrMax= 2.43D-08  0.00D+00 EMaxC= 1.00D-01 BMatC= 2.08D-13 BMatP= 1.71D-12
 IDIUse=1 WtCom= 1.00D+00 WtEn= 0.00D+00
 Coeff-Com: -0.324D-05 0.165D-04 0.124D-04-0.139D-03-0.153D-03 0.319D-03
 Coeff-Com:  0.692D-02 0.826D-02-0.128D+00 0.408D-01 0.107D+01
 Coeff:     -0.324D-05 0.165D-04 0.124D-04-0.139D-03-0.153D-03 0.319D-03
 Coeff:      0.692D-02 0.826D-02-0.128D+00 0.408D-01 0.107D+01
 Gap=     0.489 Goal=   None    Shift=    0.000
 RMSDP=8.11D-09 MaxDP=1.68D-07 DE=-3.87D-12 OVMax= 4.08D-07

 SCF Done:  E(RHF) =  -512.513545197     A.U. after   11 cycles
            NFock= 11  Conv=0.81D-08     -V/T= 2.0023
 KE= 5.113202254774D+02 PE=-1.890591635658D+03 EE= 5.304582980035D+02
 Leave Link  502 at Thu Apr  2 13:28:58 2026, MaxMem=  2147483648 cpu:               3.1 elap:               0.6
 (Enter /Users/yarger/Applications/g16/l701.exe)
 ... and contract with generalized density number  0.
 Compute integral first derivatives.
 Leave Link  701 at Thu Apr  2 13:28:58 2026, MaxMem=  2147483648 cpu:               0.5 elap:               0.1
 (Enter /Users/yarger/Applications/g16/l702.exe)
 L702 exits ... SP integral derivatives will be done elsewhere.
 Leave Link  702 at Thu Apr  2 13:28:58 2026, MaxMem=  2147483648 cpu:               0.1 elap:               0.0
 (Enter /Users/yarger/Applications/g16/l703.exe)
 Integral derivatives from FoFJK, PRISM(SPDF).
 Compute integral first derivatives, UseDBF=F ICtDFT=           0.
 Calling FoFJK, ICntrl=      2127 FMM=F ISym2X=0 I1Cent= 0 IOpClX= 0 NMat=1 NMatS=1 NMatT=0.
 FoFJK:  IHMeth= 1 ICntrl=    2127 DoSepK=F KAlg= 0 I1Cent=           0 FoldK=F
 IRaf=         0 NMat=       1 IRICut=       1 DoRegI=T DoRafI=F ISym2E= 0 IDoP0=0 IntGTp=1.
 FoFCou: FMM=F IPFlag=           0 FMFlag=      100000 FMFlg1=         800
         NFxFlg=           0 DoJE=F BraDBF=F KetDBF=F FulRan=T
         wScrn=  0.000000 ICntrl=      2127 IOpCl=  0 I1Cent=           0 NGrid=           0
         NMat0=    1 NMatS0=      1 NMatT0=    0 NMatD0=    1 NMtDS0=    0 NMtDT0=    0
 Symmetry not used in FoFCou.
 Leave Link  703 at Thu Apr  2 13:28:59 2026, MaxMem=  2147483648 cpu:               3.2 elap:               0.4
 (Enter /Users/yarger/Applications/g16/l716.exe)
 Dipole        = 6.10195770D-01-6.68112215D-01-4.01677813D-07
 ***** Axes restored to original set *****
 -------------------------------------------------------------------
 Center     Atomic                   Forces (Hartrees/Bohr)
 Number     Number              X              Y              Z
 -------------------------------------------------------------------
      1        6           0.009043611    0.008958002   -0.000000047
      2        1          -0.002329604   -0.000982569    0.000000041
      3        1           0.000692180   -0.001562900   -0.000000011
      4        6           0.006948626   -0.007375705    0.000000111
      5        6           0.002168096   -0.002282411   -0.000000107
      6        9          -0.006853860    0.011032338   -0.000000066
      7        9          -0.005566159   -0.004676104   -0.009890753
      8        9          -0.005566099   -0.004676085    0.009890900
      9        9           0.001463209    0.001565433   -0.000000068
 -------------------------------------------------------------------
 Cartesian Forces:  Max     0.011032338 RMS     0.005300500
 Leave Link  716 at Thu Apr  2 13:28:59 2026, MaxMem=  2147483648 cpu:               0.1 elap:               0.0
 (Enter /Users/yarger/Applications/g16/l103.exe)

 GradGradGradGradGradGradGradGradGradGradGradGradGradGradGradGradGradGrad
 Berny optimization.
 Using GEDIIS/GDIIS optimizer.
 FormGI is forming the generalized inverse of G from B-inverse, IUseBI=4.
 Internal  Forces:  Max     0.015792610 RMS     0.006821793
 Search for a local minimum.
 Step number   2 out of a maximum of   40
 All quantities printed in internal units (Hartrees-Bohrs-Radians)
 RMS Force = .68218D-02 SwitMx=.10000D-02 MixMth= 1
 Mixed Optimization -- RFO/linear search
 Update second derivatives using D2CorX and points    1    2
 DE= -5.51D-03 DEPred=-8.34D-03 R= 6.61D-01
 TightC=F SS=  1.41D+00  RLast= 2.34D-01 DXNew= 5.0454D-01 7.0337D-01
 Trust test= 6.61D-01 RLast= 2.34D-01 DXMaxT set to 5.05D-01
 ITU=  1  0
 Use linear search instead of GDIIS.
     Eigenvalues ---    0.00610   0.01693   0.03046   0.03046   0.11276
     Eigenvalues ---    0.11313   0.15150   0.16009   0.24821   0.25000
     Eigenvalues ---    0.25000   0.25000   0.29172   0.34820   0.35313
     Eigenvalues ---    0.41635   0.51910   0.56547   0.57220   0.58672
     Eigenvalues ---    0.64828
 RFO step:  Lambda=-1.54296445D-03 EMin= 6.10148604D-03
 Quartic linear search produced a step of -0.24007.
 Iteration  1 RMS(Cart)=  0.02420670 RMS(Int)=  0.00035086
 Iteration  2 RMS(Cart)=  0.00028399 RMS(Int)=  0.00015953
 Iteration  3 RMS(Cart)=  0.00000004 RMS(Int)=  0.00015953
 ITry= 1 IFail=0 DXMaxC= 5.67D-02 DCOld= 1.00D+10 DXMaxT= 5.05D-01 DXLimC= 3.00D+00 Rises=F
 Variable       Old X    -DE/DX   Delta X   Delta X   Delta X     New X
                                 (Linear)    (Quad)   (Total)
    R1        2.02723  -0.00003   0.00564  -0.00867  -0.00304   2.02420
    R2        2.02654   0.00083   0.00641  -0.00800  -0.00159   2.02495
    R3        2.45798   0.00956   0.01222  -0.00598   0.00625   2.46423
    R4        2.83050   0.01579   0.00633   0.02852   0.03484   2.86534
    R5        2.50597  -0.00094   0.00335  -0.00616  -0.00281   2.50315
    R6        2.49309  -0.00775   0.00867  -0.02302  -0.01435   2.47874
    R7        2.51212  -0.00845   0.00617  -0.02045  -0.01428   2.49784
    R8        2.51212  -0.00845   0.00617  -0.02045  -0.01428   2.49784
    A1        2.05022   0.00272  -0.01791   0.04284   0.02494   2.07516
    A2        2.11768  -0.00241   0.00851  -0.02561  -0.01710   2.10058
    A3        2.11529  -0.00031   0.00940  -0.01723  -0.00783   2.10745
    A4        2.17689   0.00051   0.00616  -0.00819  -0.00203   2.17486
    A5        2.14038  -0.00267  -0.00709   0.00316  -0.00394   2.13644
    A6        1.96591   0.00216   0.00094   0.00504   0.00597   1.97189
    A7        1.91619   0.01399   0.02534   0.00327   0.02904   1.94523
    A8        1.92156   0.01030   0.01392   0.00706   0.02129   1.94285
    A9        1.92156   0.01030   0.01392   0.00706   0.02129   1.94286
   A10        1.90700  -0.01170  -0.02038  -0.00219  -0.02216   1.88484
   A11        1.90700  -0.01170  -0.02038  -0.00219  -0.02216   1.88484
   A12        1.89023  -0.01186  -0.01738  -0.01334  -0.03054   1.85969
    D1       -0.00000   0.00000  -0.00000   0.00000   0.00000   0.00000
    D2        3.14159   0.00000  -0.00000   0.00000   0.00000   3.14159
    D3        3.14159   0.00000  -0.00000   0.00000   0.00000  -3.14159
    D4        0.00000  -0.00000   0.00000  -0.00000  -0.00000  -0.00000
    D5       -3.14158   0.00000  -0.00000   0.00000   0.00000  -3.14158
    D6       -1.04140   0.00089   0.00163   0.00383   0.00537  -1.03603
    D7        1.04142  -0.00089  -0.00163  -0.00382  -0.00537   1.03605
    D8        0.00001   0.00000  -0.00000   0.00001   0.00001   0.00001
    D9        2.10019   0.00089   0.00163   0.00383   0.00538   2.10557
   D10       -2.10017  -0.00089  -0.00163  -0.00382  -0.00537  -2.10554
         Item               Value     Threshold  Converged?
 Maximum Force            0.015793     0.000015     NO 
 RMS     Force            0.006822     0.000010     NO 
 Maximum Displacement     0.056693     0.000060     NO 
 RMS     Displacement     0.024120     0.000040     NO 
 Predicted change in Energy=-1.457501D-03
 Lowest energy point so far.  Saving SCF results.
 GradGradGradGradGradGradGradGradGradGradGradGradGradGradGradGradGradGrad

 Leave Link  103 at Thu Apr  2 13:28:59 2026, MaxMem=  2147483648 cpu:               0.1 elap:               0.0
 (Enter /Users/yarger/Applications/g16/l202.exe)
                          Input orientation:                          
 ---------------------------------------------------------------------
 Center     Atomic      Atomic             Coordinates (Angstroms)
 Number     Number       Type             X           Y           Z
 ---------------------------------------------------------------------
      1          6           0        1.718318    1.057619    0.000000
      2          1           0        1.293041    2.040738    0.000004
      3          1           0        2.784930    0.954814   -0.000001
      4          6           0        0.947177    0.006051   -0.000000
      5          6           0       -0.568473    0.049534   -0.000000
      6          9           0       -1.083029   -1.157021    0.000012
      7          9           0       -1.030798    0.690608    1.059452
      8          9           0       -1.030800    0.690586   -1.059465
      9          9           0        1.429153   -1.227762   -0.000005
 ---------------------------------------------------------------------
                    Distance matrix (angstroms):
                    1          2          3          4          5
     1  C    0.000000
     2  H    1.071160   0.000000
     3  H    1.071555   1.845255   0.000000
     4  C    1.304014   2.063873   2.068208   0.000000
     5  C    2.499129   2.725826   3.473448   1.516273   0.000000
     6  F    3.571019   3.983889   4.406921   2.339760   1.311695
     7  F    2.968969   2.888860   3.968883   2.345942   1.321802
     8  F    2.968978   2.888878   3.968888   2.345942   1.321802
     9  F    2.303602   3.271333   2.569391   1.324612   2.371075
                    6          7          8          9
     6  F    0.000000
     7  F    2.130463   0.000000
     8  F    2.130463   2.118917   0.000000
     9  F    2.513179   3.294534   3.294524   0.000000
 Stoichiometry    C3H2F4
 Framework group  C1[X(C3H2F4)]
 Deg. of freedom    21
 Full point group                 C1      NOp   1
 RotChk:  IX=0 Diff= 1.37D-03
 Largest Abelian subgroup         C1      NOp   1
 Largest concise Abelian subgroup C1      NOp   1
                         Standard orientation:                         
 ---------------------------------------------------------------------
 Center     Atomic      Atomic             Coordinates (Angstroms)
 Number     Number       Type             X           Y           Z
 ---------------------------------------------------------------------
      1          6           0        1.659032   -1.104629   -0.000001
      2          1           0        1.199755   -2.072331   -0.000005
      3          1           0        2.728579   -1.039054    0.000000
      4          6           0        0.925003   -0.026828   -0.000000
      5          6           0       -0.591241   -0.017469   -0.000001
      6          9           0       -1.063441    1.206284   -0.000013
      7          9           0       -1.075625   -0.642043   -1.059453
      8          9           0       -1.075626   -0.642022    1.059464
      9          9           0        1.449681    1.189441    0.000004
 ---------------------------------------------------------------------
 Rotational constants (GHZ):           3.8282810           2.4661433           2.0083440
 Leave Link  202 at Thu Apr  2 13:28:59 2026, MaxMem=  2147483648 cpu:               0.0 elap:               0.0
 (Enter /Users/yarger/Applications/g16/l301.exe)
 Standard basis: 6-31+G(d) (6D, 7F)
 Ernie: Thresh=  0.10000D-02 Tol=  0.10000D-05 Strict=F.
 There are   137 symmetry adapted cartesian basis functions of A   symmetry.
 There are   137 symmetry adapted basis functions of A   symmetry.
   137 basis functions,   232 primitive gaussians,   137 cartesian basis functions
    28 alpha electrons       28 beta electrons
       nuclear repulsion energy       335.8668430523 Hartrees.
 IExCor=    0 DFT=F Ex=HF Corr=None ExCW=0 ScaHFX=  1.000000
 ScaDFX=  1.000000  1.000000  1.000000  1.000000 ScalE2=  1.000000  1.000000
 IRadAn=      5 IRanWt=     -1 IRanGd=            0 ICorTp=0 IEmpDi=  4
 NAtoms=    9 NActive=    9 NUniq=    9 SFac= 1.00D+00 NAtFMM=   60 NAOKFM=F Big=F
 Integral buffers will be    131072 words long.
 Raffenetti 1 integral format.
 Two-electron integral symmetry is turned on.
 Leave Link  301 at Thu Apr  2 13:28:59 2026, MaxMem=  2147483648 cpu:               0.1 elap:               0.0
 (Enter /Users/yarger/Applications/g16/l302.exe)
 NPDir=0 NMtPBC=     1 NCelOv=     1 NCel=       1 NClECP=     1 NCelD=      1
         NCelK=      1 NCelE2=     1 NClLst=     1 CellRange=     0.0.
 One-electron integrals computed using PRISM.
 One-electron integral symmetry used in STVInt
 NBasis=   137 RedAO= T EigKep=  5.99D-05  NBF=   137
 NBsUse=   137 1.00D-06 EigRej= -1.00D+00 NBFU=   137
 Leave Link  302 at Thu Apr  2 13:28:59 2026, MaxMem=  2147483648 cpu:               0.7 elap:               0.1
 (Enter /Users/yarger/Applications/g16/l303.exe)
 DipDrv:  MaxL=1.
 Leave Link  303 at Thu Apr  2 13:28:59 2026, MaxMem=  2147483648 cpu:               0.1 elap:               0.0
 (Enter /Users/yarger/Applications/g16/l401.exe)
 Initial guess from the checkpoint file:  "2223Tetrafluoropropene_Opt_Freq_HF_631pd_Gaussian16.chk"
 B after Tr=     0.000000   -0.000000   -0.000000
         Rot=    0.999999    0.000000    0.000000    0.001242 Ang=   0.14 deg.
 Guess basis will be translated and rotated to current coordinates.
 JPrj=2 DoOrth=T DoCkMO=T.
 Generating alternative initial guess.
 ExpMin= 4.38D-02 ExpMax= 7.00D+03 ExpMxC= 1.05D+03 IAcc=2 IRadAn=         4 AccDes= 0.00D+00
 Harris functional with IExCor=  205 and IRadAn=       4 diagonalized for initial guess.
 HarFok:  IExCor=  205 AccDes= 0.00D+00 IRadAn=         4 IDoV= 1 UseB2=F ITyADJ=14
 ICtDFT=  3500011 ScaDFX=  1.000000  1.000000  1.000000  1.000000
 FoFCou: FMM=F IPFlag=           0 FMFlag=      100000 FMFlg1=           0
         NFxFlg=           0 DoJE=T BraDBF=F KetDBF=T FulRan=T
         wScrn=  0.000000 ICntrl=       500 IOpCl=  0 I1Cent=   200000004 NGrid=           0
         NMat0=    1 NMatS0=      1 NMatT0=    0 NMatD0=    1 NMtDS0=    0 NMtDT0=    0
 Petite list used in FoFCou.
 Harris En= -512.527576073298    
 Leave Link  401 at Thu Apr  2 13:28:59 2026, MaxMem=  2147483648 cpu:               1.3 elap:               0.2
 (Enter /Users/yarger/Applications/g16/l502.exe)
 Keep R1 ints in memory in canonical form, NReq=46403158.
 FoFCou: FMM=F IPFlag=           0 FMFlag=           0 FMFlg1=           0
         NFxFlg=           0 DoJE=F BraDBF=F KetDBF=F FulRan=T
         wScrn=  0.000000 ICntrl=       600 IOpCl=  0 I1Cent=           0 NGrid=           0
         NMat0=    1 NMatS0=   9453 NMatT0=    0 NMatD0=    1 NMtDS0=    0 NMtDT0=    0
 Symmetry not used in FoFCou.
 Two-electron integral symmetry not used.
 Closed shell SCF:
 Using DIIS extrapolation, IDIIS=  1040.
 NGot=  2147483648 LenX=  2102759234 LenY=  2102740024
 Requested convergence on RMS density matrix=1.00D-08 within 128 cycles.
 Requested convergence on MAX density matrix=1.00D-06.
 Requested convergence on             energy=1.00D-06.
 No special actions if energy rises.

 Cycle   1  Pass 1  IDiag  1:
 E= -512.513810266956    
 DIIS: error= 1.82D-03 at cycle   1 NSaved=   1.
 NSaved= 1 IEnMin= 1 EnMin= -512.513810266956     IErMin= 1 ErrMin= 1.82D-03
 ErrMax= 1.82D-03  0.00D+00 EMaxC= 1.00D-01 BMatC= 8.28D-04 BMatP= 8.28D-04
 IDIUse=3 WtCom= 9.82D-01 WtEn= 1.82D-02
 Coeff-Com:  0.100D+01
 Coeff-En:   0.100D+01
 Coeff:      0.100D+01
 Gap=     0.992 Goal=   None    Shift=    0.000
 GapD=    0.992 DampG=2.000 DampE=1.000 DampFc=2.0000 IDamp=-1.
 RMSDP=4.67D-04 MaxDP=1.32D-02              OVMax= 5.65D-03

 Cycle   2  Pass 1  IDiag  1:
 E= -512.514728970083     Delta-E=       -0.000918703127 Rises=F Damp=F
 DIIS: error= 5.28D-04 at cycle   2 NSaved=   2.
 NSaved= 2 IEnMin= 2 EnMin= -512.514728970083     IErMin= 2 ErrMin= 5.28D-04
 ErrMax= 5.28D-04  0.00D+00 EMaxC= 1.00D-01 BMatC= 5.30D-05 BMatP= 8.28D-04
 IDIUse=3 WtCom= 9.95D-01 WtEn= 5.28D-03
 Coeff-Com: -0.200D+00 0.120D+01
 Coeff-En:   0.000D+00 0.100D+01
 Coeff:     -0.199D+00 0.120D+01
 Gap=     0.490 Goal=   None    Shift=    0.000
 RMSDP=1.11D-04 MaxDP=2.33D-03 DE=-9.19D-04 OVMax= 2.53D-03

 Cycle   3  Pass 1  IDiag  1:
 E= -512.514832191373     Delta-E=       -0.000103221290 Rises=F Damp=F
 DIIS: error= 1.57D-04 at cycle   3 NSaved=   3.
 NSaved= 3 IEnMin= 3 EnMin= -512.514832191373     IErMin= 3 ErrMin= 1.57D-04
 ErrMax= 1.57D-04  0.00D+00 EMaxC= 1.00D-01 BMatC= 5.05D-06 BMatP= 5.30D-05
 IDIUse=3 WtCom= 9.98D-01 WtEn= 1.57D-03
 Coeff-Com: -0.204D-01-0.113D+00 0.113D+01
 Coeff-En:   0.000D+00 0.000D+00 0.100D+01
 Coeff:     -0.203D-01-0.112D+00 0.113D+01
 Gap=     0.490 Goal=   None    Shift=    0.000
 RMSDP=3.17D-05 MaxDP=6.53D-04 DE=-1.03D-04 OVMax= 8.84D-04

 Cycle   4  Pass 1  IDiag  1:
 E= -512.514842009443     Delta-E=       -0.000009818070 Rises=F Damp=F
 DIIS: error= 4.96D-05 at cycle   4 NSaved=   4.
 NSaved= 4 IEnMin= 4 EnMin= -512.514842009443     IErMin= 4 ErrMin= 4.96D-05
 ErrMax= 4.96D-05  0.00D+00 EMaxC= 1.00D-01 BMatC= 6.81D-07 BMatP= 5.05D-06
 IDIUse=1 WtCom= 1.00D+00 WtEn= 0.00D+00
 Coeff-Com:  0.206D-01-0.161D+00 0.161D+00 0.980D+00
 Coeff:      0.206D-01-0.161D+00 0.161D+00 0.980D+00
 Gap=     0.490 Goal=   None    Shift=    0.000
 RMSDP=1.20D-05 MaxDP=2.86D-04 DE=-9.82D-06 OVMax= 2.85D-04

 Cycle   5  Pass 1  IDiag  1:
 E= -512.514843053600     Delta-E=       -0.000001044157 Rises=F Damp=F
 DIIS: error= 1.89D-05 at cycle   5 NSaved=   5.
 NSaved= 5 IEnMin= 5 EnMin= -512.514843053600     IErMin= 5 ErrMin= 1.89D-05
 ErrMax= 1.89D-05  0.00D+00 EMaxC= 1.00D-01 BMatC= 4.33D-08 BMatP= 6.81D-07
 IDIUse=1 WtCom= 1.00D+00 WtEn= 0.00D+00
 Coeff-Com:  0.398D-02-0.134D-01-0.527D-01 0.139D+00 0.923D+00
 Coeff:      0.398D-02-0.134D-01-0.527D-01 0.139D+00 0.923D+00
 Gap=     0.490 Goal=   None    Shift=    0.000
 RMSDP=2.37D-06 MaxDP=4.37D-05 DE=-1.04D-06 OVMax= 4.91D-05

 Cycle   6  Pass 1  IDiag  1:
 E= -512.514843102074     Delta-E=       -0.000000048474 Rises=F Damp=F
 DIIS: error= 4.19D-06 at cycle   6 NSaved=   6.
 NSaved= 6 IEnMin= 6 EnMin= -512.514843102074     IErMin= 6 ErrMin= 4.19D-06
 ErrMax= 4.19D-06  0.00D+00 EMaxC= 1.00D-01 BMatC= 4.19D-09 BMatP= 4.33D-08
 IDIUse=1 WtCom= 1.00D+00 WtEn= 0.00D+00
 Coeff-Com: -0.131D-02 0.134D-01-0.253D-01-0.716D-01 0.171D+00 0.914D+00
 Coeff:     -0.131D-02 0.134D-01-0.253D-01-0.716D-01 0.171D+00 0.914D+00
 Gap=     0.490 Goal=   None    Shift=    0.000
 RMSDP=6.70D-07 MaxDP=9.36D-06 DE=-4.85D-08 OVMax= 1.66D-05

 Cycle   7  Pass 1  IDiag  1:
 E= -512.514843106951     Delta-E=       -0.000000004876 Rises=F Damp=F
 DIIS: error= 9.30D-07 at cycle   7 NSaved=   7.
 NSaved= 7 IEnMin= 7 EnMin= -512.514843106951     IErMin= 7 ErrMin= 9.30D-07
 ErrMax= 9.30D-07  0.00D+00 EMaxC= 1.00D-01 BMatC= 1.42D-10 BMatP= 4.19D-09
 IDIUse=1 WtCom= 1.00D+00 WtEn= 0.00D+00
 Coeff-Com:  0.418D-05-0.103D-02 0.525D-02 0.176D-02-0.656D-01-0.109D+00
 Coeff-Com:  0.117D+01
 Coeff:      0.418D-05-0.103D-02 0.525D-02 0.176D-02-0.656D-01-0.109D+00
 Coeff:      0.117D+01
 Gap=     0.490 Goal=   None    Shift=    0.000
 RMSDP=2.50D-07 MaxDP=5.06D-06 DE=-4.88D-09 OVMax= 7.28D-06

 Cycle   8  Pass 1  IDiag  1:
 E= -512.514843107281     Delta-E=       -0.000000000331 Rises=F Damp=F
 DIIS: error= 2.51D-07 at cycle   8 NSaved=   8.
 NSaved= 8 IEnMin= 8 EnMin= -512.514843107281     IErMin= 8 ErrMin= 2.51D-07
 ErrMax= 2.51D-07  0.00D+00 EMaxC= 1.00D-01 BMatC= 1.25D-11 BMatP= 1.42D-10
 IDIUse=1 WtCom= 1.00D+00 WtEn= 0.00D+00
 Coeff-Com:  0.820D-04-0.838D-03 0.166D-02 0.429D-02-0.110D-01-0.556D-01
 Coeff-Com:  0.359D-01 0.103D+01
 Coeff:      0.820D-04-0.838D-03 0.166D-02 0.429D-02-0.110D-01-0.556D-01
 Coeff:      0.359D-01 0.103D+01
 Gap=     0.490 Goal=   None    Shift=    0.000
 RMSDP=6.97D-08 MaxDP=1.56D-06 DE=-3.31D-10 OVMax= 3.11D-06

 Cycle   9  Pass 1  IDiag  1:
 E= -512.514843107309     Delta-E=       -0.000000000028 Rises=F Damp=F
 DIIS: error= 9.08D-08 at cycle   9 NSaved=   9.
 NSaved= 9 IEnMin= 9 EnMin= -512.514843107309     IErMin= 9 ErrMin= 9.08D-08
 ErrMax= 9.08D-08  0.00D+00 EMaxC= 1.00D-01 BMatC= 2.31D-12 BMatP= 1.25D-11
 IDIUse=1 WtCom= 1.00D+00 WtEn= 0.00D+00
 Coeff-Com:  0.458D-05 0.108D-03-0.651D-03-0.186D-03 0.918D-02 0.116D-01
 Coeff-Com: -0.160D+00 0.330D-01 0.111D+01
 Coeff:      0.458D-05 0.108D-03-0.651D-03-0.186D-03 0.918D-02 0.116D-01
 Coeff:     -0.160D+00 0.330D-01 0.111D+01
 Gap=     0.490 Goal=   None    Shift=    0.000
 RMSDP=3.21D-08 MaxDP=6.42D-07 DE=-2.77D-11 OVMax= 1.52D-06

 Cycle  10  Pass 1  IDiag  1:
 E= -512.514843107319     Delta-E=       -0.000000000010 Rises=F Damp=F
 DIIS: error= 3.76D-08 at cycle  10 NSaved=  10.
 NSaved=10 IEnMin=10 EnMin= -512.514843107319     IErMin=10 ErrMin= 3.76D-08
 ErrMax= 3.76D-08  0.00D+00 EMaxC= 1.00D-01 BMatC= 2.11D-13 BMatP= 2.31D-12
 IDIUse=1 WtCom= 1.00D+00 WtEn= 0.00D+00
 Coeff-Com: -0.939D-05 0.988D-04-0.213D-03-0.544D-03 0.186D-02 0.727D-02
 Coeff-Com: -0.114D-01-0.111D+00 0.157D-01 0.110D+01
 Coeff:     -0.939D-05 0.988D-04-0.213D-03-0.544D-03 0.186D-02 0.727D-02
 Coeff:     -0.114D-01-0.111D+00 0.157D-01 0.110D+01
 Gap=     0.490 Goal=   None    Shift=    0.000
 RMSDP=9.60D-09 MaxDP=2.42D-07 DE=-9.89D-12 OVMax= 5.65D-07

 SCF Done:  E(RHF) =  -512.514843107     A.U. after   10 cycles
            NFock= 10  Conv=0.96D-08     -V/T= 2.0023
 KE= 5.113500250138D+02 PE=-1.889746211032D+03 EE= 5.300144998591D+02
 Leave Link  502 at Thu Apr  2 13:29:00 2026, MaxMem=  2147483648 cpu:               3.0 elap:               0.6
 (Enter /Users/yarger/Applications/g16/l701.exe)
 ... and contract with generalized density number  0.
 Compute integral first derivatives.
 Leave Link  701 at Thu Apr  2 13:29:00 2026, MaxMem=  2147483648 cpu:               0.5 elap:               0.1
 (Enter /Users/yarger/Applications/g16/l702.exe)
 L702 exits ... SP integral derivatives will be done elsewhere.
 Leave Link  702 at Thu Apr  2 13:29:00 2026, MaxMem=  2147483648 cpu:               0.1 elap:               0.0
 (Enter /Users/yarger/Applications/g16/l703.exe)
 Integral derivatives from FoFJK, PRISM(SPDF).
 Compute integral first derivatives, UseDBF=F ICtDFT=           0.
 Calling FoFJK, ICntrl=      2127 FMM=F ISym2X=0 I1Cent= 0 IOpClX= 0 NMat=1 NMatS=1 NMatT=0.
 FoFJK:  IHMeth= 1 ICntrl=    2127 DoSepK=F KAlg= 0 I1Cent=           0 FoldK=F
 IRaf=         0 NMat=       1 IRICut=       1 DoRegI=T DoRafI=F ISym2E= 0 IDoP0=0 IntGTp=1.
 FoFCou: FMM=F IPFlag=           0 FMFlag=      100000 FMFlg1=         800
         NFxFlg=           0 DoJE=F BraDBF=F KetDBF=F FulRan=T
         wScrn=  0.000000 ICntrl=      2127 IOpCl=  0 I1Cent=           0 NGrid=           0
         NMat0=    1 NMatS0=      1 NMatT0=    0 NMatD0=    1 NMtDS0=    0 NMtDT0=    0
 Symmetry not used in FoFCou.
 Leave Link  703 at Thu Apr  2 13:29:01 2026, MaxMem=  2147483648 cpu:               3.2 elap:               0.4
 (Enter /Users/yarger/Applications/g16/l716.exe)
 Dipole        = 6.61642801D-01-6.58783305D-01-1.87191061D-06
 ***** Axes restored to original set *****
 -------------------------------------------------------------------
 Center     Atomic                   Forces (Hartrees/Bohr)
 Number     Number              X              Y              Z
 -------------------------------------------------------------------
      1        6           0.002429339    0.003234900    0.000000164
      2        1          -0.000504277    0.001074138   -0.000000003
      3        1           0.001240623    0.000053200   -0.000000034
      4        6          -0.002659300   -0.003681808   -0.000000107
      5        6           0.000222969    0.000270367    0.000000008
      6        9          -0.000214608   -0.001940312    0.000000041
      7        9           0.000224682    0.000509889    0.002083175
      8        9           0.000224641    0.000509736   -0.002083217
      9        9          -0.000964071   -0.000030109   -0.000000028
 -------------------------------------------------------------------
 Cartesian Forces:  Max     0.003681808 RMS     0.001415628
 Leave Link  716 at Thu Apr  2 13:29:01 2026, MaxMem=  2147483648 cpu:               0.1 elap:               0.0
 (Enter /Users/yarger/Applications/g16/l103.exe)

 GradGradGradGradGradGradGradGradGradGradGradGradGradGradGradGradGradGrad
 Berny optimization.
 Using GEDIIS/GDIIS optimizer.
 FormGI is forming the generalized inverse of G from B-inverse, IUseBI=4.
 Internal  Forces:  Max     0.005389802 RMS     0.001323873
 Search for a local minimum.
 Step number   3 out of a maximum of   40
 All quantities printed in internal units (Hartrees-Bohrs-Radians)
 RMS Force = .13239D-02 SwitMx=.10000D-02 MixMth= 1
 Mixed Optimization -- RFO/linear search
 Update second derivatives using D2CorX and points    1    2    3
 DE= -1.30D-03 DEPred=-1.46D-03 R= 8.91D-01
 TightC=F SS=  1.41D+00  RLast= 8.18D-02 DXNew= 8.4853D-01 2.4552D-01
 Trust test= 8.91D-01 RLast= 8.18D-02 DXMaxT set to 5.05D-01
 ITU=  1  1  0
 Use linear search instead of GDIIS.
     Eigenvalues ---    0.00610   0.01687   0.03046   0.03046   0.10776
     Eigenvalues ---    0.11030   0.14579   0.16014   0.24834   0.25000
     Eigenvalues ---    0.25000   0.25156   0.28856   0.35268   0.35480
     Eigenvalues ---    0.44474   0.56547   0.56988   0.57669   0.60557
     Eigenvalues ---    0.62035
 RFO step:  Lambda=-8.05133512D-05 EMin= 6.10148603D-03
 Quartic linear search produced a step of -0.07736.
 Iteration  1 RMS(Cart)=  0.00438911 RMS(Int)=  0.00001111
 Iteration  2 RMS(Cart)=  0.00000648 RMS(Int)=  0.00000934
 Iteration  3 RMS(Cart)=  0.00000000 RMS(Int)=  0.00000934
 ITry= 1 IFail=0 DXMaxC= 1.31D-02 DCOld= 1.00D+10 DXMaxT= 5.05D-01 DXLimC= 3.00D+00 Rises=F
 Variable       Old X    -DE/DX   Delta X   Delta X   Delta X     New X
                                 (Linear)    (Quad)   (Total)
    R1        2.02420   0.00119   0.00023   0.00289   0.00313   2.02733
    R2        2.02495   0.00123   0.00012   0.00321   0.00333   2.02828
    R3        2.46423   0.00539  -0.00048   0.00914   0.00866   2.47289
    R4        2.86534  -0.00048  -0.00270   0.00268  -0.00001   2.86533
    R5        2.50315  -0.00032   0.00022  -0.00066  -0.00045   2.50271
    R6        2.47874   0.00187   0.00111   0.00168   0.00279   2.48153
    R7        2.49784   0.00184   0.00110   0.00159   0.00269   2.50054
    R8        2.49784   0.00184   0.00110   0.00159   0.00269   2.50054
    A1        2.07516  -0.00009  -0.00193   0.00123  -0.00070   2.07446
    A2        2.10058  -0.00017   0.00132  -0.00231  -0.00099   2.09959
    A3        2.10745   0.00026   0.00061   0.00108   0.00168   2.10914
    A4        2.17486   0.00043   0.00016   0.00160   0.00176   2.17662
    A5        2.13644   0.00092   0.00030   0.00253   0.00283   2.13927
    A6        1.97189  -0.00135  -0.00046  -0.00413  -0.00459   1.96729
    A7        1.94523  -0.00065  -0.00225   0.00099  -0.00123   1.94400
    A8        1.94285  -0.00111  -0.00165  -0.00055  -0.00218   1.94068
    A9        1.94286  -0.00111  -0.00165  -0.00055  -0.00218   1.94068
   A10        1.88484   0.00069   0.00171  -0.00178  -0.00004   1.88480
   A11        1.88484   0.00069   0.00171  -0.00178  -0.00004   1.88480
   A12        1.85969   0.00167   0.00236   0.00369   0.00606   1.86575
    D1        0.00000  -0.00000  -0.00000  -0.00000  -0.00000   0.00000
    D2        3.14159   0.00000  -0.00000   0.00000   0.00000  -3.14159
    D3       -3.14159   0.00000  -0.00000   0.00000   0.00000  -3.14159
    D4       -0.00000   0.00000   0.00000   0.00000   0.00000   0.00000
    D5       -3.14158   0.00000  -0.00000   0.00001   0.00001  -3.14157
    D6       -1.03603  -0.00033  -0.00042  -0.00195  -0.00237  -1.03840
    D7        1.03605   0.00033   0.00042   0.00197   0.00239   1.03844
    D8        0.00001   0.00000  -0.00000   0.00001   0.00001   0.00002
    D9        2.10557  -0.00033  -0.00042  -0.00195  -0.00238   2.10319
   D10       -2.10554   0.00033   0.00042   0.00197   0.00239  -2.10315
         Item               Value     Threshold  Converged?
 Maximum Force            0.005390     0.000015     NO 
 RMS     Force            0.001324     0.000010     NO 
 Maximum Displacement     0.013131     0.000060     NO 
 RMS     Displacement     0.004390     0.000040     NO 
 Predicted change in Energy=-4.931811D-05
 Lowest energy point so far.  Saving SCF results.
 GradGradGradGradGradGradGradGradGradGradGradGradGradGradGradGradGradGrad

 Leave Link  103 at Thu Apr  2 13:29:01 2026, MaxMem=  2147483648 cpu:               0.1 elap:               0.0
 (Enter /Users/yarger/Applications/g16/l202.exe)
                          Input orientation:                          
 ---------------------------------------------------------------------
 Center     Atomic      Atomic             Coordinates (Angstroms)
 Number     Number       Type             X           Y           Z
 ---------------------------------------------------------------------
      1          6           0        1.721005    1.060112    0.000002
      2          1           0        1.295536    2.044952    0.000009
      3          1           0        2.789394    0.957375   -0.000001
      4          6           0        0.945614    0.005982   -0.000002
      5          6           0       -0.570042    0.049008   -0.000001
      6          9           0       -1.083325   -1.159691    0.000017
      7          9           0       -1.030432    0.688565    1.062985
      8          9           0       -1.030436    0.688534   -1.063003
      9          9           0        1.422205   -1.229670   -0.000010
 ---------------------------------------------------------------------
                    Distance matrix (angstroms):
                    1          2          3          4          5
     1  C    0.000000
     2  H    1.072816   0.000000
     3  H    1.073317   1.847819   0.000000
     4  C    1.308595   2.068778   2.074770   0.000000
     5  C    2.504241   2.732063   3.480077   1.516266   0.000000
     6  F    3.576561   3.991079   4.413606   2.339954   1.313169
     7  F    2.972942   2.894794   3.974074   2.345340   1.323227
     8  F    2.972957   2.894824   3.974084   2.345340   1.323227
     9  F    2.309195   3.277071   2.579219   1.324377   2.367290
                    6          7          8          9
     6  F    0.000000
     7  F    2.132779   0.000000
     8  F    2.132779   2.125988   0.000000
     9  F    2.506507   3.290138   3.290123   0.000000
 Stoichiometry    C3H2F4
 Framework group  C1[X(C3H2F4)]
 Deg. of freedom    21
 Full point group                 C1      NOp   1
 RotChk:  IX=0 Diff= 7.15D-03
 Largest Abelian subgroup         C1      NOp   1
 Largest concise Abelian subgroup C1      NOp   1
                         Standard orientation:                         
 ---------------------------------------------------------------------
 Center     Atomic      Atomic             Coordinates (Angstroms)
 Number     Number       Type             X           Y           Z
 ---------------------------------------------------------------------
      1          6           0        1.668145   -1.099897   -0.000004
      2          1           0        1.213523   -2.071624   -0.000010
      3          1           0        2.739120   -1.029037   -0.000001
      4          6           0        0.924505   -0.023133    0.000000
      5          6           0       -0.591760   -0.020983   -0.000001
      6          9           0       -1.068804    1.202471   -0.000019
      7          9           0       -1.071001   -0.646539   -1.062986
      8          9           0       -1.071004   -0.646509    1.063001
      9          9           0        1.437699    1.197770    0.000008
 ---------------------------------------------------------------------
 Rotational constants (GHZ):           3.8123655           2.4670442           2.0090941
 Leave Link  202 at Thu Apr  2 13:29:01 2026, MaxMem=  2147483648 cpu:               0.0 elap:               0.0
 (Enter /Users/yarger/Applications/g16/l301.exe)
 Standard basis: 6-31+G(d) (6D, 7F)
 Ernie: Thresh=  0.10000D-02 Tol=  0.10000D-05 Strict=F.
 There are   137 symmetry adapted cartesian basis functions of A   symmetry.
 There are   137 symmetry adapted basis functions of A   symmetry.
   137 basis functions,   232 primitive gaussians,   137 cartesian basis functions
    28 alpha electrons       28 beta electrons
       nuclear repulsion energy       335.6125046144 Hartrees.
 IExCor=    0 DFT=F Ex=HF Corr=None ExCW=0 ScaHFX=  1.000000
 ScaDFX=  1.000000  1.000000  1.000000  1.000000 ScalE2=  1.000000  1.000000
 IRadAn=      5 IRanWt=     -1 IRanGd=            0 ICorTp=0 IEmpDi=  4
 NAtoms=    9 NActive=    9 NUniq=    9 SFac= 1.00D+00 NAtFMM=   60 NAOKFM=F Big=F
 Integral buffers will be    131072 words long.
 Raffenetti 1 integral format.
 Two-electron integral symmetry is turned on.
 Leave Link  301 at Thu Apr  2 13:29:01 2026, MaxMem=  2147483648 cpu:               0.2 elap:               0.0
 (Enter /Users/yarger/Applications/g16/l302.exe)
 NPDir=0 NMtPBC=     1 NCelOv=     1 NCel=       1 NClECP=     1 NCelD=      1
         NCelK=      1 NCelE2=     1 NClLst=     1 CellRange=     0.0.
 One-electron integrals computed using PRISM.
 One-electron integral symmetry used in STVInt
 NBasis=   137 RedAO= T EigKep=  6.07D-05  NBF=   137
 NBsUse=   137 1.00D-06 EigRej= -1.00D+00 NBFU=   137
 Leave Link  302 at Thu Apr  2 13:29:01 2026, MaxMem=  2147483648 cpu:               0.7 elap:               0.1
 (Enter /Users/yarger/Applications/g16/l303.exe)
 DipDrv:  MaxL=1.
 Leave Link  303 at Thu Apr  2 13:29:01 2026, MaxMem=  2147483648 cpu:               0.1 elap:               0.0
 (Enter /Users/yarger/Applications/g16/l401.exe)
 Initial guess from the checkpoint file:  "2223Tetrafluoropropene_Opt_Freq_HF_631pd_Gaussian16.chk"
 B after Tr=    -0.000000   -0.000000   -0.000000
         Rot=    0.999996    0.000001    0.000000   -0.002646 Ang=   0.30 deg.
 Guess basis will be translated and rotated to current coordinates.
 JPrj=2 DoOrth=T DoCkMO=T.
 Leave Link  401 at Thu Apr  2 13:29:01 2026, MaxMem=  2147483648 cpu:               0.4 elap:               0.1
 (Enter /Users/yarger/Applications/g16/l502.exe)
 Keep R1 ints in memory in canonical form, NReq=46403139.
 FoFCou: FMM=F IPFlag=           0 FMFlag=           0 FMFlg1=           0
         NFxFlg=           0 DoJE=F BraDBF=F KetDBF=F FulRan=T
         wScrn=  0.000000 ICntrl=       600 IOpCl=  0 I1Cent=           0 NGrid=           0
         NMat0=    1 NMatS0=   9453 NMatT0=    0 NMatD0=    1 NMtDS0=    0 NMtDT0=    0
 Symmetry not used in FoFCou.
 Two-electron integral symmetry not used.
 Closed shell SCF:
 Using DIIS extrapolation, IDIIS=  1040.
 NGot=  2147483648 LenX=  2102759234 LenY=  2102740024
 Requested convergence on RMS density matrix=1.00D-08 within 128 cycles.
 Requested convergence on MAX density matrix=1.00D-06.
 Requested convergence on             energy=1.00D-06.
 No special actions if energy rises.

 Cycle   1  Pass 1  IDiag  1:
 E= -512.514852903628    
 DIIS: error= 2.91D-04 at cycle   1 NSaved=   1.
 NSaved= 1 IEnMin= 1 EnMin= -512.514852903628     IErMin= 1 ErrMin= 2.91D-04
 ErrMax= 2.91D-04  0.00D+00 EMaxC= 1.00D-01 BMatC= 2.40D-05 BMatP= 2.40D-05
 IDIUse=3 WtCom= 9.97D-01 WtEn= 2.91D-03
 Coeff-Com:  0.100D+01
 Coeff-En:   0.100D+01
 Coeff:      0.100D+01
 Gap=     0.990 Goal=   None    Shift=    0.000
 RMSDP=7.53D-05 MaxDP=2.11D-03              OVMax= 1.02D-03

 Cycle   2  Pass 1  IDiag  1:
 E= -512.514880228384     Delta-E=       -0.000027324755 Rises=F Damp=F
 DIIS: error= 7.57D-05 at cycle   2 NSaved=   2.
 NSaved= 2 IEnMin= 2 EnMin= -512.514880228384     IErMin= 2 ErrMin= 7.57D-05
 ErrMax= 7.57D-05  0.00D+00 EMaxC= 1.00D-01 BMatC= 1.81D-06 BMatP= 2.40D-05
 IDIUse=1 WtCom= 1.00D+00 WtEn= 0.00D+00
 Coeff-Com: -0.520D-01 0.105D+01
 Coeff:     -0.520D-01 0.105D+01
 Gap=     0.489 Goal=   None    Shift=    0.000
 RMSDP=1.74D-05 MaxDP=2.84D-04 DE=-2.73D-05 OVMax= 3.62D-04

 Cycle   3  Pass 1  IDiag  1:
 E= -512.514882880045     Delta-E=       -0.000002651661 Rises=F Damp=F
 DIIS: error= 3.17D-05 at cycle   3 NSaved=   3.
 NSaved= 3 IEnMin= 3 EnMin= -512.514882880045     IErMin= 3 ErrMin= 3.17D-05
 ErrMax= 3.17D-05  0.00D+00 EMaxC= 1.00D-01 BMatC= 2.93D-07 BMatP= 1.81D-06
 IDIUse=1 WtCom= 1.00D+00 WtEn= 0.00D+00
 Coeff-Com: -0.781D-01 0.147D+00 0.931D+00
 Coeff:     -0.781D-01 0.147D+00 0.931D+00
 Gap=     0.489 Goal=   None    Shift=    0.000
 RMSDP=5.93D-06 MaxDP=1.03D-04 DE=-2.65D-06 OVMax= 1.61D-04

 Cycle   4  Pass 1  IDiag  1:
 E= -512.514883295237     Delta-E=       -0.000000415192 Rises=F Damp=F
 DIIS: error= 1.45D-05 at cycle   4 NSaved=   4.
 NSaved= 4 IEnMin= 4 EnMin= -512.514883295237     IErMin= 4 ErrMin= 1.45D-05
 ErrMax= 1.45D-05  0.00D+00 EMaxC= 1.00D-01 BMatC= 3.03D-08 BMatP= 2.93D-07
 IDIUse=1 WtCom= 1.00D+00 WtEn= 0.00D+00
 Coeff-Com: -0.580D-02-0.631D-01 0.963D-01 0.973D+00
 Coeff:     -0.580D-02-0.631D-01 0.963D-01 0.973D+00
 Gap=     0.489 Goal=   None    Shift=    0.000
 RMSDP=2.31D-06 MaxDP=4.81D-05 DE=-4.15D-07 OVMax= 5.84D-05

 Cycle   5  Pass 1  IDiag  1:
 E= -512.514883340881     Delta-E=       -0.000000045644 Rises=F Damp=F
 DIIS: error= 4.44D-06 at cycle   5 NSaved=   5.
 NSaved= 5 IEnMin= 5 EnMin= -512.514883340881     IErMin= 5 ErrMin= 4.44D-06
 ErrMax= 4.44D-06  0.00D+00 EMaxC= 1.00D-01 BMatC= 3.96D-09 BMatP= 3.03D-08
 IDIUse=1 WtCom= 1.00D+00 WtEn= 0.00D+00
 Coeff-Com:  0.944D-02-0.332D-01-0.112D+00 0.163D+00 0.972D+00
 Coeff:      0.944D-02-0.332D-01-0.112D+00 0.163D+00 0.972D+00
 Gap=     0.489 Goal=   None    Shift=    0.000
 RMSDP=9.89D-07 MaxDP=2.62D-05 DE=-4.56D-08 OVMax= 2.34D-05

 Cycle   6  Pass 1  IDiag  1:
 E= -512.514883346643     Delta-E=       -0.000000005762 Rises=F Damp=F
 DIIS: error= 8.06D-07 at cycle   6 NSaved=   6.
 NSaved= 6 IEnMin= 6 EnMin= -512.514883346643     IErMin= 6 ErrMin= 8.06D-07
 ErrMax= 8.06D-07  0.00D+00 EMaxC= 1.00D-01 BMatC= 1.40D-10 BMatP= 3.96D-09
 IDIUse=1 WtCom= 1.00D+00 WtEn= 0.00D+00
 Coeff-Com: -0.490D-03 0.710D-02 0.341D-02-0.672D-01-0.879D-01 0.115D+01
 Coeff:     -0.490D-03 0.710D-02 0.341D-02-0.672D-01-0.879D-01 0.115D+01
 Gap=     0.489 Goal=   None    Shift=    0.000
 RMSDP=2.35D-07 MaxDP=5.75D-06 DE=-5.76D-09 OVMax= 4.68D-06

 Cycle   7  Pass 1  IDiag  1:
 E= -512.514883346914     Delta-E=       -0.000000000272 Rises=F Damp=F
 DIIS: error= 3.13D-07 at cycle   7 NSaved=   7.
 NSaved= 7 IEnMin= 7 EnMin= -512.514883346914     IErMin= 7 ErrMin= 3.13D-07
 ErrMax= 3.13D-07  0.00D+00 EMaxC= 1.00D-01 BMatC= 1.21D-11 BMatP= 1.40D-10
 IDIUse=1 WtCom= 1.00D+00 WtEn= 0.00D+00
 Coeff-Com: -0.620D-03 0.291D-02 0.686D-02-0.165D-01-0.706D-01 0.138D+00
 Coeff-Com:  0.940D+00
 Coeff:     -0.620D-03 0.291D-02 0.686D-02-0.165D-01-0.706D-01 0.138D+00
 Coeff:      0.940D+00
 Gap=     0.489 Goal=   None    Shift=    0.000
 RMSDP=5.93D-08 MaxDP=1.14D-06 DE=-2.72D-10 OVMax= 2.14D-06

 Cycle   8  Pass 1  IDiag  1:
 E= -512.514883346928     Delta-E=       -0.000000000014 Rises=F Damp=F
 DIIS: error= 8.82D-08 at cycle   8 NSaved=   8.
 NSaved= 8 IEnMin= 8 EnMin= -512.514883346928     IErMin= 8 ErrMin= 8.82D-08
 ErrMax= 8.82D-08  0.00D+00 EMaxC= 1.00D-01 BMatC= 1.73D-12 BMatP= 1.21D-11
 IDIUse=1 WtCom= 1.00D+00 WtEn= 0.00D+00
 Coeff-Com:  0.358D-04-0.621D-03-0.289D-03 0.686D-02 0.420D-02-0.124D+00
 Coeff-Com:  0.986D-01 0.102D+01
 Coeff:      0.358D-04-0.621D-03-0.289D-03 0.686D-02 0.420D-02-0.124D+00
 Coeff:      0.986D-01 0.102D+01
 Gap=     0.489 Goal=   None    Shift=    0.000
 RMSDP=2.51D-08 MaxDP=5.64D-07 DE=-1.40D-11 OVMax= 7.29D-07

 Cycle   9  Pass 1  IDiag  1:
 E= -512.514883346941     Delta-E=       -0.000000000012 Rises=F Damp=F
 DIIS: error= 2.65D-08 at cycle   9 NSaved=   9.
 NSaved= 9 IEnMin= 9 EnMin= -512.514883346941     IErMin= 9 ErrMin= 2.65D-08
 ErrMax= 2.65D-08  0.00D+00 EMaxC= 1.00D-01 BMatC= 1.10D-13 BMatP= 1.73D-12
 IDIUse=1 WtCom= 1.00D+00 WtEn= 0.00D+00
 Coeff-Com:  0.487D-04-0.263D-03-0.550D-03 0.214D-02 0.511D-02-0.205D-01
 Coeff-Com: -0.427D-01 0.227D-01 0.103D+01
 Coeff:      0.487D-04-0.263D-03-0.550D-03 0.214D-02 0.511D-02-0.205D-01
 Coeff:     -0.427D-01 0.227D-01 0.103D+01
 Gap=     0.489 Goal=   None    Shift=    0.000
 RMSDP=6.85D-09 MaxDP=1.59D-07 DE=-1.24D-11 OVMax= 3.26D-07

 SCF Done:  E(RHF) =  -512.514883347     A.U. after    9 cycles
            NFock=  9  Conv=0.68D-08     -V/T= 2.0023
 KE= 5.113142087338D+02 PE=-1.889207284991D+03 EE= 5.297656882963D+02
 Leave Link  502 at Thu Apr  2 13:29:02 2026, MaxMem=  2147483648 cpu:               3.2 elap:               0.6
 (Enter /Users/yarger/Applications/g16/l701.exe)
 ... and contract with generalized density number  0.
 Compute integral first derivatives.
 Leave Link  701 at Thu Apr  2 13:29:02 2026, MaxMem=  2147483648 cpu:               0.5 elap:               0.1
 (Enter /Users/yarger/Applications/g16/l702.exe)
 L702 exits ... SP integral derivatives will be done elsewhere.
 Leave Link  702 at Thu Apr  2 13:29:02 2026, MaxMem=  2147483648 cpu:               0.1 elap:               0.0
 (Enter /Users/yarger/Applications/g16/l703.exe)
 Integral derivatives from FoFJK, PRISM(SPDF).
 Compute integral first derivatives, UseDBF=F ICtDFT=           0.
 Calling FoFJK, ICntrl=      2127 FMM=F ISym2X=0 I1Cent= 0 IOpClX= 0 NMat=1 NMatS=1 NMatT=0.
 FoFJK:  IHMeth= 1 ICntrl=    2127 DoSepK=F KAlg= 0 I1Cent=           0 FoldK=F
 IRaf=         0 NMat=       1 IRICut=       1 DoRegI=T DoRafI=F ISym2E= 0 IDoP0=0 IntGTp=1.
 FoFCou: FMM=F IPFlag=           0 FMFlag=      100000 FMFlg1=         800
         NFxFlg=           0 DoJE=F BraDBF=F KetDBF=F FulRan=T
         wScrn=  0.000000 ICntrl=      2127 IOpCl=  0 I1Cent=           0 NGrid=           0
         NMat0=    1 NMatS0=      1 NMatT0=    0 NMatD0=    1 NMtDS0=    0 NMtDT0=    0
 Symmetry not used in FoFCou.
 Leave Link  703 at Thu Apr  2 13:29:02 2026, MaxMem=  2147483648 cpu:               3.2 elap:               0.4
 (Enter /Users/yarger/Applications/g16/l716.exe)
 Dipole        = 6.64951265D-01-6.57491699D-01-3.39078239D-06
 ***** Axes restored to original set *****
 -------------------------------------------------------------------
 Center     Atomic                   Forces (Hartrees/Bohr)
 Number     Number              X              Y              Z
 -------------------------------------------------------------------
      1        6          -0.000540196   -0.000938376    0.000000053
      2        1          -0.000097054   -0.000172991    0.000000016
      3        1          -0.000198291   -0.000070208   -0.000000009
      4        6           0.000674739    0.000716281    0.000000124
      5        6           0.000258378   -0.000002258    0.000000000
      6        9           0.000024521   -0.000102491    0.000000056
      7        9          -0.000024922    0.000098670   -0.000256040
      8        9          -0.000024986    0.000098565    0.000255932
      9        9          -0.000072190    0.000372808   -0.000000133
 -------------------------------------------------------------------
 Cartesian Forces:  Max     0.000938376 RMS     0.000310203
 Leave Link  716 at Thu Apr  2 13:29:02 2026, MaxMem=  2147483648 cpu:               0.1 elap:               0.0
 (Enter /Users/yarger/Applications/g16/l103.exe)

 GradGradGradGradGradGradGradGradGradGradGradGradGradGradGradGradGradGrad
 Berny optimization.
 Using GEDIIS/GDIIS optimizer.
 FormGI is forming the generalized inverse of G from B-inverse, IUseBI=4.
 Internal  Forces:  Max     0.001446900 RMS     0.000296574
 Search for a local minimum.
 Step number   4 out of a maximum of   40
 All quantities printed in internal units (Hartrees-Bohrs-Radians)
 RMS Force = .29657D-03 SwitMx=.10000D-02 MixMth= 2
 Mixed Optimization -- En-DIIS/RFO-DIIS
 Update second derivatives using D2CorX and points    1    2    3    4
 DE= -4.02D-05 DEPred=-4.93D-05 R= 8.16D-01
 TightC=F SS=  1.41D+00  RLast= 1.50D-02 DXNew= 8.4853D-01 4.5022D-02
 Trust test= 8.16D-01 RLast= 1.50D-02 DXMaxT set to 5.05D-01
 ITU=  1  1  1  0
 Use linear search instead of GDIIS.
     Eigenvalues ---    0.00610   0.01692   0.03046   0.03046   0.10821
     Eigenvalues ---    0.11272   0.14151   0.15955   0.24741   0.24975
     Eigenvalues ---    0.25000   0.25467   0.29002   0.35297   0.35540
     Eigenvalues ---    0.44544   0.56547   0.56732   0.57562   0.59108
     Eigenvalues ---    0.74541
 RFO step:  Lambda=-1.52358722D-06 EMin= 6.10148557D-03
 Quartic linear search produced a step of -0.15499.
 Iteration  1 RMS(Cart)=  0.00102462 RMS(Int)=  0.00000033
 Iteration  2 RMS(Cart)=  0.00000028 RMS(Int)=  0.00000017
 ITry= 1 IFail=0 DXMaxC= 2.92D-03 DCOld= 1.00D+10 DXMaxT= 5.05D-01 DXLimC= 3.00D+00 Rises=F
 Variable       Old X    -DE/DX   Delta X   Delta X   Delta X     New X
                                 (Linear)    (Quad)   (Total)
    R1        2.02733  -0.00012  -0.00049   0.00027  -0.00021   2.02712
    R2        2.02828  -0.00019  -0.00052   0.00014  -0.00037   2.02790
    R3        2.47289  -0.00145  -0.00134  -0.00046  -0.00180   2.47108
    R4        2.86533  -0.00023   0.00000  -0.00062  -0.00062   2.86471
    R5        2.50271  -0.00037   0.00007  -0.00061  -0.00054   2.50217
    R6        2.48153   0.00008  -0.00043   0.00062   0.00019   2.48172
    R7        2.50054  -0.00015  -0.00042   0.00026  -0.00016   2.50038
    R8        2.50054  -0.00015  -0.00042   0.00026  -0.00016   2.50038
    A1        2.07446   0.00017   0.00011   0.00074   0.00085   2.07531
    A2        2.09959  -0.00015   0.00015  -0.00097  -0.00082   2.09877
    A3        2.10914  -0.00001  -0.00026   0.00023  -0.00003   2.10910
    A4        2.17662  -0.00010  -0.00027  -0.00003  -0.00031   2.17631
    A5        2.13927  -0.00003  -0.00044   0.00040  -0.00004   2.13923
    A6        1.96729   0.00014   0.00071  -0.00036   0.00035   1.96764
    A7        1.94400  -0.00008   0.00019  -0.00017   0.00002   1.94401
    A8        1.94068   0.00011   0.00034  -0.00018   0.00016   1.94084
    A9        1.94068   0.00011   0.00034  -0.00018   0.00016   1.94084
   A10        1.88480   0.00007   0.00001   0.00051   0.00052   1.88532
   A11        1.88480   0.00007   0.00001   0.00051   0.00052   1.88532
   A12        1.86575  -0.00029  -0.00094  -0.00047  -0.00140   1.86434
    D1        0.00000   0.00000   0.00000   0.00000   0.00000   0.00000
    D2       -3.14159  -0.00000  -0.00000  -0.00000  -0.00000   3.14159
    D3       -3.14159   0.00000  -0.00000   0.00000   0.00000  -3.14159
    D4        0.00000  -0.00000  -0.00000  -0.00000  -0.00000  -0.00000
    D5       -3.14157   0.00000  -0.00000   0.00001   0.00001  -3.14156
    D6       -1.03840   0.00011   0.00037   0.00042   0.00079  -1.03762
    D7        1.03844  -0.00011  -0.00037  -0.00040  -0.00077   1.03767
    D8        0.00002   0.00000  -0.00000   0.00001   0.00001   0.00003
    D9        2.10319   0.00011   0.00037   0.00042   0.00079   2.10398
   D10       -2.10315  -0.00011  -0.00037  -0.00040  -0.00077  -2.10392
         Item               Value     Threshold  Converged?
 Maximum Force            0.001447     0.000015     NO 
 RMS     Force            0.000297     0.000010     NO 
 Maximum Displacement     0.002920     0.000060     NO 
 RMS     Displacement     0.001025     0.000040     NO 
 Predicted change in Energy=-2.142129D-06
 Lowest energy point so far.  Saving SCF results.
 GradGradGradGradGradGradGradGradGradGradGradGradGradGradGradGradGradGrad

 Leave Link  103 at Thu Apr  2 13:29:02 2026, MaxMem=  2147483648 cpu:               0.1 elap:               0.0
 (Enter /Users/yarger/Applications/g16/l202.exe)
                          Input orientation:                          
 ---------------------------------------------------------------------
 Center     Atomic      Atomic             Coordinates (Angstroms)
 Number     Number       Type             X           Y           Z
 ---------------------------------------------------------------------
      1          6           0        1.720456    1.059502    0.000004
      2          1           0        1.293990    2.043790    0.000016
      3          1           0        2.788670    0.957007   -0.000000
      4          6           0        0.945882    0.005956   -0.000003
      5          6           0       -0.569444    0.049075   -0.000001
      6          9           0       -1.082869   -1.159672    0.000025
      7          9           0       -1.029938    0.689423    1.062361
      8          9           0       -1.029944    0.689379   -1.062387
      9          9           0        1.422716   -1.229294   -0.000018
 ---------------------------------------------------------------------
                    Distance matrix (angstroms):
                    1          2          3          4          5
     1  C    0.000000
     2  H    1.072705   0.000000
     3  H    1.073120   1.848016   0.000000
     4  C    1.307640   2.067352   2.073732   0.000000
     5  C    2.502919   2.729703   3.478688   1.515940   0.000000
     6  F    3.575383   3.988939   4.412385   2.339770   1.313269
     7  F    2.971570   2.891977   3.972654   2.345125   1.323145
     8  F    2.971593   2.892023   3.972669   2.345126   1.323145
     9  F    2.308081   3.275614   2.577934   1.324089   2.367051
                    6          7          8          9
     6  F    0.000000
     7  F    2.133193   0.000000
     8  F    2.133193   2.124748   0.000000
     9  F    2.506552   3.290233   3.290208   0.000000
 Stoichiometry    C3H2F4
 Framework group  C1[X(C3H2F4)]
 Deg. of freedom    21
 Full point group                 C1      NOp   1
 RotChk:  IX=0 Diff= 1.29D-03
 Largest Abelian subgroup         C1      NOp   1
 Largest concise Abelian subgroup C1      NOp   1
                         Standard orientation:                         
 ---------------------------------------------------------------------
 Center     Atomic      Atomic             Coordinates (Angstroms)
 Number     Number       Type             X           Y           Z
 ---------------------------------------------------------------------
      1          6           0        1.666309   -1.100538   -0.000007
      2          1           0        1.209819   -2.071266   -0.000019
      3          1           0        2.737166   -1.030894   -0.000002
      4          6           0        0.924453   -0.023703    0.000000
      5          6           0       -0.591483   -0.020269   -0.000002
      6          9           0       -1.067548    1.203674   -0.000027
      7          9           0       -1.071424   -0.646174   -1.062364
      8          9           0       -1.071428   -0.646130    1.062384
      9          9           0        1.438993    1.196321    0.000015
 ---------------------------------------------------------------------
 Rotational constants (GHZ):           3.8140723           2.4681803           2.0095213
 Leave Link  202 at Thu Apr  2 13:29:02 2026, MaxMem=  2147483648 cpu:               0.0 elap:               0.0
 (Enter /Users/yarger/Applications/g16/l301.exe)
 Standard basis: 6-31+G(d) (6D, 7F)
 Ernie: Thresh=  0.10000D-02 Tol=  0.10000D-05 Strict=F.
 There are   137 symmetry adapted cartesian basis functions of A   symmetry.
 There are   137 symmetry adapted basis functions of A   symmetry.
   137 basis functions,   232 primitive gaussians,   137 cartesian basis functions
    28 alpha electrons       28 beta electrons
       nuclear repulsion energy       335.6709633077 Hartrees.
 IExCor=    0 DFT=F Ex=HF Corr=None ExCW=0 ScaHFX=  1.000000
 ScaDFX=  1.000000  1.000000  1.000000  1.000000 ScalE2=  1.000000  1.000000
 IRadAn=      5 IRanWt=     -1 IRanGd=            0 ICorTp=0 IEmpDi=  4
 NAtoms=    9 NActive=    9 NUniq=    9 SFac= 1.00D+00 NAtFMM=   60 NAOKFM=F Big=F
 Integral buffers will be    131072 words long.
 Raffenetti 1 integral format.
 Two-electron integral symmetry is turned on.
 Leave Link  301 at Thu Apr  2 13:29:03 2026, MaxMem=  2147483648 cpu:               0.2 elap:               0.0
 (Enter /Users/yarger/Applications/g16/l302.exe)
 NPDir=0 NMtPBC=     1 NCelOv=     1 NCel=       1 NClECP=     1 NCelD=      1
         NCelK=      1 NCelE2=     1 NClLst=     1 CellRange=     0.0.
 One-electron integrals computed using PRISM.
 One-electron integral symmetry used in STVInt
 NBasis=   137 RedAO= T EigKep=  6.05D-05  NBF=   137
 NBsUse=   137 1.00D-06 EigRej= -1.00D+00 NBFU=   137
 Leave Link  302 at Thu Apr  2 13:29:03 2026, MaxMem=  2147483648 cpu:               0.7 elap:               0.1
 (Enter /Users/yarger/Applications/g16/l303.exe)
 DipDrv:  MaxL=1.
 Leave Link  303 at Thu Apr  2 13:29:03 2026, MaxMem=  2147483648 cpu:               0.1 elap:               0.0
 (Enter /Users/yarger/Applications/g16/l401.exe)
 Initial guess from the checkpoint file:  "2223Tetrafluoropropene_Opt_Freq_HF_631pd_Gaussian16.chk"
 B after Tr=    -0.000000    0.000000   -0.000000
         Rot=    1.000000    0.000001    0.000000    0.000422 Ang=   0.05 deg.
 Guess basis will be translated and rotated to current coordinates.
 JPrj=2 DoOrth=T DoCkMO=T.
 Leave Link  401 at Thu Apr  2 13:29:03 2026, MaxMem=  2147483648 cpu:               0.4 elap:               0.1
 (Enter /Users/yarger/Applications/g16/l502.exe)
 Keep R1 ints in memory in canonical form, NReq=46403139.
 FoFCou: FMM=F IPFlag=           0 FMFlag=           0 FMFlg1=           0
         NFxFlg=           0 DoJE=F BraDBF=F KetDBF=F FulRan=T
         wScrn=  0.000000 ICntrl=       600 IOpCl=  0 I1Cent=           0 NGrid=           0
         NMat0=    1 NMatS0=   9453 NMatT0=    0 NMatD0=    1 NMtDS0=    0 NMtDT0=    0
 Symmetry not used in FoFCou.
 Two-electron integral symmetry not used.
 Closed shell SCF:
 Using DIIS extrapolation, IDIIS=  1040.
 NGot=  2147483648 LenX=  2102759234 LenY=  2102740024
 Requested convergence on RMS density matrix=1.00D-08 within 128 cycles.
 Requested convergence on MAX density matrix=1.00D-06.
 Requested convergence on             energy=1.00D-06.
 No special actions if energy rises.

 Cycle   1  Pass 1  IDiag  1:
 E= -512.514884335254    
 DIIS: error= 4.39D-05 at cycle   1 NSaved=   1.
 NSaved= 1 IEnMin= 1 EnMin= -512.514884335254     IErMin= 1 ErrMin= 4.39D-05
 ErrMax= 4.39D-05  0.00D+00 EMaxC= 1.00D-01 BMatC= 8.63D-07 BMatP= 8.63D-07
 IDIUse=1 WtCom= 1.00D+00 WtEn= 0.00D+00
 Coeff-Com:  0.100D+01
 Coeff:      0.100D+01
 Gap=     0.991 Goal=   None    Shift=    0.000
 RMSDP=1.33D-05 MaxDP=2.89D-04              OVMax= 2.11D-04

 Cycle   2  Pass 1  IDiag  1:
 E= -512.514885348313     Delta-E=       -0.000001013059 Rises=F Damp=F
 DIIS: error= 1.85D-05 at cycle   2 NSaved=   2.
 NSaved= 2 IEnMin= 2 EnMin= -512.514885348313     IErMin= 2 ErrMin= 1.85D-05
 ErrMax= 1.85D-05  0.00D+00 EMaxC= 1.00D-01 BMatC= 6.88D-08 BMatP= 8.63D-07
 IDIUse=1 WtCom= 1.00D+00 WtEn= 0.00D+00
 Coeff-Com: -0.450D-01 0.104D+01
 Coeff:     -0.450D-01 0.104D+01
 Gap=     0.489 Goal=   None    Shift=    0.000
 RMSDP=3.20D-06 MaxDP=7.07D-05 DE=-1.01D-06 OVMax= 7.34D-05

 Cycle   3  Pass 1  IDiag  1:
 E= -512.514885448630     Delta-E=       -0.000000100316 Rises=F Damp=F
 DIIS: error= 7.21D-06 at cycle   3 NSaved=   3.
 NSaved= 3 IEnMin= 3 EnMin= -512.514885448630     IErMin= 3 ErrMin= 7.21D-06
 ErrMax= 7.21D-06  0.00D+00 EMaxC= 1.00D-01 BMatC= 1.03D-08 BMatP= 6.88D-08
 IDIUse=1 WtCom= 1.00D+00 WtEn= 0.00D+00
 Coeff-Com: -0.804D-01 0.125D+00 0.956D+00
 Coeff:     -0.804D-01 0.125D+00 0.956D+00
 Gap=     0.489 Goal=   None    Shift=    0.000
 RMSDP=1.13D-06 MaxDP=1.96D-05 DE=-1.00D-07 OVMax= 3.24D-05

 Cycle   4  Pass 1  IDiag  1:
 E= -512.514885464194     Delta-E=       -0.000000015564 Rises=F Damp=F
 DIIS: error= 2.60D-06 at cycle   4 NSaved=   4.
 NSaved= 4 IEnMin= 4 EnMin= -512.514885464194     IErMin= 4 ErrMin= 2.60D-06
 ErrMax= 2.60D-06  0.00D+00 EMaxC= 1.00D-01 BMatC= 1.06D-09 BMatP= 1.03D-08
 IDIUse=1 WtCom= 1.00D+00 WtEn= 0.00D+00
 Coeff-Com: -0.501D-02-0.632D-01 0.948D-01 0.973D+00
 Coeff:     -0.501D-02-0.632D-01 0.948D-01 0.973D+00
 Gap=     0.489 Goal=   None    Shift=    0.000
 RMSDP=4.16D-07 MaxDP=8.44D-06 DE=-1.56D-08 OVMax= 1.07D-05

 Cycle   5  Pass 1  IDiag  1:
 E= -512.514885465713     Delta-E=       -0.000000001519 Rises=F Damp=F
 DIIS: error= 9.42D-07 at cycle   5 NSaved=   5.
 NSaved= 5 IEnMin= 5 EnMin= -512.514885465713     IErMin= 5 ErrMin= 9.42D-07
 ErrMax= 9.42D-07  0.00D+00 EMaxC= 1.00D-01 BMatC= 1.46D-10 BMatP= 1.06D-09
 IDIUse=1 WtCom= 1.00D+00 WtEn= 0.00D+00
 Coeff-Com:  0.100D-01-0.340D-01-0.109D+00 0.195D+00 0.938D+00
 Coeff:      0.100D-01-0.340D-01-0.109D+00 0.195D+00 0.938D+00
 Gap=     0.489 Goal=   None    Shift=    0.000
 RMSDP=1.64D-07 MaxDP=3.92D-06 DE=-1.52D-09 OVMax= 4.54D-06

 Cycle   6  Pass 1  IDiag  1:
 E= -512.514885465908     Delta-E=       -0.000000000195 Rises=F Damp=F
 DIIS: error= 1.43D-07 at cycle   6 NSaved=   6.
 NSaved= 6 IEnMin= 6 EnMin= -512.514885465908     IErMin= 6 ErrMin= 1.43D-07
 ErrMax= 1.43D-07  0.00D+00 EMaxC= 1.00D-01 BMatC= 5.33D-12 BMatP= 1.46D-10
 IDIUse=1 WtCom= 1.00D+00 WtEn= 0.00D+00
 Coeff-Com: -0.762D-03 0.785D-02 0.579D-02-0.821D-01-0.894D-01 0.116D+01
 Coeff:     -0.762D-03 0.785D-02 0.579D-02-0.821D-01-0.894D-01 0.116D+01
 Gap=     0.489 Goal=   None    Shift=    0.000
 RMSDP=4.25D-08 MaxDP=9.15D-07 DE=-1.95D-10 OVMax= 1.05D-06

 Cycle   7  Pass 1  IDiag  1:
 E= -512.514885465916     Delta-E=       -0.000000000008 Rises=F Damp=F
 DIIS: error= 5.12D-08 at cycle   7 NSaved=   7.
 NSaved= 7 IEnMin= 7 EnMin= -512.514885465916     IErMin= 7 ErrMin= 5.12D-08
 ErrMax= 5.12D-08  0.00D+00 EMaxC= 1.00D-01 BMatC= 3.14D-13 BMatP= 5.33D-12
 IDIUse=1 WtCom= 1.00D+00 WtEn= 0.00D+00
 Coeff-Com: -0.587D-03 0.238D-02 0.624D-02-0.147D-01-0.607D-01 0.492D-01
 Coeff-Com:  0.102D+01
 Coeff:     -0.587D-03 0.238D-02 0.624D-02-0.147D-01-0.607D-01 0.492D-01
 Coeff:      0.102D+01
 Gap=     0.489 Goal=   None    Shift=    0.000
 RMSDP=1.01D-08 MaxDP=1.52D-07 DE=-7.50D-12 OVMax= 2.63D-07

 Cycle   8  Pass 1  IDiag  1:
 E= -512.514885465921     Delta-E=       -0.000000000005 Rises=F Damp=F
 DIIS: error= 9.97D-09 at cycle   8 NSaved=   8.
 NSaved= 8 IEnMin= 8 EnMin= -512.514885465921     IErMin= 8 ErrMin= 9.97D-09
 ErrMax= 9.97D-09  0.00D+00 EMaxC= 1.00D-01 BMatC= 1.89D-14 BMatP= 3.14D-13
 IDIUse=1 WtCom= 1.00D+00 WtEn= 0.00D+00
 Coeff-Com:  0.628D-04-0.558D-03-0.482D-03 0.556D-02 0.661D-02-0.785D-01
 Coeff-Com:  0.538D-03 0.107D+01
 Coeff:      0.628D-04-0.558D-03-0.482D-03 0.556D-02 0.661D-02-0.785D-01
 Coeff:      0.538D-03 0.107D+01
 Gap=     0.489 Goal=   None    Shift=    0.000
 RMSDP=3.22D-09 MaxDP=7.85D-08 DE=-5.46D-12 OVMax= 8.44D-08

 SCF Done:  E(RHF) =  -512.514885466     A.U. after    8 cycles
            NFock=  8  Conv=0.32D-08     -V/T= 2.0023
 KE= 5.113201155006D+02 PE=-1.889329448782D+03 EE= 5.298234845076D+02
 Leave Link  502 at Thu Apr  2 13:29:03 2026, MaxMem=  2147483648 cpu:               2.8 elap:               0.5
 (Enter /Users/yarger/Applications/g16/l701.exe)
 ... and contract with generalized density number  0.
 Compute integral first derivatives.
 Leave Link  701 at Thu Apr  2 13:29:03 2026, MaxMem=  2147483648 cpu:               0.5 elap:               0.1
 (Enter /Users/yarger/Applications/g16/l702.exe)
 L702 exits ... SP integral derivatives will be done elsewhere.
 Leave Link  702 at Thu Apr  2 13:29:04 2026, MaxMem=  2147483648 cpu:               0.1 elap:               0.0
 (Enter /Users/yarger/Applications/g16/l703.exe)
 Integral derivatives from FoFJK, PRISM(SPDF).
 Compute integral first derivatives, UseDBF=F ICtDFT=           0.
 Calling FoFJK, ICntrl=      2127 FMM=F ISym2X=0 I1Cent= 0 IOpClX= 0 NMat=1 NMatS=1 NMatT=0.
 FoFJK:  IHMeth= 1 ICntrl=    2127 DoSepK=F KAlg= 0 I1Cent=           0 FoldK=F
 IRaf=         0 NMat=       1 IRICut=       1 DoRegI=T DoRafI=F ISym2E= 0 IDoP0=0 IntGTp=1.
 FoFCou: FMM=F IPFlag=           0 FMFlag=      100000 FMFlg1=         800
         NFxFlg=           0 DoJE=F BraDBF=F KetDBF=F FulRan=T
         wScrn=  0.000000 ICntrl=      2127 IOpCl=  0 I1Cent=           0 NGrid=           0
         NMat0=    1 NMatS0=      1 NMatT0=    0 NMatD0=    1 NMtDS0=    0 NMtDT0=    0
 Symmetry not used in FoFCou.
 Leave Link  703 at Thu Apr  2 13:29:04 2026, MaxMem=  2147483648 cpu:               3.2 elap:               0.4
 (Enter /Users/yarger/Applications/g16/l716.exe)
 Dipole        = 6.64621852D-01-6.56897331D-01-6.08056745D-06
 ***** Axes restored to original set *****
 -------------------------------------------------------------------
 Center     Atomic                   Forces (Hartrees/Bohr)
 Number     Number              X              Y              Z
 -------------------------------------------------------------------
      1        6           0.000021387    0.000047245    0.000000128
      2        1          -0.000011819   -0.000036793    0.000000045
      3        1          -0.000043152   -0.000006675   -0.000000027
      4        6           0.000035559   -0.000101465    0.000000056
      5        6           0.000024847    0.000103937    0.000000049
      6        9           0.000020424    0.000053216    0.000000068
      7        9          -0.000016252   -0.000043286    0.000039326
      8        9          -0.000016349   -0.000043476   -0.000039490
      9        9          -0.000014645    0.000027297   -0.000000154
 -------------------------------------------------------------------
 Cartesian Forces:  Max     0.000103937 RMS     0.000038816
 Leave Link  716 at Thu Apr  2 13:29:04 2026, MaxMem=  2147483648 cpu:               0.1 elap:               0.0
 (Enter /Users/yarger/Applications/g16/l103.exe)

 GradGradGradGradGradGradGradGradGradGradGradGradGradGradGradGradGradGrad
 Berny optimization.
 Using GEDIIS/GDIIS optimizer.
 FormGI is forming the generalized inverse of G from B-inverse, IUseBI=4.
 Internal  Forces:  Max     0.000064941 RMS     0.000030324
 Search for a local minimum.
 Step number   5 out of a maximum of   40
 All quantities printed in internal units (Hartrees-Bohrs-Radians)
 RMS Force = .30324D-04 SwitMx=.10000D-02 MixMth= 2
 Mixed Optimization -- En-DIIS/RFO-DIIS
 Swapping is turned off.
 Update second derivatives using D2CorX and points    1    2    3    4    5
 DE= -2.12D-06 DEPred=-2.14D-06 R= 9.89D-01
 TightC=F SS=  1.41D+00  RLast= 3.28D-03 DXNew= 8.4853D-01 9.8516D-03
 Trust test= 9.89D-01 RLast= 3.28D-03 DXMaxT set to 5.05D-01
 ITU=  1  1  1  1  0
     Eigenvalues ---    0.00610   0.01692   0.03046   0.03046   0.10815
     Eigenvalues ---    0.12341   0.13749   0.15925   0.24459   0.24947
     Eigenvalues ---    0.25000   0.25397   0.28965   0.35219   0.35391
     Eigenvalues ---    0.44543   0.56547   0.56918   0.57522   0.59699
     Eigenvalues ---    0.72664
 En-DIIS/RFO-DIIS/Sim-DIIS IScMMF=       -3 using points:     5    4
 RFO step:  Lambda=-1.53539370D-07.
 NNeg= 0 NGDIIS= 2 SimSw=  2.50D-01 Rises=F DC= -2.12D-06 SmlDif=  1.00D-05
 NRisDI= 0 DoIntr=F SqrtH=F CThrHd= 10.0 CDAdj=  3.0
 RMS Error=  0.1867750668D-03 NUsed= 2 OKEnD=F EnDIS=F
 InvSVX:  RCond= 1.21D-05 Info=           0 Equed=N FErr=  1.13D-15 BErr=  1.10D-16
 DidBck=F Rises=F RFO-DIIS coefs:    0.91311    0.08689
 Iteration  1 RMS(Cart)=  0.00021137 RMS(Int)=  0.00000004
 Iteration  2 RMS(Cart)=  0.00000003 RMS(Int)=  0.00000002
 ITry= 1 IFail=0 DXMaxC= 5.26D-04 DCOld= 1.00D+10 DXMaxT= 5.05D-01 DXLimC= 3.00D+00 Rises=F
 Variable       Old X    -DE/DX   Delta X   Delta X   Delta X     New X
                                 (Linear)    (Quad)   (Total)
    R1        2.02712  -0.00003   0.00002  -0.00011  -0.00009   2.02703
    R2        2.02790  -0.00004   0.00003  -0.00016  -0.00013   2.02777
    R3        2.47108  -0.00002   0.00016  -0.00024  -0.00009   2.47100
    R4        2.86471  -0.00001   0.00005  -0.00009  -0.00004   2.86467
    R5        2.50217  -0.00003   0.00005  -0.00013  -0.00008   2.50208
    R6        2.48172  -0.00006  -0.00002  -0.00008  -0.00010   2.48162
    R7        2.50038   0.00002   0.00001   0.00000   0.00001   2.50039
    R8        2.50038   0.00002   0.00001   0.00000   0.00001   2.50040
    A1        2.07531   0.00002  -0.00007   0.00029   0.00022   2.07553
    A2        2.09877  -0.00003   0.00007  -0.00030  -0.00023   2.09854
    A3        2.10910   0.00000   0.00000   0.00000   0.00001   2.10911
    A4        2.17631  -0.00006   0.00003  -0.00030  -0.00027   2.17605
    A5        2.13923   0.00004   0.00000   0.00015   0.00015   2.13938
    A6        1.96764   0.00003  -0.00003   0.00015   0.00011   1.96776
    A7        1.94401  -0.00003  -0.00000  -0.00024  -0.00024   1.94377
    A8        1.94084   0.00003  -0.00001   0.00019   0.00018   1.94102
    A9        1.94084   0.00003  -0.00001   0.00019   0.00018   1.94102
   A10        1.88532  -0.00003  -0.00004  -0.00018  -0.00023   1.88509
   A11        1.88532  -0.00003  -0.00004  -0.00018  -0.00023   1.88509
   A12        1.86434   0.00004   0.00012   0.00022   0.00034   1.86468
    D1        0.00000   0.00000  -0.00000   0.00000   0.00000   0.00001
    D2        3.14159   0.00000   0.00000   0.00000   0.00000  -3.14159
    D3       -3.14159   0.00000  -0.00000   0.00000   0.00000  -3.14159
    D4       -0.00000   0.00000   0.00000  -0.00000   0.00000  -0.00000
    D5       -3.14156   0.00000  -0.00000   0.00002   0.00002  -3.14154
    D6       -1.03762  -0.00004  -0.00007  -0.00024  -0.00031  -1.03793
    D7        1.03767   0.00004   0.00007   0.00029   0.00035   1.03803
    D8        0.00003   0.00000  -0.00000   0.00002   0.00002   0.00005
    D9        2.10398  -0.00004  -0.00007  -0.00024  -0.00031   2.10367
   D10       -2.10392   0.00004   0.00007   0.00029   0.00035  -2.10356
         Item               Value     Threshold  Converged?
 Maximum Force            0.000065     0.000015     NO 
 RMS     Force            0.000030     0.000010     NO 
 Maximum Displacement     0.000526     0.000060     NO 
 RMS     Displacement     0.000211     0.000040     NO 
 Predicted change in Energy=-7.678152D-08
 Lowest energy point so far.  Saving SCF results.
 GradGradGradGradGradGradGradGradGradGradGradGradGradGradGradGradGradGrad

 Leave Link  103 at Thu Apr  2 13:29:04 2026, MaxMem=  2147483648 cpu:               0.1 elap:               0.0
 (Enter /Users/yarger/Applications/g16/l202.exe)
                          Input orientation:                          
 ---------------------------------------------------------------------
 Center     Atomic      Atomic             Coordinates (Angstroms)
 Number     Number       Type             X           Y           Z
 ---------------------------------------------------------------------
      1          6           0        1.720446    1.059445    0.000009
      2          1           0        1.293712    2.043567    0.000031
      3          1           0        2.788599    0.957035    0.000000
      4          6           0        0.945968    0.005886   -0.000006
      5          6           0       -0.569330    0.049313   -0.000002
      6          9           0       -1.082688   -1.159406    0.000039
      7          9           0       -1.029927    0.689380    1.062493
      8          9           0       -1.029937    0.689312   -1.062534
      9          9           0        1.422676   -1.229366   -0.000033
 ---------------------------------------------------------------------
                    Distance matrix (angstroms):
                    1          2          3          4          5
     1  C    0.000000
     2  H    1.072659   0.000000
     3  H    1.073051   1.848036   0.000000
     4  C    1.307594   2.067140   2.073637   0.000000
     5  C    2.502686   2.729097   3.478454   1.515920   0.000000
     6  F    3.575033   3.988272   4.412050   2.339520   1.313217
     7  F    2.971595   2.891703   3.972615   2.345258   1.323152
     8  F    2.971633   2.891781   3.972640   2.345259   1.323152
     9  F    2.308100   3.275472   2.578002   1.324046   2.367088
                    6          7          8          9
     6  F    0.000000
     7  F    2.132980   0.000000
     8  F    2.132980   2.125027   0.000000
     9  F    2.506341   3.290260   3.290220   0.000000
 Stoichiometry    C3H2F4
 Framework group  C1[X(C3H2F4)]
 Deg. of freedom    21
 Full point group                 C1      NOp   1
 RotChk:  IX=0 Diff= 2.54D-04
 Largest Abelian subgroup         C1      NOp   1
 Largest concise Abelian subgroup C1      NOp   1
                         Standard orientation:                         
 ---------------------------------------------------------------------
 Center     Atomic      Atomic             Coordinates (Angstroms)
 Number     Number       Type             X           Y           Z
 ---------------------------------------------------------------------
      1          6           0        1.666064   -1.100757   -0.000014
      2          1           0        1.209136   -2.071228   -0.000035
      3          1           0        2.736870   -1.031388   -0.000005
      4          6           0        0.924498   -0.023779    0.000001
      5          6           0       -0.591419   -0.020381   -0.000003
      6          9           0       -1.067198    1.203618   -0.000044
      7          9           0       -1.071567   -0.645916   -1.062498
      8          9           0       -1.071574   -0.645847    1.062529
      9          9           0        1.439132    1.196159    0.000028
 ---------------------------------------------------------------------
 Rotational constants (GHZ):           3.8142186           2.4681395           2.0097150
 Leave Link  202 at Thu Apr  2 13:29:04 2026, MaxMem=  2147483648 cpu:               0.0 elap:               0.0
 (Enter /Users/yarger/Applications/g16/l301.exe)
 Standard basis: 6-31+G(d) (6D, 7F)
 Ernie: Thresh=  0.10000D-02 Tol=  0.10000D-05 Strict=F.
 There are   137 symmetry adapted cartesian basis functions of A   symmetry.
 There are   137 symmetry adapted basis functions of A   symmetry.
   137 basis functions,   232 primitive gaussians,   137 cartesian basis functions
    28 alpha electrons       28 beta electrons
       nuclear repulsion energy       335.6779911181 Hartrees.
 IExCor=    0 DFT=F Ex=HF Corr=None ExCW=0 ScaHFX=  1.000000
 ScaDFX=  1.000000  1.000000  1.000000  1.000000 ScalE2=  1.000000  1.000000
 IRadAn=      5 IRanWt=     -1 IRanGd=            0 ICorTp=0 IEmpDi=  4
 NAtoms=    9 NActive=    9 NUniq=    9 SFac= 1.00D+00 NAtFMM=   60 NAOKFM=F Big=F
 Integral buffers will be    131072 words long.
 Raffenetti 1 integral format.
 Two-electron integral symmetry is turned on.
 Leave Link  301 at Thu Apr  2 13:29:04 2026, MaxMem=  2147483648 cpu:               0.1 elap:               0.0
 (Enter /Users/yarger/Applications/g16/l302.exe)
 NPDir=0 NMtPBC=     1 NCelOv=     1 NCel=       1 NClECP=     1 NCelD=      1
         NCelK=      1 NCelE2=     1 NClLst=     1 CellRange=     0.0.
 One-electron integrals computed using PRISM.
 One-electron integral symmetry used in STVInt
 NBasis=   137 RedAO= T EigKep=  6.05D-05  NBF=   137
 NBsUse=   137 1.00D-06 EigRej= -1.00D+00 NBFU=   137
 Leave Link  302 at Thu Apr  2 13:29:04 2026, MaxMem=  2147483648 cpu:               0.7 elap:               0.1
 (Enter /Users/yarger/Applications/g16/l303.exe)
 DipDrv:  MaxL=1.
 Leave Link  303 at Thu Apr  2 13:29:04 2026, MaxMem=  2147483648 cpu:               0.1 elap:               0.0
 (Enter /Users/yarger/Applications/g16/l401.exe)
 Initial guess from the checkpoint file:  "2223Tetrafluoropropene_Opt_Freq_HF_631pd_Gaussian16.chk"
 B after Tr=     0.000000   -0.000000    0.000000
         Rot=    1.000000    0.000002    0.000001    0.000080 Ang=   0.01 deg.
 Guess basis will be translated and rotated to current coordinates.
 JPrj=2 DoOrth=T DoCkMO=T.
 Leave Link  401 at Thu Apr  2 13:29:04 2026, MaxMem=  2147483648 cpu:               0.4 elap:               0.1
 (Enter /Users/yarger/Applications/g16/l502.exe)
 Keep R1 ints in memory in canonical form, NReq=46403139.
 FoFCou: FMM=F IPFlag=           0 FMFlag=           0 FMFlg1=           0
         NFxFlg=           0 DoJE=F BraDBF=F KetDBF=F FulRan=T
         wScrn=  0.000000 ICntrl=       600 IOpCl=  0 I1Cent=           0 NGrid=           0
         NMat0=    1 NMatS0=   9453 NMatT0=    0 NMatD0=    1 NMtDS0=    0 NMtDT0=    0
 Symmetry not used in FoFCou.
 Two-electron integral symmetry not used.
 Closed shell SCF:
 Using DIIS extrapolation, IDIIS=  1040.
 NGot=  2147483648 LenX=  2102759234 LenY=  2102740024
 Requested convergence on RMS density matrix=1.00D-08 within 128 cycles.
 Requested convergence on MAX density matrix=1.00D-06.
 Requested convergence on             energy=1.00D-06.
 No special actions if energy rises.

 Cycle   1  Pass 1  IDiag  1:
 E= -512.514885420627    
 DIIS: error= 1.52D-05 at cycle   1 NSaved=   1.
 NSaved= 1 IEnMin= 1 EnMin= -512.514885420627     IErMin= 1 ErrMin= 1.52D-05
 ErrMax= 1.52D-05  0.00D+00 EMaxC= 1.00D-01 BMatC= 6.84D-08 BMatP= 6.84D-08
 IDIUse=1 WtCom= 1.00D+00 WtEn= 0.00D+00
 Coeff-Com:  0.100D+01
 Coeff:      0.100D+01
 Gap=     0.991 Goal=   None    Shift=    0.000
 RMSDP=3.47D-06 MaxDP=7.45D-05              OVMax= 5.14D-05

 Cycle   2  Pass 1  IDiag  1:
 E= -512.514885500387     Delta-E=       -0.000000079760 Rises=F Damp=F
 DIIS: error= 4.99D-06 at cycle   2 NSaved=   2.
 NSaved= 2 IEnMin= 2 EnMin= -512.514885500387     IErMin= 2 ErrMin= 4.99D-06
 ErrMax= 4.99D-06  0.00D+00 EMaxC= 1.00D-01 BMatC= 4.76D-09 BMatP= 6.84D-08
 IDIUse=1 WtCom= 1.00D+00 WtEn= 0.00D+00
 Coeff-Com: -0.189D+00 0.119D+01
 Coeff:     -0.189D+00 0.119D+01
 Gap=     0.489 Goal=   None    Shift=    0.000
 RMSDP=9.46D-07 MaxDP=1.58D-05 DE=-7.98D-08 OVMax= 2.35D-05

 Cycle   3  Pass 1  IDiag  1:
 E= -512.514885509232     Delta-E=       -0.000000008846 Rises=F Damp=F
 DIIS: error= 1.61D-06 at cycle   3 NSaved=   3.
 NSaved= 3 IEnMin= 3 EnMin= -512.514885509232     IErMin= 3 ErrMin= 1.61D-06
 ErrMax= 1.61D-06  0.00D+00 EMaxC= 1.00D-01 BMatC= 5.17D-10 BMatP= 4.76D-09
 IDIUse=1 WtCom= 1.00D+00 WtEn= 0.00D+00
 Coeff-Com: -0.540D-01 0.696D-01 0.984D+00
 Coeff:     -0.540D-01 0.696D-01 0.984D+00
 Gap=     0.489 Goal=   None    Shift=    0.000
 RMSDP=2.90D-07 MaxDP=5.86D-06 DE=-8.85D-09 OVMax= 8.66D-06

 Cycle   4  Pass 1  IDiag  1:
 E= -512.514885510067     Delta-E=       -0.000000000834 Rises=F Damp=F
 DIIS: error= 5.97D-07 at cycle   4 NSaved=   4.
 NSaved= 4 IEnMin= 4 EnMin= -512.514885510067     IErMin= 4 ErrMin= 5.97D-07
 ErrMax= 5.97D-07  0.00D+00 EMaxC= 1.00D-01 BMatC= 7.50D-11 BMatP= 5.17D-10
 IDIUse=1 WtCom= 1.00D+00 WtEn= 0.00D+00
 Coeff-Com:  0.166D-01-0.145D+00 0.110D+00 0.102D+01
 Coeff:      0.166D-01-0.145D+00 0.110D+00 0.102D+01
 Gap=     0.489 Goal=   None    Shift=    0.000
 RMSDP=1.20D-07 MaxDP=2.62D-06 DE=-8.34D-10 OVMax= 3.52D-06

 Cycle   5  Pass 1  IDiag  1:
 E= -512.514885510200     Delta-E=       -0.000000000133 Rises=F Damp=F
 DIIS: error= 1.44D-07 at cycle   5 NSaved=   5.
 NSaved= 5 IEnMin= 5 EnMin= -512.514885510200     IErMin= 5 ErrMin= 1.44D-07
 ErrMax= 1.44D-07  0.00D+00 EMaxC= 1.00D-01 BMatC= 5.76D-12 BMatP= 7.50D-11
 IDIUse=1 WtCom= 1.00D+00 WtEn= 0.00D+00
 Coeff-Com:  0.658D-02-0.275D-01-0.581D-01 0.170D+00 0.909D+00
 Coeff:      0.658D-02-0.275D-01-0.581D-01 0.170D+00 0.909D+00
 Gap=     0.489 Goal=   None    Shift=    0.000
 RMSDP=2.69D-08 MaxDP=5.90D-07 DE=-1.33D-10 OVMax= 9.26D-07

 Cycle   6  Pass 1  IDiag  1:
 E= -512.514885510197     Delta-E=        0.000000000003 Rises=F Damp=F
 DIIS: error= 4.72D-08 at cycle   6 NSaved=   6.
 NSaved= 6 IEnMin= 5 EnMin= -512.514885510200     IErMin= 6 ErrMin= 4.72D-08
 ErrMax= 4.72D-08  0.00D+00 EMaxC= 1.00D-01 BMatC= 4.22D-13 BMatP= 5.76D-12
 IDIUse=1 WtCom= 1.00D+00 WtEn= 0.00D+00
 Coeff-Com: -0.153D-02 0.145D-01-0.147D-01-0.926D-01 0.101D-01 0.108D+01
 Coeff:     -0.153D-02 0.145D-01-0.147D-01-0.926D-01 0.101D-01 0.108D+01
 Gap=     0.489 Goal=   None    Shift=    0.000
 RMSDP=9.15D-09 MaxDP=1.40D-07 DE= 3.07D-12 OVMax= 2.51D-07

 SCF Done:  E(RHF) =  -512.514885510     A.U. after    6 cycles
            NFock=  6  Conv=0.91D-08     -V/T= 2.0023
 KE= 5.113207399359D+02 PE=-1.889343942836D+03 EE= 5.298303262722D+02
 Leave Link  502 at Thu Apr  2 13:29:05 2026, MaxMem=  2147483648 cpu:               2.7 elap:               0.5
 (Enter /Users/yarger/Applications/g16/l701.exe)
 ... and contract with generalized density number  0.
 Compute integral first derivatives.
 Leave Link  701 at Thu Apr  2 13:29:05 2026, MaxMem=  2147483648 cpu:               0.5 elap:               0.1
 (Enter /Users/yarger/Applications/g16/l702.exe)
 L702 exits ... SP integral derivatives will be done elsewhere.
 Leave Link  702 at Thu Apr  2 13:29:05 2026, MaxMem=  2147483648 cpu:               0.1 elap:               0.0
 (Enter /Users/yarger/Applications/g16/l703.exe)
 Integral derivatives from FoFJK, PRISM(SPDF).
 Compute integral first derivatives, UseDBF=F ICtDFT=           0.
 Calling FoFJK, ICntrl=      2127 FMM=F ISym2X=0 I1Cent= 0 IOpClX= 0 NMat=1 NMatS=1 NMatT=0.
 FoFJK:  IHMeth= 1 ICntrl=    2127 DoSepK=F KAlg= 0 I1Cent=           0 FoldK=F
 IRaf=         0 NMat=       1 IRICut=       1 DoRegI=T DoRafI=F ISym2E= 0 IDoP0=0 IntGTp=1.
 FoFCou: FMM=F IPFlag=           0 FMFlag=      100000 FMFlg1=         800
         NFxFlg=           0 DoJE=F BraDBF=F KetDBF=F FulRan=T
         wScrn=  0.000000 ICntrl=      2127 IOpCl=  0 I1Cent=           0 NGrid=           0
         NMat0=    1 NMatS0=      1 NMatT0=    0 NMatD0=    1 NMtDS0=    0 NMtDT0=    0
 Symmetry not used in FoFCou.
 Leave Link  703 at Thu Apr  2 13:29:06 2026, MaxMem=  2147483648 cpu:               3.2 elap:               0.4
 (Enter /Users/yarger/Applications/g16/l716.exe)
 Dipole        = 6.64668191D-01-6.57174437D-01-1.13360176D-05
 ***** Axes restored to original set *****
 -------------------------------------------------------------------
 Center     Atomic                   Forces (Hartrees/Bohr)
 Number     Number              X              Y              Z
 -------------------------------------------------------------------
      1        6           0.000027470    0.000041541    0.000000217
      2        1          -0.000001644    0.000007160    0.000000053
      3        1           0.000011521    0.000006935   -0.000000049
      4        6          -0.000016214   -0.000047898    0.000000173
      5        6          -0.000007381   -0.000014141    0.000000073
      6        9          -0.000023214   -0.000054394    0.000000123
      7        9           0.000010976    0.000023557   -0.000022268
      8        9           0.000010798    0.000023263    0.000021970
      9        9          -0.000012312    0.000013977   -0.000000290
 -------------------------------------------------------------------
 Cartesian Forces:  Max     0.000054394 RMS     0.000020802
 Leave Link  716 at Thu Apr  2 13:29:06 2026, MaxMem=  2147483648 cpu:               0.1 elap:               0.0
 (Enter /Users/yarger/Applications/g16/l103.exe)

 GradGradGradGradGradGradGradGradGradGradGradGradGradGradGradGradGradGrad
 Berny optimization.
 Using GEDIIS/GDIIS optimizer.
 FormGI is forming the generalized inverse of G from B-inverse, IUseBI=4.
 Internal  Forces:  Max     0.000066948 RMS     0.000020910
 Search for a local minimum.
 Step number   6 out of a maximum of   40
 All quantities printed in internal units (Hartrees-Bohrs-Radians)
 RMS Force = .20910D-04 SwitMx=.10000D-02 MixMth= 2
 Mixed Optimization -- En-DIIS/RFO-DIIS
 Swapping is turned off.
 Update second derivatives using D2CorX and points    1    2    3    4    5
                                                      6
 DE= -4.43D-08 DEPred=-7.68D-08 R= 5.77D-01
 Trust test= 5.77D-01 RLast= 1.02D-03 DXMaxT set to 5.05D-01
 ITU=  0  1  1  1  1  0
     Eigenvalues ---    0.00610   0.01692   0.03046   0.03046   0.10818
     Eigenvalues ---    0.12891   0.15513   0.17545   0.22605   0.24817
     Eigenvalues ---    0.25000   0.25473   0.29002   0.35214   0.35363
     Eigenvalues ---    0.44461   0.56251   0.56547   0.59017   0.62417
     Eigenvalues ---    0.77909
 En-DIIS/RFO-DIIS/Sim-DIIS IScMMF=       -3 using points:     6    5    4
 RFO step:  Lambda=-2.68734353D-08.
 NNeg= 0 NGDIIS= 3 SimSw=  2.50D-01 Rises=F DC= -4.43D-08 SmlDif=  1.00D-05
 NRisDI= 0 DoIntr=F SqrtH=F CThrHd= 10.0 CDAdj=  3.0
 RMS Error=  0.6281434917D-04 NUsed= 3 OKEnD=F EnDIS=F
 InvSVX:  RCond= 1.48D-06 Info=           0 Equed=N FErr=  1.60D-15 BErr=  8.65D-17
 DidBck=T Rises=F RFO-DIIS coefs:    0.77610    0.25213   -0.02823
 Iteration  1 RMS(Cart)=  0.00009296 RMS(Int)=  0.00000001
 Iteration  2 RMS(Cart)=  0.00000001 RMS(Int)=  0.00000000
 ITry= 1 IFail=0 DXMaxC= 2.09D-04 DCOld= 1.00D+10 DXMaxT= 5.05D-01 DXLimC= 3.00D+00 Rises=F
 Variable       Old X    -DE/DX   Delta X   Delta X   Delta X     New X
                                 (Linear)    (Quad)   (Total)
    R1        2.02703   0.00001   0.00001  -0.00000   0.00001   2.02704
    R2        2.02777   0.00001   0.00002  -0.00000   0.00001   2.02779
    R3        2.47100   0.00007  -0.00003   0.00011   0.00008   2.47107
    R4        2.86467   0.00001  -0.00001   0.00003   0.00002   2.86469
    R5        2.50208  -0.00002   0.00000  -0.00003  -0.00002   2.50206
    R6        2.48162   0.00006   0.00003   0.00004   0.00006   2.48168
    R7        2.50039  -0.00001  -0.00001  -0.00000  -0.00001   2.50038
    R8        2.50040  -0.00001  -0.00001  -0.00000  -0.00001   2.50039
    A1        2.07553  -0.00001  -0.00003   0.00001  -0.00001   2.07552
    A2        2.09854  -0.00000   0.00003  -0.00006  -0.00003   2.09851
    A3        2.10911   0.00001  -0.00000   0.00005   0.00004   2.10916
    A4        2.17605  -0.00001   0.00005  -0.00009  -0.00004   2.17600
    A5        2.13938   0.00001  -0.00004   0.00008   0.00005   2.13943
    A6        1.96776  -0.00000  -0.00002   0.00001  -0.00001   1.96775
    A7        1.94377   0.00002   0.00005   0.00003   0.00009   1.94386
    A8        1.94102  -0.00002  -0.00004  -0.00003  -0.00006   1.94096
    A9        1.94102  -0.00002  -0.00004  -0.00003  -0.00006   1.94096
   A10        1.88509   0.00002   0.00007   0.00001   0.00008   1.88517
   A11        1.88509   0.00002   0.00007   0.00001   0.00008   1.88517
   A12        1.86468  -0.00002  -0.00012  -0.00000  -0.00012   1.86456
    D1        0.00001   0.00000  -0.00000   0.00000   0.00000   0.00001
    D2       -3.14159   0.00000  -0.00000  -0.00000  -0.00000  -3.14159
    D3       -3.14159   0.00000  -0.00000   0.00000   0.00000  -3.14159
    D4       -0.00000   0.00000  -0.00000  -0.00000  -0.00000  -0.00000
    D5       -3.14154   0.00000  -0.00000   0.00003   0.00002  -3.14152
    D6       -1.03793   0.00002   0.00009   0.00005   0.00014  -1.03779
    D7        1.03803  -0.00002  -0.00010   0.00001  -0.00009   1.03793
    D8        0.00005   0.00000  -0.00000   0.00003   0.00003   0.00008
    D9        2.10367   0.00002   0.00009   0.00005   0.00014   2.10381
   D10       -2.10356  -0.00002  -0.00010   0.00001  -0.00009  -2.10365
         Item               Value     Threshold  Converged?
 Maximum Force            0.000067     0.000015     NO 
 RMS     Force            0.000021     0.000010     NO 
 Maximum Displacement     0.000209     0.000060     NO 
 RMS     Displacement     0.000093     0.000040     NO 
 Predicted change in Energy=-1.552079D-08
 Lowest energy point so far.  Saving SCF results.
 GradGradGradGradGradGradGradGradGradGradGradGradGradGradGradGradGradGrad

 Leave Link  103 at Thu Apr  2 13:29:06 2026, MaxMem=  2147483648 cpu:               0.1 elap:               0.0
 (Enter /Users/yarger/Applications/g16/l202.exe)
                          Input orientation:                          
 ---------------------------------------------------------------------
 Center     Atomic      Atomic             Coordinates (Angstroms)
 Number     Number       Type             X           Y           Z
 ---------------------------------------------------------------------
      1          6           0        1.720439    1.059452    0.000014
      2          1           0        1.293630    2.043546    0.000048
      3          1           0        2.788607    0.957132    0.000001
      4          6           0        0.945981    0.005826   -0.000010
      5          6           0       -0.569326    0.049251   -0.000003
      6          9           0       -1.082799   -1.159456    0.000056
      7          9           0       -1.029839    0.689465    1.062433
      8          9           0       -1.029854    0.689366   -1.062492
      9          9           0        1.422680   -1.229416   -0.000051
 ---------------------------------------------------------------------
                    Distance matrix (angstroms):
                    1          2          3          4          5
     1  C    0.000000
     2  H    1.072664   0.000000
     3  H    1.073058   1.848040   0.000000
     4  C    1.307636   2.067164   2.073705   0.000000
     5  C    2.502704   2.729070   3.478500   1.515930   0.000000
     6  F    3.575150   3.988313   4.412225   2.339622   1.313251
     7  F    2.971474   2.891490   3.972524   2.345211   1.323147
     8  F    2.971531   2.891604   3.972561   2.345213   1.323147
     9  F    2.308154   3.275505   2.578129   1.324033   2.367082
                    6          7          8          9
     6  F    0.000000
     7  F    2.133064   0.000000
     8  F    2.133063   2.124926   0.000000
     9  F    2.506455   3.290262   3.290202   0.000000
 Stoichiometry    C3H2F4
 Framework group  C1[X(C3H2F4)]
 Deg. of freedom    21
 Full point group                 C1      NOp   1
 RotChk:  IX=0 Diff= 2.17D-05
 Largest Abelian subgroup         C1      NOp   1
 Largest concise Abelian subgroup C1      NOp   1
                         Standard orientation:                         
 ---------------------------------------------------------------------
 Center     Atomic      Atomic             Coordinates (Angstroms)
 Number     Number       Type             X           Y           Z
 ---------------------------------------------------------------------
      1          6           0        1.666063   -1.100743   -0.000022
      2          1           0        1.209077   -2.071191   -0.000055
      3          1           0        2.736881   -1.031448   -0.000009
      4          6           0        0.924503   -0.023709    0.000002
      5          6           0       -0.591423   -0.020333   -0.000005
      6          9           0       -1.067335    1.203650   -0.000063
      7          9           0       -1.071482   -0.646024   -1.062441
      8          9           0       -1.071493   -0.645925    1.062485
      9          9           0        1.439109    1.196227    0.000043
 ---------------------------------------------------------------------
 Rotational constants (GHZ):           3.8140906           2.4682162           2.0096651
 Leave Link  202 at Thu Apr  2 13:29:06 2026, MaxMem=  2147483648 cpu:               0.0 elap:               0.0
 (Enter /Users/yarger/Applications/g16/l301.exe)
 Standard basis: 6-31+G(d) (6D, 7F)
 Ernie: Thresh=  0.10000D-02 Tol=  0.10000D-05 Strict=F.
 There are   137 symmetry adapted cartesian basis functions of A   symmetry.
 There are   137 symmetry adapted basis functions of A   symmetry.
   137 basis functions,   232 primitive gaussians,   137 cartesian basis functions
    28 alpha electrons       28 beta electrons
       nuclear repulsion energy       335.6760634856 Hartrees.
 IExCor=    0 DFT=F Ex=HF Corr=None ExCW=0 ScaHFX=  1.000000
 ScaDFX=  1.000000  1.000000  1.000000  1.000000 ScalE2=  1.000000  1.000000
 IRadAn=      5 IRanWt=     -1 IRanGd=            0 ICorTp=0 IEmpDi=  4
 NAtoms=    9 NActive=    9 NUniq=    9 SFac= 1.00D+00 NAtFMM=   60 NAOKFM=F Big=F
 Integral buffers will be    131072 words long.
 Raffenetti 1 integral format.
 Two-electron integral symmetry is turned on.
 Leave Link  301 at Thu Apr  2 13:29:06 2026, MaxMem=  2147483648 cpu:               0.1 elap:               0.0
 (Enter /Users/yarger/Applications/g16/l302.exe)
 NPDir=0 NMtPBC=     1 NCelOv=     1 NCel=       1 NClECP=     1 NCelD=      1
         NCelK=      1 NCelE2=     1 NClLst=     1 CellRange=     0.0.
 One-electron integrals computed using PRISM.
 One-electron integral symmetry used in STVInt
 NBasis=   137 RedAO= T EigKep=  6.05D-05  NBF=   137
 NBsUse=   137 1.00D-06 EigRej= -1.00D+00 NBFU=   137
 Leave Link  302 at Thu Apr  2 13:29:06 2026, MaxMem=  2147483648 cpu:               0.7 elap:               0.1
 (Enter /Users/yarger/Applications/g16/l303.exe)
 DipDrv:  MaxL=1.
 Leave Link  303 at Thu Apr  2 13:29:06 2026, MaxMem=  2147483648 cpu:               0.1 elap:               0.0
 (Enter /Users/yarger/Applications/g16/l401.exe)
 Initial guess from the checkpoint file:  "2223Tetrafluoropropene_Opt_Freq_HF_631pd_Gaussian16.chk"
 B after Tr=     0.000000    0.000000   -0.000000
         Rot=    1.000000    0.000002    0.000001   -0.000020 Ang=   0.00 deg.
 Guess basis will be translated and rotated to current coordinates.
 JPrj=2 DoOrth=T DoCkMO=T.
 Leave Link  401 at Thu Apr  2 13:29:06 2026, MaxMem=  2147483648 cpu:               0.4 elap:               0.1
 (Enter /Users/yarger/Applications/g16/l502.exe)
 Keep R1 ints in memory in canonical form, NReq=46403139.
 FoFCou: FMM=F IPFlag=           0 FMFlag=           0 FMFlg1=           0
         NFxFlg=           0 DoJE=F BraDBF=F KetDBF=F FulRan=T
         wScrn=  0.000000 ICntrl=       600 IOpCl=  0 I1Cent=           0 NGrid=           0
         NMat0=    1 NMatS0=   9453 NMatT0=    0 NMatD0=    1 NMtDS0=    0 NMtDT0=    0
 Symmetry not used in FoFCou.
 Two-electron integral symmetry not used.
 Closed shell SCF:
 Using DIIS extrapolation, IDIIS=  1040.
 NGot=  2147483648 LenX=  2102759234 LenY=  2102740024
 Requested convergence on RMS density matrix=1.00D-08 within 128 cycles.
 Requested convergence on MAX density matrix=1.00D-06.
 Requested convergence on             energy=1.00D-06.
 No special actions if energy rises.

 Cycle   1  Pass 1  IDiag  1:
 E= -512.514885508427    
 DIIS: error= 5.95D-06 at cycle   1 NSaved=   1.
 NSaved= 1 IEnMin= 1 EnMin= -512.514885508427     IErMin= 1 ErrMin= 5.95D-06
 ErrMax= 5.95D-06  0.00D+00 EMaxC= 1.00D-01 BMatC= 1.36D-08 BMatP= 1.36D-08
 IDIUse=1 WtCom= 1.00D+00 WtEn= 0.00D+00
 Coeff-Com:  0.100D+01
 Coeff:      0.100D+01
 Gap=     0.991 Goal=   None    Shift=    0.000
 RMSDP=1.88D-06 MaxDP=7.35D-05              OVMax= 2.47D-05

 Cycle   2  Pass 1  IDiag  1:
 E= -512.514885524683     Delta-E=       -0.000000016256 Rises=F Damp=F
 DIIS: error= 1.89D-06 at cycle   2 NSaved=   2.
 NSaved= 2 IEnMin= 2 EnMin= -512.514885524683     IErMin= 2 ErrMin= 1.89D-06
 ErrMax= 1.89D-06  0.00D+00 EMaxC= 1.00D-01 BMatC= 9.57D-10 BMatP= 1.36D-08
 IDIUse=1 WtCom= 1.00D+00 WtEn= 0.00D+00
 Coeff-Com: -0.211D+00 0.121D+01
 Coeff:     -0.211D+00 0.121D+01
 Gap=     0.489 Goal=   None    Shift=    0.000
 RMSDP=4.26D-07 MaxDP=9.97D-06 DE=-1.63D-08 OVMax= 1.03D-05

 Cycle   3  Pass 1  IDiag  1:
 E= -512.514885526380     Delta-E=       -0.000000001697 Rises=F Damp=F
 DIIS: error= 6.45D-07 at cycle   3 NSaved=   3.
 NSaved= 3 IEnMin= 3 EnMin= -512.514885526380     IErMin= 3 ErrMin= 6.45D-07
 ErrMax= 6.45D-07  0.00D+00 EMaxC= 1.00D-01 BMatC= 1.06D-10 BMatP= 9.57D-10
 IDIUse=1 WtCom= 1.00D+00 WtEn= 0.00D+00
 Coeff-Com: -0.682D-01 0.170D+00 0.898D+00
 Coeff:     -0.682D-01 0.170D+00 0.898D+00
 Gap=     0.489 Goal=   None    Shift=    0.000
 RMSDP=1.08D-07 MaxDP=1.99D-06 DE=-1.70D-09 OVMax= 2.77D-06

 Cycle   4  Pass 1  IDiag  1:
 E= -512.514885526530     Delta-E=       -0.000000000150 Rises=F Damp=F
 DIIS: error= 3.49D-07 at cycle   4 NSaved=   4.
 NSaved= 4 IEnMin= 4 EnMin= -512.514885526530     IErMin= 4 ErrMin= 3.49D-07
 ErrMax= 3.49D-07  0.00D+00 EMaxC= 1.00D-01 BMatC= 1.60D-11 BMatP= 1.06D-10
 IDIUse=1 WtCom= 1.00D+00 WtEn= 0.00D+00
 Coeff-Com:  0.168D-01-0.140D+00 0.141D+00 0.983D+00
 Coeff:      0.168D-01-0.140D+00 0.141D+00 0.983D+00
 Gap=     0.489 Goal=   None    Shift=    0.000
 RMSDP=5.21D-08 MaxDP=1.14D-06 DE=-1.50D-10 OVMax= 1.49D-06

 Cycle   5  Pass 1  IDiag  1:
 E= -512.514885526548     Delta-E=       -0.000000000018 Rises=F Damp=F
 DIIS: error= 6.33D-08 at cycle   5 NSaved=   5.
 NSaved= 5 IEnMin= 5 EnMin= -512.514885526548     IErMin= 5 ErrMin= 6.33D-08
 ErrMax= 6.33D-08  0.00D+00 EMaxC= 1.00D-01 BMatC= 1.00D-12 BMatP= 1.60D-11
 IDIUse=1 WtCom= 1.00D+00 WtEn= 0.00D+00
 Coeff-Com:  0.605D-02-0.220D-01-0.601D-01 0.704D-01 0.101D+01
 Coeff:      0.605D-02-0.220D-01-0.601D-01 0.704D-01 0.101D+01
 Gap=     0.489 Goal=   None    Shift=    0.000
 RMSDP=1.39D-08 MaxDP=3.10D-07 DE=-1.82D-11 OVMax= 4.04D-07

 Cycle   6  Pass 1  IDiag  1:
 E= -512.514885526546     Delta-E=        0.000000000002 Rises=F Damp=F
 DIIS: error= 2.03D-08 at cycle   6 NSaved=   6.
 NSaved= 6 IEnMin= 5 EnMin= -512.514885526548     IErMin= 6 ErrMin= 2.03D-08
 ErrMax= 2.03D-08  0.00D+00 EMaxC= 1.00D-01 BMatC= 8.99D-14 BMatP= 1.00D-12
 IDIUse=1 WtCom= 1.00D+00 WtEn= 0.00D+00
 Coeff-Com: -0.171D-02 0.151D-01-0.177D-01-0.946D-01-0.104D-01 0.111D+01
 Coeff:     -0.171D-02 0.151D-01-0.177D-01-0.946D-01-0.104D-01 0.111D+01
 Gap=     0.489 Goal=   None    Shift=    0.000
 RMSDP=5.10D-09 MaxDP=7.71D-08 DE= 2.05D-12 OVMax= 1.15D-07

 SCF Done:  E(RHF) =  -512.514885527     A.U. after    6 cycles
            NFock=  6  Conv=0.51D-08     -V/T= 2.0023
 KE= 5.113205099511D+02 PE=-1.889339860292D+03 EE= 5.298284013292D+02
 Leave Link  502 at Thu Apr  2 13:29:06 2026, MaxMem=  2147483648 cpu:               2.8 elap:               0.5
 (Enter /Users/yarger/Applications/g16/l701.exe)
 ... and contract with generalized density number  0.
 Compute integral first derivatives.
 Leave Link  701 at Thu Apr  2 13:29:07 2026, MaxMem=  2147483648 cpu:               0.5 elap:               0.1
 (Enter /Users/yarger/Applications/g16/l702.exe)
 L702 exits ... SP integral derivatives will be done elsewhere.
 Leave Link  702 at Thu Apr  2 13:29:07 2026, MaxMem=  2147483648 cpu:               0.1 elap:               0.0
 (Enter /Users/yarger/Applications/g16/l703.exe)
 Integral derivatives from FoFJK, PRISM(SPDF).
 Compute integral first derivatives, UseDBF=F ICtDFT=           0.
 Calling FoFJK, ICntrl=      2127 FMM=F ISym2X=0 I1Cent= 0 IOpClX= 0 NMat=1 NMatS=1 NMatT=0.
 FoFJK:  IHMeth= 1 ICntrl=    2127 DoSepK=F KAlg= 0 I1Cent=           0 FoldK=F
 IRaf=         0 NMat=       1 IRICut=       1 DoRegI=T DoRafI=F ISym2E= 0 IDoP0=0 IntGTp=1.
 FoFCou: FMM=F IPFlag=           0 FMFlag=      100000 FMFlg1=         800
         NFxFlg=           0 DoJE=F BraDBF=F KetDBF=F FulRan=T
         wScrn=  0.000000 ICntrl=      2127 IOpCl=  0 I1Cent=           0 NGrid=           0
         NMat0=    1 NMatS0=      1 NMatT0=    0 NMatD0=    1 NMtDS0=    0 NMtDT0=    0
 Symmetry not used in FoFCou.
 Leave Link  703 at Thu Apr  2 13:29:07 2026, MaxMem=  2147483648 cpu:               3.2 elap:               0.4
 (Enter /Users/yarger/Applications/g16/l716.exe)
 Dipole        = 6.64651500D-01-6.57029701D-01-1.75772806D-05
 ***** Axes restored to original set *****
 -------------------------------------------------------------------
 Center     Atomic                   Forces (Hartrees/Bohr)
 Number     Number              X              Y              Z
 -------------------------------------------------------------------
      1        6          -0.000003059   -0.000001051    0.000000309
      2        1          -0.000000137    0.000003231    0.000000095
      3        1           0.000004830    0.000002864   -0.000000069
      4        6           0.000004174   -0.000014295    0.000000219
      5        6           0.000001454    0.000008213    0.000000123
      6        9          -0.000003718   -0.000006415    0.000000175
      7        9          -0.000000194    0.000000443    0.000000318
      8        9          -0.000000454   -0.000000002   -0.000000757
      9        9          -0.000002897    0.000007011   -0.000000412
 -------------------------------------------------------------------
 Cartesian Forces:  Max     0.000014295 RMS     0.000004118
 Leave Link  716 at Thu Apr  2 13:29:07 2026, MaxMem=  2147483648 cpu:               0.1 elap:               0.0
 (Enter /Users/yarger/Applications/g16/l103.exe)

 GradGradGradGradGradGradGradGradGradGradGradGradGradGradGradGradGradGrad
 Berny optimization.
 Using GEDIIS/GDIIS optimizer.
 FormGI is forming the generalized inverse of G from B-inverse, IUseBI=4.
 Internal  Forces:  Max     0.000007584 RMS     0.000002883
 Search for a local minimum.
 Step number   7 out of a maximum of   40
 All quantities printed in internal units (Hartrees-Bohrs-Radians)
 RMS Force = .28831D-05 SwitMx=.10000D-02 MixMth= 2
 Mixed Optimization -- En-DIIS/RFO-DIIS
 Swapping is turned off.
 Update second derivatives using D2CorX and points    1    2    3    4    5
                                                      6    7
 DE= -1.63D-08 DEPred=-1.55D-08 R= 1.05D+00
 Trust test= 1.05D+00 RLast= 3.41D-04 DXMaxT set to 5.05D-01
 ITU=  0  0  1  1  1  1  0
     Eigenvalues ---    0.00607   0.01692   0.03046   0.03046   0.10817
     Eigenvalues ---    0.13134   0.15120   0.17894   0.21572   0.24822
     Eigenvalues ---    0.25000   0.25489   0.28985   0.35264   0.35666
     Eigenvalues ---    0.44667   0.55072   0.56547   0.59456   0.61122
     Eigenvalues ---    0.76269
 En-DIIS/RFO-DIIS/Sim-DIIS IScMMF=       -3 using points:     7    6    5    4
 RFO step:  Lambda=-7.00730117D-10.
 NNeg= 0 NGDIIS= 4 SimSw=  2.50D-01 Rises=F DC= -1.63D-08 SmlDif=  1.00D-05
 NRisDI= 0 DoIntr=F SqrtH=F CThrHd= 10.0 CDAdj=  3.0
 RMS Error=  0.2751125362D-04 NUsed= 4 OKEnD=F EnDIS=F
 InvSVX:  RCond= 4.69D-09 Info=           0 Equed=N FErr=  4.23D-15 BErr=  1.14D-17
 DIIS inversion failure, remove point   4.
 InvSVX:  RCond= 7.39D-09 Info=           0 Equed=N FErr=  3.16D-15 BErr=  4.75D-17
 DIIS inversion failure, remove point   3.
 InvSVX:  RCond= 2.90D-08 Info=           0 Equed=N FErr=  1.51D-15 BErr=  3.98D-17
 DIIS inversion failure, remove point   2.
 Use linear search instead of GDIIS.
 RFO step:  Lambda= 0.00000000D+00 EMin= 6.06671443D-03
 Quartic linear search produced a step of  0.06612.
 Iteration  1 RMS(Cart)=  0.00003991 RMS(Int)=  0.00000000
 Iteration  2 RMS(Cart)=  0.00000000 RMS(Int)=  0.00000000
 ITry= 1 IFail=0 DXMaxC= 8.57D-05 DCOld= 1.00D+10 DXMaxT= 5.05D-01 DXLimC= 3.00D+00 Rises=F
 Variable       Old X    -DE/DX   Delta X   Delta X   Delta X     New X
                                 (Linear)    (Quad)   (Total)
    R1        2.02704   0.00000   0.00000   0.00001   0.00001   2.02705
    R2        2.02779   0.00000   0.00000   0.00001   0.00001   2.02780
    R3        2.47107   0.00001   0.00001   0.00000   0.00001   2.47108
    R4        2.86469   0.00000   0.00000   0.00001   0.00001   2.86470
    R5        2.50206  -0.00001  -0.00000  -0.00002  -0.00002   2.50204
    R6        2.48168   0.00001   0.00000   0.00001   0.00002   2.48170
    R7        2.50038   0.00000  -0.00000   0.00000   0.00000   2.50039
    R8        2.50039   0.00000  -0.00000   0.00000   0.00000   2.50039
    A1        2.07552  -0.00000  -0.00000  -0.00002  -0.00002   2.07550
    A2        2.09851  -0.00000  -0.00000  -0.00001  -0.00001   2.09850
    A3        2.10916   0.00000   0.00000   0.00003   0.00003   2.10918
    A4        2.17600  -0.00001  -0.00000  -0.00003  -0.00003   2.17597
    A5        2.13943   0.00000   0.00000   0.00002   0.00002   2.13945
    A6        1.96775   0.00000  -0.00000   0.00001   0.00001   1.96777
    A7        1.94386   0.00000   0.00001  -0.00000   0.00000   1.94386
    A8        1.94096  -0.00000  -0.00000   0.00000  -0.00000   1.94096
    A9        1.94096   0.00000  -0.00000   0.00000   0.00000   1.94096
   A10        1.88517  -0.00000   0.00001  -0.00001  -0.00000   1.88517
   A11        1.88517  -0.00000   0.00001  -0.00001  -0.00000   1.88516
   A12        1.86456  -0.00000  -0.00001   0.00001   0.00000   1.86456
    D1        0.00001   0.00000   0.00000   0.00001   0.00001   0.00001
    D2       -3.14159   0.00000  -0.00000   0.00000   0.00000  -3.14159
    D3       -3.14159   0.00000   0.00000   0.00000   0.00000  -3.14158
    D4       -0.00000   0.00000  -0.00000  -0.00000  -0.00000  -0.00000
    D5       -3.14152   0.00000   0.00000   0.00005   0.00005  -3.14147
    D6       -1.03779   0.00000   0.00001   0.00004   0.00005  -1.03774
    D7        1.03793   0.00000  -0.00001   0.00006   0.00005   1.03799
    D8        0.00008   0.00000   0.00000   0.00006   0.00006   0.00014
    D9        2.10381   0.00000   0.00001   0.00005   0.00006   2.10387
   D10       -2.10365   0.00000  -0.00001   0.00006   0.00006  -2.10359
         Item               Value     Threshold  Converged?
 Maximum Force            0.000008     0.000015     YES
 RMS     Force            0.000003     0.000010     YES
 Maximum Displacement     0.000086     0.000060     NO 
 RMS     Displacement     0.000040     0.000040     YES
 Predicted change in Energy=-4.649831D-10
 Lowest energy point so far.  Saving SCF results.
 GradGradGradGradGradGradGradGradGradGradGradGradGradGradGradGradGradGrad

 Leave Link  103 at Thu Apr  2 13:29:07 2026, MaxMem=  2147483648 cpu:               0.1 elap:               0.0
 (Enter /Users/yarger/Applications/g16/l202.exe)
                          Input orientation:                          
 ---------------------------------------------------------------------
 Center     Atomic      Atomic             Coordinates (Angstroms)
 Number     Number       Type             X           Y           Z
 ---------------------------------------------------------------------
      1          6           0        1.720435    1.059443    0.000026
      2          1           0        1.293599    2.043530    0.000088
      3          1           0        2.788614    0.957168    0.000003
      4          6           0        0.945991    0.005802   -0.000017
      5          6           0       -0.569320    0.049253   -0.000005
      6          9           0       -1.082822   -1.159451    0.000095
      7          9           0       -1.029817    0.689510    1.062414
      8          9           0       -1.029843    0.689342   -1.062514
      9          9           0        1.422681   -1.229432   -0.000093
 ---------------------------------------------------------------------
                    Distance matrix (angstroms):
                    1          2          3          4          5
     1  C    0.000000
     2  H    1.072668   0.000000
     3  H    1.073064   1.848040   0.000000
     4  C    1.307640   2.067164   2.073730   0.000000
     5  C    2.502690   2.729030   3.478509   1.515933   0.000000
     6  F    3.575155   3.988291   4.412266   2.339636   1.313259
     7  F    2.971431   2.891396   3.972502   2.345215   1.323148
     8  F    2.971531   2.891597   3.972567   2.345218   1.323148
     9  F    2.308161   3.275507   2.578176   1.324023   2.367088
                    6          7          8          9
     6  F    0.000000
     7  F    2.133070   0.000000
     8  F    2.133068   2.124928   0.000000
     9  F    2.506480   3.290290   3.290184   0.000000
 Stoichiometry    C3H2F4
 Framework group  C1[X(C3H2F4)]
 Deg. of freedom    21
 Full point group                 C1      NOp   1
 RotChk:  IX=0 Diff= 1.13D-05
 Largest Abelian subgroup         C1      NOp   1
 Largest concise Abelian subgroup C1      NOp   1
                         Standard orientation:                         
 ---------------------------------------------------------------------
 Center     Atomic      Atomic             Coordinates (Angstroms)
 Number     Number       Type             X           Y           Z
 ---------------------------------------------------------------------
      1          6           0        1.666048   -1.100748   -0.000040
      2          1           0        1.209027   -2.071185   -0.000101
      3          1           0        2.736876   -1.031507   -0.000017
      4          6           0        0.924510   -0.023694    0.000004
      5          6           0       -0.591420   -0.020332   -0.000009
      6          9           0       -1.067352    1.203653   -0.000109
      7          9           0       -1.071468   -0.646063   -1.062427
      8          9           0       -1.071490   -0.645894    1.062500
      9          9           0        1.439118    1.196230    0.000079
 ---------------------------------------------------------------------
 Rotational constants (GHZ):           3.8140692           2.4682173           2.0096610
 Leave Link  202 at Thu Apr  2 13:29:07 2026, MaxMem=  2147483648 cpu:               0.0 elap:               0.0
 (Enter /Users/yarger/Applications/g16/l301.exe)
 Standard basis: 6-31+G(d) (6D, 7F)
 Ernie: Thresh=  0.10000D-02 Tol=  0.10000D-05 Strict=F.
 There are   137 symmetry adapted cartesian basis functions of A   symmetry.
 There are   137 symmetry adapted basis functions of A   symmetry.
   137 basis functions,   232 primitive gaussians,   137 cartesian basis functions
    28 alpha electrons       28 beta electrons
       nuclear repulsion energy       335.6756093293 Hartrees.
 IExCor=    0 DFT=F Ex=HF Corr=None ExCW=0 ScaHFX=  1.000000
 ScaDFX=  1.000000  1.000000  1.000000  1.000000 ScalE2=  1.000000  1.000000
 IRadAn=      5 IRanWt=     -1 IRanGd=            0 ICorTp=0 IEmpDi=  4
 NAtoms=    9 NActive=    9 NUniq=    9 SFac= 1.00D+00 NAtFMM=   60 NAOKFM=F Big=F
 Integral buffers will be    131072 words long.
 Raffenetti 1 integral format.
 Two-electron integral symmetry is turned on.
 Leave Link  301 at Thu Apr  2 13:29:07 2026, MaxMem=  2147483648 cpu:               0.2 elap:               0.0
 (Enter /Users/yarger/Applications/g16/l302.exe)
 NPDir=0 NMtPBC=     1 NCelOv=     1 NCel=       1 NClECP=     1 NCelD=      1
         NCelK=      1 NCelE2=     1 NClLst=     1 CellRange=     0.0.
 One-electron integrals computed using PRISM.
 One-electron integral symmetry used in STVInt
 NBasis=   137 RedAO= T EigKep=  6.05D-05  NBF=   137
 NBsUse=   137 1.00D-06 EigRej= -1.00D+00 NBFU=   137
 Leave Link  302 at Thu Apr  2 13:29:07 2026, MaxMem=  2147483648 cpu:               0.7 elap:               0.1
 (Enter /Users/yarger/Applications/g16/l303.exe)
 DipDrv:  MaxL=1.
 Leave Link  303 at Thu Apr  2 13:29:07 2026, MaxMem=  2147483648 cpu:               0.1 elap:               0.0
 (Enter /Users/yarger/Applications/g16/l401.exe)
 Initial guess from the checkpoint file:  "2223Tetrafluoropropene_Opt_Freq_HF_631pd_Gaussian16.chk"
 B after Tr=    -0.000000   -0.000000    0.000000
         Rot=    1.000000    0.000005    0.000002    0.000000 Ang=   0.00 deg.
 Guess basis will be translated and rotated to current coordinates.
 JPrj=2 DoOrth=T DoCkMO=T.
 Leave Link  401 at Thu Apr  2 13:29:08 2026, MaxMem=  2147483648 cpu:               0.4 elap:               0.1
 (Enter /Users/yarger/Applications/g16/l502.exe)
 Keep R1 ints in memory in canonical form, NReq=46403139.
 FoFCou: FMM=F IPFlag=           0 FMFlag=           0 FMFlg1=           0
         NFxFlg=           0 DoJE=F BraDBF=F KetDBF=F FulRan=T
         wScrn=  0.000000 ICntrl=       600 IOpCl=  0 I1Cent=           0 NGrid=           0
         NMat0=    1 NMatS0=   9453 NMatT0=    0 NMatD0=    1 NMtDS0=    0 NMtDT0=    0
 Symmetry not used in FoFCou.
 Two-electron integral symmetry not used.
 Closed shell SCF:
 Using DIIS extrapolation, IDIIS=  1040.
 NGot=  2147483648 LenX=  2102759234 LenY=  2102740024
 Requested convergence on RMS density matrix=1.00D-08 within 128 cycles.
 Requested convergence on MAX density matrix=1.00D-06.
 Requested convergence on             energy=1.00D-06.
 No special actions if energy rises.

 Cycle   1  Pass 1  IDiag  1:
 E= -512.514885524645    
 DIIS: error= 2.15D-06 at cycle   1 NSaved=   1.
 NSaved= 1 IEnMin= 1 EnMin= -512.514885524645     IErMin= 1 ErrMin= 2.15D-06
 ErrMax= 2.15D-06  0.00D+00 EMaxC= 1.00D-01 BMatC= 1.59D-09 BMatP= 1.59D-09
 IDIUse=1 WtCom= 1.00D+00 WtEn= 0.00D+00
 Coeff-Com:  0.100D+01
 Coeff:      0.100D+01
 Gap=     0.991 Goal=   None    Shift=    0.000
 RMSDP=7.22D-07 MaxDP=2.34D-05              OVMax= 9.27D-06

 Cycle   2  Pass 1  IDiag  1:
 E= -512.514885526876     Delta-E=       -0.000000002231 Rises=F Damp=F
 DIIS: error= 5.66D-07 at cycle   2 NSaved=   2.
 NSaved= 2 IEnMin= 2 EnMin= -512.514885526876     IErMin= 2 ErrMin= 5.66D-07
 ErrMax= 5.66D-07  0.00D+00 EMaxC= 1.00D-01 BMatC= 1.21D-10 BMatP= 1.59D-09
 IDIUse=1 WtCom= 1.00D+00 WtEn= 0.00D+00
 Coeff-Com: -0.258D+00 0.126D+01
 Coeff:     -0.258D+00 0.126D+01
 Gap=     0.489 Goal=   None    Shift=    0.000
 RMSDP=1.59D-07 MaxDP=3.75D-06 DE=-2.23D-09 OVMax= 4.77D-06

 Cycle   3  Pass 1  IDiag  1:
 E= -512.514885527128     Delta-E=       -0.000000000252 Rises=F Damp=F
 DIIS: error= 2.51D-07 at cycle   3 NSaved=   3.
 NSaved= 3 IEnMin= 3 EnMin= -512.514885527128     IErMin= 3 ErrMin= 2.51D-07
 ErrMax= 2.51D-07  0.00D+00 EMaxC= 1.00D-01 BMatC= 1.14D-11 BMatP= 1.21D-10
 IDIUse=1 WtCom= 1.00D+00 WtEn= 0.00D+00
 Coeff-Com: -0.779D-01 0.217D+00 0.861D+00
 Coeff:     -0.779D-01 0.217D+00 0.861D+00
 Gap=     0.489 Goal=   None    Shift=    0.000
 RMSDP=4.10D-08 MaxDP=9.63D-07 DE=-2.52D-10 OVMax= 1.32D-06

 Cycle   4  Pass 1  IDiag  1:
 E= -512.514885527149     Delta-E=       -0.000000000021 Rises=F Damp=F
 DIIS: error= 1.07D-07 at cycle   4 NSaved=   4.
 NSaved= 4 IEnMin= 4 EnMin= -512.514885527149     IErMin= 4 ErrMin= 1.07D-07
 ErrMax= 1.07D-07  0.00D+00 EMaxC= 1.00D-01 BMatC= 1.71D-12 BMatP= 1.14D-11
 IDIUse=1 WtCom= 1.00D+00 WtEn= 0.00D+00
 Coeff-Com:  0.286D-01-0.163D+00 0.111D+00 0.102D+01
 Coeff:      0.286D-01-0.163D+00 0.111D+00 0.102D+01
 Gap=     0.489 Goal=   None    Shift=    0.000
 RMSDP=2.64D-08 MaxDP=7.72D-07 DE=-2.08D-11 OVMax= 8.15D-07

 Cycle   5  Pass 1  IDiag  1:
 E= -512.514885527144     Delta-E=        0.000000000005 Rises=F Damp=F
 DIIS: error= 2.65D-08 at cycle   5 NSaved=   5.
 NSaved= 5 IEnMin= 4 EnMin= -512.514885527149     IErMin= 5 ErrMin= 2.65D-08
 ErrMax= 2.65D-08  0.00D+00 EMaxC= 1.00D-01 BMatC= 1.11D-13 BMatP= 1.71D-12
 IDIUse=1 WtCom= 1.00D+00 WtEn= 0.00D+00
 Coeff-Com:  0.363D-02-0.311D-02-0.777D-01-0.817D-01 0.116D+01
 Coeff:      0.363D-02-0.311D-02-0.777D-01-0.817D-01 0.116D+01
 Gap=     0.489 Goal=   None    Shift=    0.000
 RMSDP=8.79D-09 MaxDP=2.50D-07 DE= 4.55D-12 OVMax= 2.97D-07

 SCF Done:  E(RHF) =  -512.514885527     A.U. after    5 cycles
            NFock=  5  Conv=0.88D-08     -V/T= 2.0023
 KE= 5.113204616368D+02 PE=-1.889338898677D+03 EE= 5.298279421834D+02
 Leave Link  502 at Thu Apr  2 13:29:08 2026, MaxMem=  2147483648 cpu:               2.6 elap:               0.5
 (Enter /Users/yarger/Applications/g16/l701.exe)
 ... and contract with generalized density number  0.
 Compute integral first derivatives.
 Leave Link  701 at Thu Apr  2 13:29:08 2026, MaxMem=  2147483648 cpu:               0.5 elap:               0.1
 (Enter /Users/yarger/Applications/g16/l702.exe)
 L702 exits ... SP integral derivatives will be done elsewhere.
 Leave Link  702 at Thu Apr  2 13:29:08 2026, MaxMem=  2147483648 cpu:               0.1 elap:               0.0
 (Enter /Users/yarger/Applications/g16/l703.exe)
 Integral derivatives from FoFJK, PRISM(SPDF).
 Compute integral first derivatives, UseDBF=F ICtDFT=           0.
 Calling FoFJK, ICntrl=      2127 FMM=F ISym2X=0 I1Cent= 0 IOpClX= 0 NMat=1 NMatS=1 NMatT=0.
 FoFJK:  IHMeth= 1 ICntrl=    2127 DoSepK=F KAlg= 0 I1Cent=           0 FoldK=F
 IRaf=         0 NMat=       1 IRICut=       1 DoRegI=T DoRafI=F ISym2E= 0 IDoP0=0 IntGTp=1.
 FoFCou: FMM=F IPFlag=           0 FMFlag=      100000 FMFlg1=         800
         NFxFlg=           0 DoJE=F BraDBF=F KetDBF=F FulRan=T
         wScrn=  0.000000 ICntrl=      2127 IOpCl=  0 I1Cent=           0 NGrid=           0
         NMat0=    1 NMatS0=      1 NMatT0=    0 NMatD0=    1 NMtDS0=    0 NMtDT0=    0
 Symmetry not used in FoFCou.
 Leave Link  703 at Thu Apr  2 13:29:09 2026, MaxMem=  2147483648 cpu:               3.4 elap:               0.5
 (Enter /Users/yarger/Applications/g16/l716.exe)
 Dipole        = 6.64663816D-01-6.57019484D-01-3.21284755D-05
 ***** Axes restored to original set *****
 -------------------------------------------------------------------
 Center     Atomic                   Forces (Hartrees/Bohr)
 Number     Number              X              Y              Z
 -------------------------------------------------------------------
      1        6          -0.000001141   -0.000000900    0.000000547
      2        1           0.000000792    0.000000250    0.000000143
      3        1          -0.000000204    0.000000942   -0.000000118
      4        6           0.000001708   -0.000002287    0.000000405
      5        6          -0.000001110    0.000002153    0.000000219
      6        9           0.000000309    0.000000312    0.000000309
      7        9           0.000000508   -0.000000490   -0.000001444
      8        9           0.000000050   -0.000001268    0.000000666
      9        9          -0.000000911    0.000001287   -0.000000726
 -------------------------------------------------------------------
 Cartesian Forces:  Max     0.000002287 RMS     0.000000986
 Leave Link  716 at Thu Apr  2 13:29:09 2026, MaxMem=  2147483648 cpu:               0.1 elap:               0.0
 (Enter /Users/yarger/Applications/g16/l103.exe)

 GradGradGradGradGradGradGradGradGradGradGradGradGradGradGradGradGradGrad
 Berny optimization.
 Using GEDIIS/GDIIS optimizer.
 FormGI is forming the generalized inverse of G from B-inverse, IUseBI=4.
 Internal  Forces:  Max     0.000001574 RMS     0.000000658
 Search for a local minimum.
 Step number   8 out of a maximum of   40
 All quantities printed in internal units (Hartrees-Bohrs-Radians)
 RMS Force = .65797D-06 SwitMx=.10000D-02 MixMth= 2
 Mixed Optimization -- En-DIIS/RFO-DIIS
 Swapping is turned off.
 Update second derivatives using D2CorX and points    1    2    3    4    5
                                                      6    7    8
 DE= -5.99D-10 DEPred=-4.65D-10 R= 1.29D+00
 Trust test= 1.29D+00 RLast= 1.51D-04 DXMaxT set to 5.05D-01
 ITU=  0  0  0  1  1  1  1  0
     Eigenvalues ---    0.00396   0.01686   0.03038   0.03046   0.10816
     Eigenvalues ---    0.13408   0.14694   0.18069   0.21134   0.24972
     Eigenvalues ---    0.25364   0.25680   0.28878   0.35315   0.36969
     Eigenvalues ---    0.46293   0.54322   0.56563   0.60263   0.62926
     Eigenvalues ---    0.79385
 En-DIIS/RFO-DIIS/Sim-DIIS IScMMF=       -3 using points:     8    7    6    5    4
 RFO step:  Lambda=-7.57453373D-11.
 NNeg= 0 NGDIIS= 5 SimSw=  2.50D-01 Rises=F DC= -5.99D-10 SmlDif=  1.00D-05
 NRisDI= 0 DoIntr=F SqrtH=F CThrHd= 10.0 CDAdj=  3.0
 RMS Error=  0.6678732051D-04 NUsed= 5 OKEnD=F EnDIS=F
 InvSVX:  RCond= 9.68D-11 Info=           0 Equed=N FErr=  6.20D-13 BErr=  6.11D-17
 DIIS inversion failure, remove point   5.
 InvSVX:  RCond= 1.38D-10 Info=           0 Equed=N FErr=  5.01D-13 BErr=  1.10D-16
 DIIS inversion failure, remove point   4.
 InvSVX:  RCond= 4.91D-10 Info=           0 Equed=N FErr=  1.55D-13 BErr=  7.05D-17
 DIIS inversion failure, remove point   3.
 InvSVX:  RCond= 5.67D-09 Info=           0 Equed=N FErr=  1.55D-14 BErr=  0.00D+00
 DIIS inversion failure, remove point   2.
 Use linear search instead of GDIIS.
 RFO step:  Lambda= 0.00000000D+00 EMin= 3.96305401D-03
 Quartic linear search produced a step of  0.40495.
 Iteration  1 RMS(Cart)=  0.00008493 RMS(Int)=  0.00000000
 Iteration  2 RMS(Cart)=  0.00000000 RMS(Int)=  0.00000000
 ITry= 1 IFail=0 DXMaxC= 2.08D-04 DCOld= 1.00D+10 DXMaxT= 5.05D-01 DXLimC= 3.00D+00 Rises=F
 Variable       Old X    -DE/DX   Delta X   Delta X   Delta X     New X
                                 (Linear)    (Quad)   (Total)
    R1        2.02705  -0.00000   0.00000  -0.00000   0.00000   2.02705
    R2        2.02780  -0.00000   0.00000  -0.00000   0.00000   2.02780
    R3        2.47108  -0.00000   0.00000   0.00000   0.00000   2.47109
    R4        2.86470   0.00000   0.00000   0.00000   0.00000   2.86470
    R5        2.50204  -0.00000  -0.00001  -0.00001  -0.00001   2.50203
    R6        2.48170  -0.00000   0.00001   0.00000   0.00001   2.48171
    R7        2.50039  -0.00000   0.00000  -0.00000  -0.00000   2.50038
    R8        2.50039  -0.00000   0.00000  -0.00000  -0.00000   2.50039
    A1        2.07550  -0.00000  -0.00001  -0.00001  -0.00002   2.07548
    A2        2.09850   0.00000  -0.00000  -0.00000  -0.00000   2.09850
    A3        2.10918   0.00000   0.00001   0.00001   0.00002   2.10920
    A4        2.17597  -0.00000  -0.00001  -0.00001  -0.00002   2.17595
    A5        2.13945   0.00000   0.00001   0.00001   0.00002   2.13946
    A6        1.96777  -0.00000   0.00001   0.00000   0.00001   1.96777
    A7        1.94386  -0.00000   0.00000  -0.00000  -0.00000   1.94386
    A8        1.94096   0.00000  -0.00000   0.00000  -0.00000   1.94096
    A9        1.94096   0.00000   0.00000   0.00000   0.00000   1.94096
   A10        1.88517   0.00000  -0.00000   0.00000   0.00000   1.88517
   A11        1.88516  -0.00000  -0.00000  -0.00000  -0.00000   1.88516
   A12        1.86456  -0.00000   0.00000  -0.00000  -0.00000   1.86456
    D1        0.00001   0.00000   0.00000   0.00001   0.00001   0.00003
    D2       -3.14159   0.00000   0.00000  -0.00000   0.00000  -3.14159
    D3       -3.14158   0.00000   0.00000   0.00001   0.00001  -3.14157
    D4       -0.00000   0.00000  -0.00000  -0.00000  -0.00000  -0.00000
    D5       -3.14147   0.00000   0.00002   0.00012   0.00014  -3.14133
    D6       -1.03774   0.00000   0.00002   0.00012   0.00014  -1.03760
    D7        1.03799   0.00000   0.00002   0.00012   0.00014   1.03813
    D8        0.00014   0.00000   0.00002   0.00013   0.00015   0.00029
    D9        2.10387   0.00000   0.00002   0.00013   0.00015   2.10402
   D10       -2.10359   0.00000   0.00002   0.00013   0.00016  -2.10344
         Item               Value     Threshold  Converged?
 Maximum Force            0.000002     0.000015     YES
 RMS     Force            0.000001     0.000010     YES
 Maximum Displacement     0.000208     0.000060     NO 
 RMS     Displacement     0.000085     0.000040     NO 
 Predicted change in Energy=-2.863586D-10
 Lowest energy point so far.  Saving SCF results.
 GradGradGradGradGradGradGradGradGradGradGradGradGradGradGradGradGradGrad

 Leave Link  103 at Thu Apr  2 13:29:09 2026, MaxMem=  2147483648 cpu:               0.1 elap:               0.0
 (Enter /Users/yarger/Applications/g16/l202.exe)
                          Input orientation:                          
 ---------------------------------------------------------------------
 Center     Atomic      Atomic             Coordinates (Angstroms)
 Number     Number       Type             X           Y           Z
 ---------------------------------------------------------------------
      1          6           0        1.720432    1.059436    0.000058
      2          1           0        1.293580    2.043518    0.000192
      3          1           0        2.788616    0.957195    0.000009
      4          6           0        0.945998    0.005785   -0.000038
      5          6           0       -0.569315    0.049256   -0.000011
      6          9           0       -1.082834   -1.159446    0.000198
      7          9           0       -1.029789    0.689608    1.062358
      8          9           0       -1.029847    0.689258   -1.062567
      9          9           0        1.422678   -1.229445   -0.000203
 ---------------------------------------------------------------------
                    Distance matrix (angstroms):
                    1          2          3          4          5
     1  C    0.000000
     2  H    1.072669   0.000000
     3  H    1.073066   1.848034   0.000000
     4  C    1.307643   2.067165   2.073747   0.000000
     5  C    2.502679   2.729003   3.478513   1.515936   0.000000
     6  F    3.575155   3.988273   4.412289   2.339641   1.313264
     7  F    2.971358   2.891248   3.972456   2.345215   1.323146
     8  F    2.971571   2.891676   3.972596   2.345222   1.323147
     9  F    2.308167   3.275509   2.578214   1.324016   2.367089
                    6          7          8          9
     6  F    0.000000
     7  F    2.133072   0.000000
     8  F    2.133069   2.124925   0.000000
     9  F    2.506489   3.290349   3.290124   0.000000
 Stoichiometry    C3H2F4
 Framework group  C1[X(C3H2F4)]
 Deg. of freedom    21
 Full point group                 C1      NOp   1
 RotChk:  IX=0 Diff= 8.65D-06
 Largest Abelian subgroup         C1      NOp   1
 Largest concise Abelian subgroup C1      NOp   1
                         Standard orientation:                         
 ---------------------------------------------------------------------
 Center     Atomic      Atomic             Coordinates (Angstroms)
 Number     Number       Type             X           Y           Z
 ---------------------------------------------------------------------
      1          6           0        1.666036   -1.100752   -0.000088
      2          1           0        1.208994   -2.071181   -0.000222
      3          1           0        2.736869   -1.031553   -0.000038
      4          6           0        0.924515   -0.023684    0.000008
      5          6           0       -0.591417   -0.020332   -0.000019
      6          9           0       -1.067358    1.203654   -0.000228
      7          9           0       -1.071450   -0.646156   -1.062388
      8          9           0       -1.071497   -0.645805    1.062537
      9          9           0        1.439120    1.196234    0.000173
 ---------------------------------------------------------------------
 Rotational constants (GHZ):           3.8140590           2.4682252           2.0096617
 Leave Link  202 at Thu Apr  2 13:29:09 2026, MaxMem=  2147483648 cpu:               0.0 elap:               0.0
 (Enter /Users/yarger/Applications/g16/l301.exe)
 Standard basis: 6-31+G(d) (6D, 7F)
 Ernie: Thresh=  0.10000D-02 Tol=  0.10000D-05 Strict=F.
 There are   137 symmetry adapted cartesian basis functions of A   symmetry.
 There are   137 symmetry adapted basis functions of A   symmetry.
   137 basis functions,   232 primitive gaussians,   137 cartesian basis functions
    28 alpha electrons       28 beta electrons
       nuclear repulsion energy       335.6756303805 Hartrees.
 IExCor=    0 DFT=F Ex=HF Corr=None ExCW=0 ScaHFX=  1.000000
 ScaDFX=  1.000000  1.000000  1.000000  1.000000 ScalE2=  1.000000  1.000000
 IRadAn=      5 IRanWt=     -1 IRanGd=            0 ICorTp=0 IEmpDi=  4
 NAtoms=    9 NActive=    9 NUniq=    9 SFac= 1.00D+00 NAtFMM=   60 NAOKFM=F Big=F
 Integral buffers will be    131072 words long.
 Raffenetti 1 integral format.
 Two-electron integral symmetry is turned on.
 Leave Link  301 at Thu Apr  2 13:29:09 2026, MaxMem=  2147483648 cpu:               0.2 elap:               0.0
 (Enter /Users/yarger/Applications/g16/l302.exe)
 NPDir=0 NMtPBC=     1 NCelOv=     1 NCel=       1 NClECP=     1 NCelD=      1
         NCelK=      1 NCelE2=     1 NClLst=     1 CellRange=     0.0.
 One-electron integrals computed using PRISM.
 One-electron integral symmetry used in STVInt
 NBasis=   137 RedAO= T EigKep=  6.05D-05  NBF=   137
 NBsUse=   137 1.00D-06 EigRej= -1.00D+00 NBFU=   137
 Leave Link  302 at Thu Apr  2 13:29:09 2026, MaxMem=  2147483648 cpu:               0.7 elap:               0.1
 (Enter /Users/yarger/Applications/g16/l303.exe)
 DipDrv:  MaxL=1.
 Leave Link  303 at Thu Apr  2 13:29:09 2026, MaxMem=  2147483648 cpu:               0.1 elap:               0.0
 (Enter /Users/yarger/Applications/g16/l401.exe)
 Initial guess from the checkpoint file:  "2223Tetrafluoropropene_Opt_Freq_HF_631pd_Gaussian16.chk"
 B after Tr=     0.000000    0.000000   -0.000000
         Rot=    1.000000    0.000014    0.000006    0.000000 Ang=   0.00 deg.
 Guess basis will be translated and rotated to current coordinates.
 JPrj=2 DoOrth=T DoCkMO=T.
 Leave Link  401 at Thu Apr  2 13:29:09 2026, MaxMem=  2147483648 cpu:               0.4 elap:               0.1
 (Enter /Users/yarger/Applications/g16/l502.exe)
 Keep R1 ints in memory in canonical form, NReq=46403139.
 FoFCou: FMM=F IPFlag=           0 FMFlag=           0 FMFlg1=           0
         NFxFlg=           0 DoJE=F BraDBF=F KetDBF=F FulRan=T
         wScrn=  0.000000 ICntrl=       600 IOpCl=  0 I1Cent=           0 NGrid=           0
         NMat0=    1 NMatS0=   9453 NMatT0=    0 NMatD0=    1 NMtDS0=    0 NMtDT0=    0
 Symmetry not used in FoFCou.
 Two-electron integral symmetry not used.
 Closed shell SCF:
 Using DIIS extrapolation, IDIIS=  1040.
 NGot=  2147483648 LenX=  2102759234 LenY=  2102740024
 Requested convergence on RMS density matrix=1.00D-08 within 128 cycles.
 Requested convergence on MAX density matrix=1.00D-06.
 Requested convergence on             energy=1.00D-06.
 No special actions if energy rises.

 Cycle   1  Pass 1  IDiag  1:
 E= -512.514885515375    
 DIIS: error= 5.65D-06 at cycle   1 NSaved=   1.
 NSaved= 1 IEnMin= 1 EnMin= -512.514885515375     IErMin= 1 ErrMin= 5.65D-06
 ErrMax= 5.65D-06  0.00D+00 EMaxC= 1.00D-01 BMatC= 7.58D-09 BMatP= 7.58D-09
 IDIUse=1 WtCom= 1.00D+00 WtEn= 0.00D+00
 Coeff-Com:  0.100D+01
 Coeff:      0.100D+01
 Gap=     0.991 Goal=   None    Shift=    0.000
 RMSDP=1.34D-06 MaxDP=3.20D-05              OVMax= 2.41D-05

 Cycle   2  Pass 1  IDiag  1:
 E= -512.514885526376     Delta-E=       -0.000000011001 Rises=F Damp=F
 DIIS: error= 1.49D-06 at cycle   2 NSaved=   2.
 NSaved= 2 IEnMin= 2 EnMin= -512.514885526376     IErMin= 2 ErrMin= 1.49D-06
 ErrMax= 1.49D-06  0.00D+00 EMaxC= 1.00D-01 BMatC= 5.80D-10 BMatP= 7.58D-09
 IDIUse=1 WtCom= 1.00D+00 WtEn= 0.00D+00
 Coeff-Com: -0.293D+00 0.129D+01
 Coeff:     -0.293D+00 0.129D+01
 Gap=     0.489 Goal=   None    Shift=    0.000
 RMSDP=3.14D-07 MaxDP=6.14D-06 DE=-1.10D-08 OVMax= 1.20D-05

 Cycle   3  Pass 1  IDiag  1:
 E= -512.514885527729     Delta-E=       -0.000000001353 Rises=F Damp=F
 DIIS: error= 4.72D-07 at cycle   3 NSaved=   3.
 NSaved= 3 IEnMin= 3 EnMin= -512.514885527729     IErMin= 3 ErrMin= 4.72D-07
 ErrMax= 4.72D-07  0.00D+00 EMaxC= 1.00D-01 BMatC= 2.72D-11 BMatP= 5.80D-10
 IDIUse=1 WtCom= 1.00D+00 WtEn= 0.00D+00
 Coeff-Com:  0.189D-01-0.201D+00 0.118D+01
 Coeff:      0.189D-01-0.201D+00 0.118D+01
 Gap=     0.489 Goal=   None    Shift=    0.000
 RMSDP=1.20D-07 MaxDP=3.56D-06 DE=-1.35D-09 OVMax= 3.84D-06

 Cycle   4  Pass 1  IDiag  1:
 E= -512.514885527811     Delta-E=       -0.000000000083 Rises=F Damp=F
 DIIS: error= 1.80D-07 at cycle   4 NSaved=   4.
 NSaved= 4 IEnMin= 4 EnMin= -512.514885527811     IErMin= 4 ErrMin= 1.80D-07
 ErrMax= 1.80D-07  0.00D+00 EMaxC= 1.00D-01 BMatC= 5.24D-12 BMatP= 2.72D-11
 IDIUse=1 WtCom= 1.00D+00 WtEn= 0.00D+00
 Coeff-Com:  0.326D-01-0.171D+00 0.277D+00 0.862D+00
 Coeff:      0.326D-01-0.171D+00 0.277D+00 0.862D+00
 Gap=     0.489 Goal=   None    Shift=    0.000
 RMSDP=3.92D-08 MaxDP=1.22D-06 DE=-8.25D-11 OVMax= 1.28D-06

 Cycle   5  Pass 1  IDiag  1:
 E= -512.514885527815     Delta-E=       -0.000000000004 Rises=F Damp=F
 DIIS: error= 5.30D-08 at cycle   5 NSaved=   5.
 NSaved= 5 IEnMin= 5 EnMin= -512.514885527815     IErMin= 5 ErrMin= 5.30D-08
 ErrMax= 5.30D-08  0.00D+00 EMaxC= 1.00D-01 BMatC= 5.46D-13 BMatP= 5.24D-12
 IDIUse=1 WtCom= 1.00D+00 WtEn= 0.00D+00
 Coeff-Com: -0.220D-02 0.272D-01-0.164D+00-0.721D-02 0.115D+01
 Coeff:     -0.220D-02 0.272D-01-0.164D+00-0.721D-02 0.115D+01
 Gap=     0.489 Goal=   None    Shift=    0.000
 RMSDP=1.88D-08 MaxDP=5.21D-07 DE=-3.64D-12 OVMax= 6.41D-07

 Cycle   6  Pass 1  IDiag  1:
 E= -512.514885527814     Delta-E=        0.000000000001 Rises=F Damp=F
 DIIS: error= 1.42D-08 at cycle   6 NSaved=   6.
 NSaved= 6 IEnMin= 5 EnMin= -512.514885527815     IErMin= 6 ErrMin= 1.42D-08
 ErrMax= 1.42D-08  0.00D+00 EMaxC= 1.00D-01 BMatC= 3.63D-14 BMatP= 5.46D-13
 IDIUse=1 WtCom= 1.00D+00 WtEn= 0.00D+00
 Coeff-Com: -0.310D-02 0.160D-01-0.184D-01-0.859D-01-0.558D-01 0.115D+01
 Coeff:     -0.310D-02 0.160D-01-0.184D-01-0.859D-01-0.558D-01 0.115D+01
 Gap=     0.489 Goal=   None    Shift=    0.000
 RMSDP=5.15D-09 MaxDP=1.27D-07 DE= 6.82D-13 OVMax= 1.73D-07

 SCF Done:  E(RHF) =  -512.514885528     A.U. after    6 cycles
            NFock=  6  Conv=0.52D-08     -V/T= 2.0023
 KE= 5.113204524813D+02 PE=-1.889338922955D+03 EE= 5.298279545654D+02
 Leave Link  502 at Thu Apr  2 13:29:10 2026, MaxMem=  2147483648 cpu:               2.8 elap:               0.5
 (Enter /Users/yarger/Applications/g16/l701.exe)
 ... and contract with generalized density number  0.
 Compute integral first derivatives.
 Leave Link  701 at Thu Apr  2 13:29:10 2026, MaxMem=  2147483648 cpu:               0.6 elap:               0.1
 (Enter /Users/yarger/Applications/g16/l702.exe)
 L702 exits ... SP integral derivatives will be done elsewhere.
 Leave Link  702 at Thu Apr  2 13:29:10 2026, MaxMem=  2147483648 cpu:               0.1 elap:               0.0
 (Enter /Users/yarger/Applications/g16/l703.exe)
 Integral derivatives from FoFJK, PRISM(SPDF).
 Compute integral first derivatives, UseDBF=F ICtDFT=           0.
 Calling FoFJK, ICntrl=      2127 FMM=F ISym2X=0 I1Cent= 0 IOpClX= 0 NMat=1 NMatS=1 NMatT=0.
 FoFJK:  IHMeth= 1 ICntrl=    2127 DoSepK=F KAlg= 0 I1Cent=           0 FoldK=F
 IRaf=         0 NMat=       1 IRICut=       1 DoRegI=T DoRafI=F ISym2E= 0 IDoP0=0 IntGTp=1.
 FoFCou: FMM=F IPFlag=           0 FMFlag=      100000 FMFlg1=         800
         NFxFlg=           0 DoJE=F BraDBF=F KetDBF=F FulRan=T
         wScrn=  0.000000 ICntrl=      2127 IOpCl=  0 I1Cent=           0 NGrid=           0
         NMat0=    1 NMatS0=      1 NMatT0=    0 NMatD0=    1 NMtDS0=    0 NMtDT0=    0
 Symmetry not used in FoFCou.
 Leave Link  703 at Thu Apr  2 13:29:10 2026, MaxMem=  2147483648 cpu:               3.2 elap:               0.4
 (Enter /Users/yarger/Applications/g16/l716.exe)
 Dipole        = 6.64670891D-01-6.57013506D-01-7.02213592D-05
 ***** Axes restored to original set *****
 -------------------------------------------------------------------
 Center     Atomic                   Forces (Hartrees/Bohr)
 Number     Number              X              Y              Z
 -------------------------------------------------------------------
      1        6          -0.000000119   -0.000001555    0.000001157
      2        1           0.000000520   -0.000001150    0.000000376
      3        1          -0.000001921   -0.000000909   -0.000000275
      4        6          -0.000000780    0.000007235    0.000000808
      5        6          -0.000001438   -0.000002789    0.000000449
      6        9           0.000001973    0.000003503    0.000000654
      7        9           0.000000629    0.000000143   -0.000000973
      8        9          -0.000000333   -0.000001512   -0.000000658
      9        9           0.000001469   -0.000002967   -0.000001537
 -------------------------------------------------------------------
 Cartesian Forces:  Max     0.000007235 RMS     0.000001999
 Leave Link  716 at Thu Apr  2 13:29:10 2026, MaxMem=  2147483648 cpu:               0.1 elap:               0.0
 (Enter /Users/yarger/Applications/g16/l103.exe)

 GradGradGradGradGradGradGradGradGradGradGradGradGradGradGradGradGradGrad
 Berny optimization.
 Using GEDIIS/GDIIS optimizer.
 FormGI is forming the generalized inverse of G from B-inverse, IUseBI=4.
 Internal  Forces:  Max     0.000003996 RMS     0.000001575
 Search for a local minimum.
 Step number   9 out of a maximum of   40
 All quantities printed in internal units (Hartrees-Bohrs-Radians)
 RMS Force = .15750D-05 SwitMx=.10000D-02 MixMth= 2
 Mixed Optimization -- En-DIIS/RFO-DIIS
 Swapping is turned off.
 Update second derivatives using D2CorX and points    1    2    3    4    5
                                                      6    7    8    9
 DE= -6.70D-10 DEPred=-2.86D-10 R= 2.34D+00
 Trust test= 2.34D+00 RLast= 3.66D-04 DXMaxT set to 5.05D-01
 ITU=  0  0  0  0  1  1  1  1  0
     Eigenvalues ---   -0.00569   0.01678   0.03004   0.03046   0.09163
     Eigenvalues ---    0.10815   0.13450   0.17802   0.18777   0.24857
     Eigenvalues ---    0.25292   0.25457   0.28941   0.35309   0.36998
     Eigenvalues ---    0.45425   0.50498   0.56501   0.59481   0.61105
     Eigenvalues ---    0.75810
 Eigenvalue     1 is  -5.69D-03 should be greater than     0.000000 Eigenvector:
                          D9        D10       D8        D6        D7
   1                   -0.43215  -0.42894  -0.42671  -0.38299  -0.37978
                          D5        D1        D3        A5        A4
   1                   -0.37755  -0.06858  -0.05572   0.03660  -0.03394
 Use linear search instead of GDIIS.
 RFO step:  Lambda=-5.69143335D-03 EMin=-5.69143037D-03
 I=     1 Eig=   -5.69D-03 Dot1= -1.91D-06
 I=     1 Stepn= -6.00D-01 RXN=   6.00D-01 EDone=F
 Mixed    1 eigenvectors in step.  Raw Step.Grad=  1.91D-06.
 RFO eigenvector is Hessian eigenvector with negative curvature.
 Taking step of  6.00D-01 in eigenvector direction(s).  Step.Grad= -1.78D-07.
 Skip linear search -- no minimum in search direction.
 Iteration  1 RMS(Cart)=  0.11539603 RMS(Int)=  0.02113171
 Iteration  2 RMS(Cart)=  0.02530893 RMS(Int)=  0.00031074
 Iteration  3 RMS(Cart)=  0.00031397 RMS(Int)=  0.00007521
 Iteration  4 RMS(Cart)=  0.00000003 RMS(Int)=  0.00007521
 ITry= 1 IFail=0 DXMaxC= 3.42D-01 DCOld= 1.00D+10 DXMaxT= 5.05D-01 DXLimC= 3.00D+00 Rises=F
 Variable       Old X    -DE/DX   Delta X   Delta X   Delta X     New X
                                 (Linear)    (Quad)   (Total)
    R1        2.02705  -0.00000   0.00000  -0.00116  -0.00116   2.02589
    R2        2.02780  -0.00000   0.00000   0.00179   0.00179   2.02959
    R3        2.47109  -0.00000   0.00000  -0.00684  -0.00684   2.46425
    R4        2.86470  -0.00000   0.00000   0.00273   0.00273   2.86743
    R5        2.50203   0.00000   0.00000   0.01315   0.01315   2.51517
    R6        2.48171  -0.00000   0.00000  -0.00357  -0.00357   2.47814
    R7        2.50038  -0.00000   0.00000   0.00421   0.00421   2.50460
    R8        2.50039  -0.00000   0.00000   0.00783   0.00783   2.50821
    A1        2.07548   0.00000   0.00000   0.01785   0.01784   2.09332
    A2        2.09850   0.00000   0.00000  -0.00046  -0.00047   2.09802
    A3        2.10920  -0.00000   0.00000  -0.01738  -0.01739   2.09182
    A4        2.17595   0.00000   0.00000   0.02037   0.02024   2.19618
    A5        2.13946  -0.00000   0.00000  -0.02196  -0.02208   2.11738
    A6        1.96777  -0.00000   0.00000   0.00159   0.00146   1.96923
    A7        1.94386  -0.00000   0.00000   0.00477   0.00478   1.94864
    A8        1.94096  -0.00000   0.00000  -0.01081  -0.01081   1.93014
    A9        1.94096   0.00000   0.00000  -0.00020  -0.00020   1.94076
   A10        1.88517   0.00000   0.00000   0.00582   0.00584   1.89100
   A11        1.88516  -0.00000   0.00000  -0.00350  -0.00350   1.88166
   A12        1.86456   0.00000   0.00000   0.00423   0.00422   1.86878
    D1        0.00003   0.00000   0.00000   0.04115   0.04102   0.04104
    D2       -3.14159   0.00000   0.00000   0.00887   0.00900  -3.13260
    D3       -3.14157   0.00000   0.00000   0.03343   0.03330  -3.10827
    D4       -0.00000   0.00000   0.00000   0.00115   0.00128   0.00128
    D5       -3.14133   0.00000   0.00000   0.22653   0.22644  -2.91488
    D6       -1.03760   0.00000   0.00000   0.22980   0.22969  -0.80790
    D7        1.03813   0.00000   0.00000   0.22787   0.22778   1.26591
    D8        0.00029   0.00000   0.00000   0.25602   0.25612   0.25641
    D9        2.10402   0.00000   0.00000   0.25929   0.25937   2.36339
   D10       -2.10344   0.00000   0.00000   0.25736   0.25746  -1.84598
         Item               Value     Threshold  Converged?
 Maximum Force            0.000004     0.000015     YES
 RMS     Force            0.000002     0.000010     YES
 Maximum Displacement     0.342174     0.000060     NO 
 RMS     Displacement     0.138764     0.000040     NO 
 Predicted change in Energy=-1.026459D-03
 Lowest energy point so far.  Saving SCF results.
 GradGradGradGradGradGradGradGradGradGradGradGradGradGradGradGradGradGrad

 Leave Link  103 at Thu Apr  2 13:29:10 2026, MaxMem=  2147483648 cpu:               0.1 elap:               0.0
 (Enter /Users/yarger/Applications/g16/l202.exe)
                          Input orientation:                          
 ---------------------------------------------------------------------
 Center     Atomic      Atomic             Coordinates (Angstroms)
 Number     Number       Type             X           Y           Z
 ---------------------------------------------------------------------
      1          6           0        1.723242    1.060948    0.052730
      2          1           0        1.306914    2.040465    0.181263
      3          1           0        2.788350    0.934164   -0.001792
      4          6           0        0.940743    0.021005   -0.029085
      5          6           0       -0.576284    0.047063   -0.009304
      6          9           0       -1.078474   -1.151475    0.166821
      7          9           0       -1.016314    0.831003    0.964570
      8          9           0       -1.062885    0.528029   -1.146663
      9          9           0        1.434225   -1.206035   -0.178542
 ---------------------------------------------------------------------
                    Distance matrix (angstroms):
                    1          2          3          4          5
     1  C    0.000000
     2  H    1.072055   0.000000
     3  H    1.074012   1.857973   0.000000
     4  C    1.304024   2.063140   2.061130   0.000000
     5  C    2.513887   2.748891   3.479622   1.517379   0.000000
     6  F    3.571756   3.984816   4.396664   2.343144   1.311376
     7  F    2.896462   2.733817   3.926827   2.339555   1.325375
     8  F    3.079781   3.109147   4.038278   2.349591   1.327288
     9  F    2.297004   3.268857   2.538769   1.330973   2.375088
                    6          7          8          9
     6  F    0.000000
     7  F    2.137869   0.000000
     8  F    2.132185   2.133369   0.000000
     9  F    2.536910   3.385465   3.190579   0.000000
 Stoichiometry    C3H2F4
 Framework group  C1[X(C3H2F4)]
 Deg. of freedom    21
 Full point group                 C1      NOp   1
 RotChk:  IX=0 Diff= 1.52D-01
 Largest Abelian subgroup         C1      NOp   1
 Largest concise Abelian subgroup C1      NOp   1
                         Standard orientation:                         
 ---------------------------------------------------------------------
 Center     Atomic      Atomic             Coordinates (Angstroms)
 Number     Number       Type             X           Y           Z
 ---------------------------------------------------------------------
      1          6           0        1.675689   -1.093995    0.005086
      2          1           0        1.233356   -2.070392   -0.012073
      3          1           0        2.744397   -0.990043    0.028724
      4          6           0        0.920351   -0.031134   -0.011352
      5          6           0       -0.596965   -0.019476   -0.003876
      6          9           0       -1.073110    1.166453   -0.298098
      7          9           0       -1.074087   -0.890170   -0.881865
      8          9           0       -1.073697   -0.364674    1.185771
      9          9           0        1.446206    1.191509   -0.000896
 ---------------------------------------------------------------------
 Rotational constants (GHZ):           3.8171167           2.4496863           2.0027373
 Leave Link  202 at Thu Apr  2 13:29:10 2026, MaxMem=  2147483648 cpu:               0.1 elap:               0.0
 (Enter /Users/yarger/Applications/g16/l301.exe)
 Standard basis: 6-31+G(d) (6D, 7F)
 Ernie: Thresh=  0.10000D-02 Tol=  0.10000D-05 Strict=F.
 There are   137 symmetry adapted cartesian basis functions of A   symmetry.
 There are   137 symmetry adapted basis functions of A   symmetry.
   137 basis functions,   232 primitive gaussians,   137 cartesian basis functions
    28 alpha electrons       28 beta electrons
       nuclear repulsion energy       335.1420791854 Hartrees.
 IExCor=    0 DFT=F Ex=HF Corr=None ExCW=0 ScaHFX=  1.000000
 ScaDFX=  1.000000  1.000000  1.000000  1.000000 ScalE2=  1.000000  1.000000
 IRadAn=      5 IRanWt=     -1 IRanGd=            0 ICorTp=0 IEmpDi=  4
 NAtoms=    9 NActive=    9 NUniq=    9 SFac= 1.00D+00 NAtFMM=   60 NAOKFM=F Big=F
 Integral buffers will be    131072 words long.
 Raffenetti 1 integral format.
 Two-electron integral symmetry is turned on.
 Leave Link  301 at Thu Apr  2 13:29:10 2026, MaxMem=  2147483648 cpu:               0.1 elap:               0.0
 (Enter /Users/yarger/Applications/g16/l302.exe)
 NPDir=0 NMtPBC=     1 NCelOv=     1 NCel=       1 NClECP=     1 NCelD=      1
         NCelK=      1 NCelE2=     1 NClLst=     1 CellRange=     0.0.
 One-electron integrals computed using PRISM.
 One-electron integral symmetry used in STVInt
 NBasis=   137 RedAO= T EigKep=  5.94D-05  NBF=   137
 NBsUse=   137 1.00D-06 EigRej= -1.00D+00 NBFU=   137
 Leave Link  302 at Thu Apr  2 13:29:11 2026, MaxMem=  2147483648 cpu:               0.7 elap:               0.1
 (Enter /Users/yarger/Applications/g16/l303.exe)
 DipDrv:  MaxL=1.
 Leave Link  303 at Thu Apr  2 13:29:11 2026, MaxMem=  2147483648 cpu:               0.1 elap:               0.0
 (Enter /Users/yarger/Applications/g16/l401.exe)
 Initial guess from the checkpoint file:  "2223Tetrafluoropropene_Opt_Freq_HF_631pd_Gaussian16.chk"
 B after Tr=    -0.000000   -0.000000    0.000000
         Rot=    0.997059    0.076639   -0.000093   -0.000602 Ang=   8.79 deg.
 Guess basis will be translated and rotated to current coordinates.
 JPrj=2 DoOrth=T DoCkMO=T.
 Generating alternative initial guess.
 ExpMin= 4.38D-02 ExpMax= 7.00D+03 ExpMxC= 1.05D+03 IAcc=2 IRadAn=         4 AccDes= 0.00D+00
 Harris functional with IExCor=  205 and IRadAn=       4 diagonalized for initial guess.
 HarFok:  IExCor=  205 AccDes= 0.00D+00 IRadAn=         4 IDoV= 1 UseB2=F ITyADJ=14
 ICtDFT=  3500011 ScaDFX=  1.000000  1.000000  1.000000  1.000000
 FoFCou: FMM=F IPFlag=           0 FMFlag=      100000 FMFlg1=           0
         NFxFlg=           0 DoJE=T BraDBF=F KetDBF=T FulRan=T
         wScrn=  0.000000 ICntrl=       500 IOpCl=  0 I1Cent=   200000004 NGrid=           0
         NMat0=    1 NMatS0=      1 NMatT0=    0 NMatD0=    1 NMtDS0=    0 NMtDT0=    0
 Petite list used in FoFCou.
 Harris En= -512.528222438995    
 Leave Link  401 at Thu Apr  2 13:29:11 2026, MaxMem=  2147483648 cpu:               1.3 elap:               0.2
 (Enter /Users/yarger/Applications/g16/l502.exe)
 Keep R1 ints in memory in canonical form, NReq=46403126.
 FoFCou: FMM=F IPFlag=           0 FMFlag=           0 FMFlg1=           0
         NFxFlg=           0 DoJE=F BraDBF=F KetDBF=F FulRan=T
         wScrn=  0.000000 ICntrl=       600 IOpCl=  0 I1Cent=           0 NGrid=           0
         NMat0=    1 NMatS0=   9453 NMatT0=    0 NMatD0=    1 NMtDS0=    0 NMtDT0=    0
 Symmetry not used in FoFCou.
 Two-electron integral symmetry not used.
 Closed shell SCF:
 Using DIIS extrapolation, IDIIS=  1040.
 NGot=  2147483648 LenX=  2102759234 LenY=  2102740024
 Requested convergence on RMS density matrix=1.00D-08 within 128 cycles.
 Requested convergence on MAX density matrix=1.00D-06.
 Requested convergence on             energy=1.00D-06.
 No special actions if energy rises.

 Cycle   1  Pass 1  IDiag  1:
 E= -512.482033804891    
 DIIS: error= 9.31D-03 at cycle   1 NSaved=   1.
 NSaved= 1 IEnMin= 1 EnMin= -512.482033804891     IErMin= 1 ErrMin= 9.31D-03
 ErrMax= 9.31D-03  0.00D+00 EMaxC= 1.00D-01 BMatC= 2.01D-02 BMatP= 2.01D-02
 IDIUse=3 WtCom= 9.07D-01 WtEn= 9.31D-02
 Coeff-Com:  0.100D+01
 Coeff-En:   0.100D+01
 Coeff:      0.100D+01
 Gap=     0.993 Goal=   None    Shift=    0.000
 GapD=    0.993 DampG=2.000 DampE=1.000 DampFc=2.0000 IDamp=-1.
 RMSDP=2.03D-03 MaxDP=4.68D-02              OVMax= 4.09D-02

 Cycle   2  Pass 1  IDiag  1:
 E= -512.511425962577     Delta-E=       -0.029392157686 Rises=F Damp=F
 DIIS: error= 2.39D-03 at cycle   2 NSaved=   2.
 NSaved= 2 IEnMin= 2 EnMin= -512.511425962577     IErMin= 2 ErrMin= 2.39D-03
 ErrMax= 2.39D-03  0.00D+00 EMaxC= 1.00D-01 BMatC= 1.58D-03 BMatP= 2.01D-02
 IDIUse=3 WtCom= 9.76D-01 WtEn= 2.39D-02
 Coeff-Com: -0.284D+00 0.128D+01
 Coeff-En:   0.000D+00 0.100D+01
 Coeff:     -0.277D+00 0.128D+01
 Gap=     0.490 Goal=   None    Shift=    0.000
 RMSDP=5.12D-04 MaxDP=1.01D-02 DE=-2.94D-02 OVMax= 2.01D-02

 Cycle   3  Pass 1  IDiag  1:
 E= -512.515101723103     Delta-E=       -0.003675760526 Rises=F Damp=F
 DIIS: error= 6.29D-04 at cycle   3 NSaved=   3.
 NSaved= 3 IEnMin= 3 EnMin= -512.515101723103     IErMin= 3 ErrMin= 6.29D-04
 ErrMax= 6.29D-04  0.00D+00 EMaxC= 1.00D-01 BMatC= 1.06D-04 BMatP= 1.58D-03
 IDIUse=3 WtCom= 9.94D-01 WtEn= 6.29D-03
 Coeff-Com: -0.335D-01 0.119D-01 0.102D+01
 Coeff-En:   0.000D+00 0.000D+00 0.100D+01
 Coeff:     -0.333D-01 0.118D-01 0.102D+01
 Gap=     0.491 Goal=   None    Shift=    0.000
 RMSDP=1.76D-04 MaxDP=4.78D-03 DE=-3.68D-03 OVMax= 5.96D-03

 Cycle   4  Pass 1  IDiag  1:
 E= -512.515335108005     Delta-E=       -0.000233384902 Rises=F Damp=F
 DIIS: error= 2.54D-04 at cycle   4 NSaved=   4.
 NSaved= 4 IEnMin= 4 EnMin= -512.515335108005     IErMin= 4 ErrMin= 2.54D-04
 ErrMax= 2.54D-04  0.00D+00 EMaxC= 1.00D-01 BMatC= 2.46D-05 BMatP= 1.06D-04
 IDIUse=3 WtCom= 9.97D-01 WtEn= 2.54D-03
 Coeff-Com:  0.367D-01-0.199D+00 0.249D+00 0.914D+00
 Coeff-En:   0.000D+00 0.000D+00 0.000D+00 0.100D+01
 Coeff:      0.366D-01-0.199D+00 0.248D+00 0.914D+00
 Gap=     0.491 Goal=   None    Shift=    0.000
 RMSDP=9.39D-05 MaxDP=2.86D-03 DE=-2.33D-04 OVMax= 2.96D-03

 Cycle   5  Pass 1  IDiag  1:
 E= -512.515379419720     Delta-E=       -0.000044311715 Rises=F Damp=F
 DIIS: error= 9.08D-05 at cycle   5 NSaved=   5.
 NSaved= 5 IEnMin= 5 EnMin= -512.515379419720     IErMin= 5 ErrMin= 9.08D-05
 ErrMax= 9.08D-05  0.00D+00 EMaxC= 1.00D-01 BMatC= 1.49D-06 BMatP= 2.46D-05
 IDIUse=1 WtCom= 1.00D+00 WtEn= 0.00D+00
 Coeff-Com: -0.138D-02 0.242D-01-0.129D+00-0.113D+00 0.122D+01
 Coeff:     -0.138D-02 0.242D-01-0.129D+00-0.113D+00 0.122D+01
 Gap=     0.491 Goal=   None    Shift=    0.000
 RMSDP=3.44D-05 MaxDP=9.50D-04 DE=-4.43D-05 OVMax= 1.16D-03

 Cycle   6  Pass 1  IDiag  1:
 E= -512.515384032121     Delta-E=       -0.000004612401 Rises=F Damp=F
 DIIS: error= 2.23D-05 at cycle   6 NSaved=   6.
 NSaved= 6 IEnMin= 6 EnMin= -512.515384032121     IErMin= 6 ErrMin= 2.23D-05
 ErrMax= 2.23D-05  0.00D+00 EMaxC= 1.00D-01 BMatC= 1.01D-07 BMatP= 1.49D-06
 IDIUse=1 WtCom= 1.00D+00 WtEn= 0.00D+00
 Coeff-Com: -0.311D-02 0.161D-01-0.111D-01-0.737D-01-0.955D-01 0.117D+01
 Coeff:     -0.311D-02 0.161D-01-0.111D-01-0.737D-01-0.955D-01 0.117D+01
 Gap=     0.491 Goal=   None    Shift=    0.000
 RMSDP=9.14D-06 MaxDP=2.10D-04 DE=-4.61D-06 OVMax= 2.99D-04

 Cycle   7  Pass 1  IDiag  1:
 E= -512.515384341840     Delta-E=       -0.000000309718 Rises=F Damp=F
 DIIS: error= 6.79D-06 at cycle   7 NSaved=   7.
 NSaved= 7 IEnMin= 7 EnMin= -512.515384341840     IErMin= 7 ErrMin= 6.79D-06
 ErrMax= 6.79D-06  0.00D+00 EMaxC= 1.00D-01 BMatC= 7.49D-09 BMatP= 1.01D-07
 IDIUse=1 WtCom= 1.00D+00 WtEn= 0.00D+00
 Coeff-Com:  0.213D-03-0.206D-02 0.804D-02 0.871D-02-0.643D-01-0.435D-01
 Coeff-Com:  0.109D+01
 Coeff:      0.213D-03-0.206D-02 0.804D-02 0.871D-02-0.643D-01-0.435D-01
 Coeff:      0.109D+01
 Gap=     0.491 Goal=   None    Shift=    0.000
 RMSDP=2.54D-06 MaxDP=7.91D-05 DE=-3.10D-07 OVMax= 5.24D-05

 Cycle   8  Pass 1  IDiag  1:
 E= -512.515384358776     Delta-E=       -0.000000016936 Rises=F Damp=F
 DIIS: error= 2.43D-06 at cycle   8 NSaved=   8.
 NSaved= 8 IEnMin= 8 EnMin= -512.515384358776     IErMin= 8 ErrMin= 2.43D-06
 ErrMax= 2.43D-06  0.00D+00 EMaxC= 1.00D-01 BMatC= 1.41D-09 BMatP= 7.49D-09
 IDIUse=1 WtCom= 1.00D+00 WtEn= 0.00D+00
 Coeff-Com:  0.449D-03-0.253D-02 0.336D-02 0.113D-01-0.427D-02-0.152D+00
 Coeff-Com:  0.237D+00 0.907D+00
 Coeff:      0.449D-03-0.253D-02 0.336D-02 0.113D-01-0.427D-02-0.152D+00
 Coeff:      0.237D+00 0.907D+00
 Gap=     0.491 Goal=   None    Shift=    0.000
 RMSDP=1.07D-06 MaxDP=3.39D-05 DE=-1.69D-08 OVMax= 1.50D-05

 Cycle   9  Pass 1  IDiag  1:
 E= -512.515384361039     Delta-E=       -0.000000002264 Rises=F Damp=F
 DIIS: error= 7.17D-07 at cycle   9 NSaved=   9.
 NSaved= 9 IEnMin= 9 EnMin= -512.515384361039     IErMin= 9 ErrMin= 7.17D-07
 ErrMax= 7.17D-07  0.00D+00 EMaxC= 1.00D-01 BMatC= 1.04D-10 BMatP= 1.41D-09
 IDIUse=1 WtCom= 1.00D+00 WtEn= 0.00D+00
 Coeff-Com: -0.495D-04 0.380D-03-0.111D-02-0.148D-02 0.749D-02 0.150D-01
 Coeff-Com: -0.153D+00-0.477D-01 0.118D+01
 Coeff:     -0.495D-04 0.380D-03-0.111D-02-0.148D-02 0.749D-02 0.150D-01
 Coeff:     -0.153D+00-0.477D-01 0.118D+01
 Gap=     0.491 Goal=   None    Shift=    0.000
 RMSDP=4.58D-07 MaxDP=1.64D-05 DE=-2.26D-09 OVMax= 5.57D-06

 Cycle  10  Pass 1  IDiag  1:
 E= -512.515384361296     Delta-E=       -0.000000000257 Rises=F Damp=F
 DIIS: error= 1.17D-07 at cycle  10 NSaved=  10.
 NSaved=10 IEnMin=10 EnMin= -512.515384361296     IErMin=10 ErrMin= 1.17D-07
 ErrMax= 1.17D-07  0.00D+00 EMaxC= 1.00D-01 BMatC= 4.01D-12 BMatP= 1.04D-10
 IDIUse=1 WtCom= 1.00D+00 WtEn= 0.00D+00
 Coeff-Com: -0.189D-04 0.988D-04-0.859D-04-0.488D-03-0.332D-03 0.748D-02
 Coeff-Com: -0.414D-02-0.446D-01-0.564D-01 0.110D+01
 Coeff:     -0.189D-04 0.988D-04-0.859D-04-0.488D-03-0.332D-03 0.748D-02
 Coeff:     -0.414D-02-0.446D-01-0.564D-01 0.110D+01
 Gap=     0.491 Goal=   None    Shift=    0.000
 RMSDP=5.16D-08 MaxDP=1.42D-06 DE=-2.57D-10 OVMax= 1.14D-06

 Cycle  11  Pass 1  IDiag  1:
 E= -512.515384361305     Delta-E=       -0.000000000009 Rises=F Damp=F
 DIIS: error= 3.10D-08 at cycle  11 NSaved=  11.
 NSaved=11 IEnMin=11 EnMin= -512.515384361305     IErMin=11 ErrMin= 3.10D-08
 ErrMax= 3.10D-08  0.00D+00 EMaxC= 1.00D-01 BMatC= 3.88D-13 BMatP= 4.01D-12
 IDIUse=1 WtCom= 1.00D+00 WtEn= 0.00D+00
 Coeff-Com:  0.773D-06-0.130D-04 0.714D-04 0.268D-04-0.634D-03 0.147D-03
 Coeff-Com:  0.107D-01-0.406D-02-0.941D-01 0.162D+00 0.926D+00
 Coeff:      0.773D-06-0.130D-04 0.714D-04 0.268D-04-0.634D-03 0.147D-03
 Coeff:      0.107D-01-0.406D-02-0.941D-01 0.162D+00 0.926D+00
 Gap=     0.491 Goal=   None    Shift=    0.000
 RMSDP=1.40D-08 MaxDP=3.91D-07 DE=-8.87D-12 OVMax= 2.66D-07

 Cycle  12  Pass 1  IDiag  1:
 E= -512.515384361303     Delta-E=        0.000000000002 Rises=F Damp=F
 DIIS: error= 1.31D-08 at cycle  12 NSaved=  12.
 NSaved=12 IEnMin=11 EnMin= -512.515384361305     IErMin=12 ErrMin= 1.31D-08
 ErrMax= 1.31D-08  0.00D+00 EMaxC= 1.00D-01 BMatC= 2.36D-14 BMatP= 3.88D-13
 IDIUse=1 WtCom= 1.00D+00 WtEn= 0.00D+00
 Coeff-Com:  0.136D-05-0.714D-05 0.766D-05 0.360D-04 0.824D-05-0.501D-03
 Coeff-Com:  0.188D-03 0.305D-02 0.514D-02-0.785D-01-0.246D-01 0.110D+01
 Coeff:      0.136D-05-0.714D-05 0.766D-05 0.360D-04 0.824D-05-0.501D-03
 Coeff:      0.188D-03 0.305D-02 0.514D-02-0.785D-01-0.246D-01 0.110D+01
 Gap=     0.491 Goal=   None    Shift=    0.000
 RMSDP=5.17D-09 MaxDP=1.81D-07 DE= 2.27D-12 OVMax= 7.08D-08

 SCF Done:  E(RHF) =  -512.515384361     A.U. after   12 cycles
            NFock= 12  Conv=0.52D-08     -V/T= 2.0024
 KE= 5.112958840713D+02 PE=-1.888256737223D+03 EE= 5.293033896054D+02
 Leave Link  502 at Thu Apr  2 13:29:12 2026, MaxMem=  2147483648 cpu:               3.2 elap:               0.7
 (Enter /Users/yarger/Applications/g16/l701.exe)
 ... and contract with generalized density number  0.
 Compute integral first derivatives.
 Leave Link  701 at Thu Apr  2 13:29:12 2026, MaxMem=  2147483648 cpu:               0.5 elap:               0.1
 (Enter /Users/yarger/Applications/g16/l702.exe)
 L702 exits ... SP integral derivatives will be done elsewhere.
 Leave Link  702 at Thu Apr  2 13:29:12 2026, MaxMem=  2147483648 cpu:               0.1 elap:               0.0
 (Enter /Users/yarger/Applications/g16/l703.exe)
 Integral derivatives from FoFJK, PRISM(SPDF).
 Compute integral first derivatives, UseDBF=F ICtDFT=           0.
 Calling FoFJK, ICntrl=      2127 FMM=F ISym2X=0 I1Cent= 0 IOpClX= 0 NMat=1 NMatS=1 NMatT=0.
 FoFJK:  IHMeth= 1 ICntrl=    2127 DoSepK=F KAlg= 0 I1Cent=           0 FoldK=F
 IRaf=         0 NMat=       1 IRICut=       1 DoRegI=T DoRafI=F ISym2E= 0 IDoP0=0 IntGTp=1.
 FoFCou: FMM=F IPFlag=           0 FMFlag=      100000 FMFlg1=         800
         NFxFlg=           0 DoJE=F BraDBF=F KetDBF=F FulRan=T
         wScrn=  0.000000 ICntrl=      2127 IOpCl=  0 I1Cent=           0 NGrid=           0
         NMat0=    1 NMatS0=      1 NMatT0=    0 NMatD0=    1 NMtDS0=    0 NMtDT0=    0
 Symmetry not used in FoFCou.
 Leave Link  703 at Thu Apr  2 13:29:12 2026, MaxMem=  2147483648 cpu:               3.2 elap:               0.4
 (Enter /Users/yarger/Applications/g16/l716.exe)
 Dipole        = 6.52534804D-01-6.64752049D-01-1.12232670D-02
 ***** Axes restored to original set *****
 -------------------------------------------------------------------
 Center     Atomic                   Forces (Hartrees/Bohr)
 Number     Number              X              Y              Z
 -------------------------------------------------------------------
      1        6           0.000766399    0.003459602    0.001823022
      2        1           0.001175206    0.000797134   -0.000178370
      3        1          -0.000625060    0.001829206    0.000329619
      4        6          -0.000158470   -0.009523275   -0.001449698
      5        6           0.002141731    0.004294416   -0.000462578
      6        9           0.000107227   -0.000525620    0.000996294
      7        9           0.000240920   -0.001381624   -0.003346039
      8        9           0.000793198   -0.001773635    0.003189552
      9        9          -0.004441152    0.002823796   -0.000901803
 -------------------------------------------------------------------
 Cartesian Forces:  Max     0.009523275 RMS     0.002685615
 Leave Link  716 at Thu Apr  2 13:29:12 2026, MaxMem=  2147483648 cpu:               0.1 elap:               0.0
 (Enter /Users/yarger/Applications/g16/l103.exe)

 GradGradGradGradGradGradGradGradGradGradGradGradGradGradGradGradGradGrad
 Berny optimization.
 Using GEDIIS/GDIIS optimizer.
 FormGI is forming the generalized inverse of G from B-inverse, IUseBI=4.
 Internal  Forces:  Max     0.005767341 RMS     0.002186989
 Search for a local minimum.
 Step number  10 out of a maximum of   40
 All quantities printed in internal units (Hartrees-Bohrs-Radians)
 RMS Force = .21870D-02 SwitMx=.10000D-02 MixMth= 1
 Mixed Optimization -- RFO/linear search
 Update second derivatives using D2CorX and points    9   10
 ITU=  0  0  0  0  0  1  1  1  1  0
 Use linear search instead of GDIIS.
     Eigenvalues ---   -0.01217   0.01629   0.02169   0.03045   0.03385
     Eigenvalues ---    0.10801   0.13403   0.17452   0.17821   0.24118
     Eigenvalues ---    0.24920   0.25444   0.28371   0.35278   0.36991
     Eigenvalues ---    0.43024   0.49548   0.56499   0.59099   0.61091
     Eigenvalues ---    0.74589
 Eigenvalue     1 is  -1.22D-02 should be greater than     0.000000 Eigenvector:
                          D10       D8        D7        D9        D5
   1                    0.39011   0.37421   0.37305   0.36090   0.35715
                          D6        A5        A4        A1        A3
   1                    0.34384   0.23286  -0.18142  -0.16727   0.15858
 RFO step:  Lambda=-1.50571343D-02 EMin=-1.21695157D-02
 Skip linear search -- no minimum in search direction.
 Maximum step size (   0.505) exceeded in Quadratic search.
    -- Step size scaled by   0.832
 Iteration  1 RMS(Cart)=  0.17548274 RMS(Int)=  0.04080028
 Iteration  2 RMS(Cart)=  0.05556831 RMS(Int)=  0.00162627
 Iteration  3 RMS(Cart)=  0.00151942 RMS(Int)=  0.00101137
 Iteration  4 RMS(Cart)=  0.00000190 RMS(Int)=  0.00101137
 Iteration  5 RMS(Cart)=  0.00000000 RMS(Int)=  0.00101137
 ITry= 1 IFail=0 DXMaxC= 4.52D-01 DCOld= 1.00D+10 DXMaxT= 5.05D-01 DXLimC= 3.00D+00 Rises=F
 Variable       Old X    -DE/DX   Delta X   Delta X   Delta X     New X
                                 (Linear)    (Quad)   (Total)
    R1        2.02589   0.00025   0.00000   0.01345   0.01345   2.03934
    R2        2.02959  -0.00085   0.00000  -0.01921  -0.01921   2.01038
    R3        2.46425   0.00577   0.00000   0.08921   0.08921   2.55346
    R4        2.86743  -0.00327   0.00000  -0.07067  -0.07067   2.79676
    R5        2.51517  -0.00415   0.00000  -0.14700  -0.14700   2.36818
    R6        2.47814   0.00057   0.00000   0.04222   0.04222   2.52036
    R7        2.50460  -0.00336   0.00000  -0.07692  -0.07692   2.42768
    R8        2.50821  -0.00367   0.00000  -0.07930  -0.07930   2.42891
    A1        2.09332  -0.00213   0.00000  -0.18970  -0.18976   1.90356
    A2        2.09802   0.00069   0.00000   0.01065   0.01059   2.10861
    A3        2.09182   0.00144   0.00000   0.17920   0.17914   2.27095
    A4        2.19618  -0.00234   0.00000  -0.20752  -0.20752   1.98867
    A5        2.11738   0.00508   0.00000   0.26724   0.26713   2.38451
    A6        1.96923  -0.00274   0.00000  -0.06003  -0.05999   1.90924
    A7        1.94864  -0.00100   0.00000  -0.05779  -0.05675   1.89189
    A8        1.93014   0.00154   0.00000   0.07295   0.07187   2.00202
    A9        1.94076   0.00088   0.00000   0.05857   0.05737   1.99813
   A10        1.89100  -0.00034   0.00000  -0.02124  -0.02020   1.87080
   A11        1.88166   0.00003   0.00000  -0.01363  -0.01282   1.86884
   A12        1.86878  -0.00117   0.00000  -0.04205  -0.04477   1.82401
    D1        0.04104  -0.00014   0.00000  -0.02885  -0.02777   0.01328
    D2       -3.13260  -0.00024   0.00000  -0.04268  -0.04375   3.10684
    D3       -3.10827  -0.00004   0.00000  -0.00788  -0.00680  -3.11507
    D4        0.00128  -0.00014   0.00000  -0.02171  -0.02279  -0.02151
    D5       -2.91488   0.00092   0.00000   0.27386   0.27494  -2.63995
    D6       -0.80790   0.00087   0.00000   0.25800   0.25758  -0.55032
    D7        1.26591   0.00097   0.00000   0.29040   0.29270   1.55861
    D8        0.25641   0.00089   0.00000   0.28110   0.28020   0.53661
    D9        2.36339   0.00084   0.00000   0.26523   0.26284   2.62624
   D10       -1.84598   0.00094   0.00000   0.29764   0.29796  -1.54801
         Item               Value     Threshold  Converged?
 Maximum Force            0.005767     0.000015     NO 
 RMS     Force            0.002187     0.000010     NO 
 Maximum Displacement     0.451827     0.000060     NO 
 RMS     Displacement     0.217683     0.000040     NO 
 Predicted change in Energy=-1.032775D-02
 Lowest energy point so far.  Saving SCF results.
 GradGradGradGradGradGradGradGradGradGradGradGradGradGradGradGradGradGrad

 Leave Link  103 at Thu Apr  2 13:29:12 2026, MaxMem=  2147483648 cpu:               0.1 elap:               0.0
 (Enter /Users/yarger/Applications/g16/l202.exe)
                          Input orientation:                          
 ---------------------------------------------------------------------
 Center     Atomic      Atomic             Coordinates (Angstroms)
 Number     Number       Type             X           Y           Z
 ---------------------------------------------------------------------
      1          6           0        1.697664    1.013505    0.107190
      2          1           0        1.202109    1.947946    0.321343
      3          1           0        2.749344    1.173261    0.092492
      4          6           0        0.985403   -0.114994   -0.104964
      5          6           0       -0.480208    0.076986   -0.030972
      6          9           0       -1.034869   -1.067365    0.371048
      7          9           0       -0.861364    0.991504    0.786804
      8          9           0       -1.033148    0.392637   -1.147521
      9          9           0        1.234588   -1.308314   -0.395425
 ---------------------------------------------------------------------
                    Distance matrix (angstroms):
                    1          2          3          4          5
     1  C    0.000000
     2  H    1.079174   0.000000
     3  H    1.063846   1.745407   0.000000
     4  C    1.351234   2.117644   2.193188   0.000000
     5  C    2.374718   2.540632   3.412780   1.479983   0.000000
     6  F    3.444761   3.754816   4.406616   2.283659   1.333720
     7  F    2.647826   2.321499   3.681347   2.330265   1.284671
     8  F    3.068731   3.094013   4.056384   2.327909   1.285325
     9  F    2.420311   3.334372   2.948010   1.253186   2.234370
                    6          7          8          9
     6  F    0.000000
     7  F    2.107582   0.000000
     8  F    2.106576   2.032182   0.000000
     9  F    2.407482   3.328640   2.932833   0.000000
 Stoichiometry    C3H2F4
 Framework group  C1[X(C3H2F4)]
 Deg. of freedom    21
 Full point group                 C1      NOp   1
 RotChk:  IX=3 Diff= 1.26D-01
 Largest Abelian subgroup         C1      NOp   1
 Largest concise Abelian subgroup C1      NOp   1
                         Standard orientation:                         
 ---------------------------------------------------------------------
 Center     Atomic      Atomic             Coordinates (Angstroms)
 Number     Number       Type             X           Y           Z
 ---------------------------------------------------------------------
      1          6           0        1.607480   -1.111335   -0.023617
      2          1           0        1.061537   -2.042074   -0.040573
      3          1           0        2.650526   -1.320409   -0.012977
      4          6           0        0.956625    0.072692   -0.006285
      5          6           0       -0.517997   -0.052651    0.004977
      6          9           0       -1.036452    1.023354   -0.588509
      7          9           0       -0.974033   -1.083174   -0.611816
      8          9           0       -1.037632   -0.123630    1.178434
      9          9           0        1.271595    1.284589    0.044459
 ---------------------------------------------------------------------
 Rotational constants (GHZ):           3.7859603           2.7457477           2.1296638
 Leave Link  202 at Thu Apr  2 13:29:12 2026, MaxMem=  2147483648 cpu:               0.0 elap:               0.0
 (Enter /Users/yarger/Applications/g16/l301.exe)
 Standard basis: 6-31+G(d) (6D, 7F)
 Ernie: Thresh=  0.10000D-02 Tol=  0.10000D-05 Strict=F.
 There are   137 symmetry adapted cartesian basis functions of A   symmetry.
 There are   137 symmetry adapted basis functions of A   symmetry.
   137 basis functions,   232 primitive gaussians,   137 cartesian basis functions
    28 alpha electrons       28 beta electrons
       nuclear repulsion energy       343.6245384339 Hartrees.
 IExCor=    0 DFT=F Ex=HF Corr=None ExCW=0 ScaHFX=  1.000000
 ScaDFX=  1.000000  1.000000  1.000000  1.000000 ScalE2=  1.000000  1.000000
 IRadAn=      5 IRanWt=     -1 IRanGd=            0 ICorTp=0 IEmpDi=  4
 NAtoms=    9 NActive=    9 NUniq=    9 SFac= 1.00D+00 NAtFMM=   60 NAOKFM=F Big=F
 Integral buffers will be    131072 words long.
 Raffenetti 1 integral format.
 Two-electron integral symmetry is turned on.
 Leave Link  301 at Thu Apr  2 13:29:12 2026, MaxMem=  2147483648 cpu:               0.2 elap:               0.0
 (Enter /Users/yarger/Applications/g16/l302.exe)
 NPDir=0 NMtPBC=     1 NCelOv=     1 NCel=       1 NClECP=     1 NCelD=      1
         NCelK=      1 NCelE2=     1 NClLst=     1 CellRange=     0.0.
 One-electron integrals computed using PRISM.
 One-electron integral symmetry used in STVInt
 NBasis=   137 RedAO= T EigKep=  9.00D-05  NBF=   137
 NBsUse=   137 1.00D-06 EigRej= -1.00D+00 NBFU=   137
 Leave Link  302 at Thu Apr  2 13:29:12 2026, MaxMem=  2147483648 cpu:               0.7 elap:               0.1
 (Enter /Users/yarger/Applications/g16/l303.exe)
 DipDrv:  MaxL=1.
 Leave Link  303 at Thu Apr  2 13:29:13 2026, MaxMem=  2147483648 cpu:               0.1 elap:               0.0
 (Enter /Users/yarger/Applications/g16/l401.exe)
 Initial guess from the checkpoint file:  "2223Tetrafluoropropene_Opt_Freq_HF_631pd_Gaussian16.chk"
 B after Tr=     0.000000   -0.000000   -0.000000
         Rot=    0.997625    0.067422    0.004838   -0.013246 Ang=   7.90 deg.
 Guess basis will be translated and rotated to current coordinates.
 JPrj=2 DoOrth=T DoCkMO=T.
 Generating alternative initial guess.
 ExpMin= 4.38D-02 ExpMax= 7.00D+03 ExpMxC= 1.05D+03 IAcc=2 IRadAn=         4 AccDes= 0.00D+00
 Harris functional with IExCor=  205 and IRadAn=       4 diagonalized for initial guess.
 HarFok:  IExCor=  205 AccDes= 0.00D+00 IRadAn=         4 IDoV= 1 UseB2=F ITyADJ=14
 ICtDFT=  3500011 ScaDFX=  1.000000  1.000000  1.000000  1.000000
 FoFCou: FMM=F IPFlag=           0 FMFlag=      100000 FMFlg1=           0
         NFxFlg=           0 DoJE=T BraDBF=F KetDBF=T FulRan=T
         wScrn=  0.000000 ICntrl=       500 IOpCl=  0 I1Cent=   200000004 NGrid=           0
         NMat0=    1 NMatS0=      1 NMatT0=    0 NMatD0=    1 NMtDS0=    0 NMtDT0=    0
 Petite list used in FoFCou.
 Harris En= -512.498574894024    
 Leave Link  401 at Thu Apr  2 13:29:13 2026, MaxMem=  2147483648 cpu:               1.3 elap:               0.2
 (Enter /Users/yarger/Applications/g16/l502.exe)
 Keep R1 ints in memory in canonical form, NReq=46403673.
 FoFCou: FMM=F IPFlag=           0 FMFlag=           0 FMFlg1=           0
         NFxFlg=           0 DoJE=F BraDBF=F KetDBF=F FulRan=T
         wScrn=  0.000000 ICntrl=       600 IOpCl=  0 I1Cent=           0 NGrid=           0
         NMat0=    1 NMatS0=   9453 NMatT0=    0 NMatD0=    1 NMtDS0=    0 NMtDT0=    0
 Symmetry not used in FoFCou.
 Two-electron integral symmetry not used.
 Closed shell SCF:
 Using DIIS extrapolation, IDIIS=  1040.
 NGot=  2147483648 LenX=  2102759234 LenY=  2102740024
 Requested convergence on RMS density matrix=1.00D-08 within 128 cycles.
 Requested convergence on MAX density matrix=1.00D-06.
 Requested convergence on             energy=1.00D-06.
 No special actions if energy rises.

 Cycle   1  Pass 1  IDiag  1:
 E= -512.416492541199    
 DIIS: error= 9.14D-03 at cycle   1 NSaved=   1.
 NSaved= 1 IEnMin= 1 EnMin= -512.416492541199     IErMin= 1 ErrMin= 9.14D-03
 ErrMax= 9.14D-03  0.00D+00 EMaxC= 1.00D-01 BMatC= 5.10D-02 BMatP= 5.10D-02
 IDIUse=3 WtCom= 9.09D-01 WtEn= 9.14D-02
 Coeff-Com:  0.100D+01
 Coeff-En:   0.100D+01
 Coeff:      0.100D+01
 Gap=     1.006 Goal=   None    Shift=    0.000
 GapD=    1.006 DampG=2.000 DampE=1.000 DampFc=2.0000 IDamp=-1.
 RMSDP=3.39D-03 MaxDP=1.06D-01              OVMax= 4.84D-02

 Cycle   2  Pass 1  IDiag  1:
 E= -512.484633578142     Delta-E=       -0.068141036942 Rises=F Damp=F
 DIIS: error= 2.55D-03 at cycle   2 NSaved=   2.
 NSaved= 2 IEnMin= 2 EnMin= -512.484633578142     IErMin= 2 ErrMin= 2.55D-03
 ErrMax= 2.55D-03  0.00D+00 EMaxC= 1.00D-01 BMatC= 3.60D-03 BMatP= 5.10D-02
 IDIUse=3 WtCom= 9.74D-01 WtEn= 2.55D-02
 Coeff-Com: -0.237D+00 0.124D+01
 Coeff-En:   0.000D+00 0.100D+01
 Coeff:     -0.231D+00 0.123D+01
 Gap=     0.476 Goal=   None    Shift=    0.000
 RMSDP=8.95D-04 MaxDP=1.37D-02 DE=-6.81D-02 OVMax= 2.26D-02

 Cycle   3  Pass 1  IDiag  1:
 E= -512.491440453712     Delta-E=       -0.006806875571 Rises=F Damp=F
 DIIS: error= 7.73D-04 at cycle   3 NSaved=   3.
 NSaved= 3 IEnMin= 3 EnMin= -512.491440453712     IErMin= 3 ErrMin= 7.73D-04
 ErrMax= 7.73D-04  0.00D+00 EMaxC= 1.00D-01 BMatC= 3.33D-04 BMatP= 3.60D-03
 IDIUse=3 WtCom= 9.92D-01 WtEn= 7.73D-03
 Coeff-Com: -0.728D-01 0.200D+00 0.873D+00
 Coeff-En:   0.000D+00 0.000D+00 0.100D+01
 Coeff:     -0.723D-01 0.198D+00 0.874D+00
 Gap=     0.475 Goal=   None    Shift=    0.000
 RMSDP=2.31D-04 MaxDP=4.67D-03 DE=-6.81D-03 OVMax= 5.59D-03

 Cycle   4  Pass 1  IDiag  1:
 E= -512.491888338031     Delta-E=       -0.000447884319 Rises=F Damp=F
 DIIS: error= 4.08D-04 at cycle   4 NSaved=   4.
 NSaved= 4 IEnMin= 4 EnMin= -512.491888338031     IErMin= 4 ErrMin= 4.08D-04
 ErrMax= 4.08D-04  0.00D+00 EMaxC= 1.00D-01 BMatC= 4.53D-05 BMatP= 3.33D-04
 IDIUse=3 WtCom= 9.96D-01 WtEn= 4.08D-03
 Coeff-Com:  0.226D-01-0.140D+00 0.117D+00 0.100D+01
 Coeff-En:   0.000D+00 0.000D+00 0.000D+00 0.100D+01
 Coeff:      0.225D-01-0.140D+00 0.117D+00 0.100D+01
 Gap=     0.475 Goal=   None    Shift=    0.000
 RMSDP=1.24D-04 MaxDP=2.96D-03 DE=-4.48D-04 OVMax= 3.01D-03

 Cycle   5  Pass 1  IDiag  1:
 E= -512.491970475340     Delta-E=       -0.000082137309 Rises=F Damp=F
 DIIS: error= 1.30D-04 at cycle   5 NSaved=   5.
 NSaved= 5 IEnMin= 5 EnMin= -512.491970475340     IErMin= 5 ErrMin= 1.30D-04
 ErrMax= 1.30D-04  0.00D+00 EMaxC= 1.00D-01 BMatC= 3.25D-06 BMatP= 4.53D-05
 IDIUse=3 WtCom= 9.99D-01 WtEn= 1.30D-03
 Coeff-Com:  0.427D-02-0.100D-01-0.675D-01-0.141D-01 0.109D+01
 Coeff-En:   0.000D+00 0.000D+00 0.000D+00 0.000D+00 0.100D+01
 Coeff:      0.426D-02-0.100D-01-0.674D-01-0.141D-01 0.109D+01
 Gap=     0.475 Goal=   None    Shift=    0.000
 RMSDP=3.97D-05 MaxDP=9.00D-04 DE=-8.21D-05 OVMax= 1.16D-03

 Cycle   6  Pass 1  IDiag  1:
 E= -512.491979093499     Delta-E=       -0.000008618159 Rises=F Damp=F
 DIIS: error= 4.12D-05 at cycle   6 NSaved=   6.
 NSaved= 6 IEnMin= 6 EnMin= -512.491979093499     IErMin= 6 ErrMin= 4.12D-05
 ErrMax= 4.12D-05  0.00D+00 EMaxC= 1.00D-01 BMatC= 4.23D-07 BMatP= 3.25D-06
 IDIUse=1 WtCom= 1.00D+00 WtEn= 0.00D+00
 Coeff-Com: -0.267D-02 0.179D-01-0.183D-01-0.123D+00-0.147D-01 0.114D+01
 Coeff:     -0.267D-02 0.179D-01-0.183D-01-0.123D+00-0.147D-01 0.114D+01
 Gap=     0.475 Goal=   None    Shift=    0.000
 RMSDP=1.61D-05 MaxDP=3.06D-04 DE=-8.62D-06 OVMax= 5.37D-04

 Cycle   7  Pass 1  IDiag  1:
 E= -512.491980409631     Delta-E=       -0.000001316132 Rises=F Damp=F
 DIIS: error= 1.40D-05 at cycle   7 NSaved=   7.
 NSaved= 7 IEnMin= 7 EnMin= -512.491980409631     IErMin= 7 ErrMin= 1.40D-05
 ErrMax= 1.40D-05  0.00D+00 EMaxC= 1.00D-01 BMatC= 3.44D-08 BMatP= 4.23D-07
 IDIUse=1 WtCom= 1.00D+00 WtEn= 0.00D+00
 Coeff-Com: -0.241D-03-0.159D-03 0.753D-02 0.112D-01-0.108D+00-0.689D-01
 Coeff-Com:  0.116D+01
 Coeff:     -0.241D-03-0.159D-03 0.753D-02 0.112D-01-0.108D+00-0.689D-01
 Coeff:      0.116D+01
 Gap=     0.475 Goal=   None    Shift=    0.000
 RMSDP=5.48D-06 MaxDP=1.14D-04 DE=-1.32D-06 OVMax= 1.52D-04

 Cycle   8  Pass 1  IDiag  1:
 E= -512.491980512048     Delta-E=       -0.000000102417 Rises=F Damp=F
 DIIS: error= 4.04D-06 at cycle   8 NSaved=   8.
 NSaved= 8 IEnMin= 8 EnMin= -512.491980512048     IErMin= 8 ErrMin= 4.04D-06
 ErrMax= 4.04D-06  0.00D+00 EMaxC= 1.00D-01 BMatC= 3.25D-09 BMatP= 3.44D-08
 IDIUse=1 WtCom= 1.00D+00 WtEn= 0.00D+00
 Coeff-Com:  0.199D-03-0.143D-02 0.210D-02 0.109D-01-0.106D-01-0.889D-01
 Coeff-Com:  0.108D+00 0.979D+00
 Coeff:      0.199D-03-0.143D-02 0.210D-02 0.109D-01-0.106D-01-0.889D-01
 Coeff:      0.108D+00 0.979D+00
 Gap=     0.475 Goal=   None    Shift=    0.000
 RMSDP=1.67D-06 MaxDP=4.16D-05 DE=-1.02D-07 OVMax= 3.56D-05

 Cycle   9  Pass 1  IDiag  1:
 E= -512.491980518685     Delta-E=       -0.000000006637 Rises=F Damp=F
 DIIS: error= 1.39D-06 at cycle   9 NSaved=   9.
 NSaved= 9 IEnMin= 9 EnMin= -512.491980518685     IErMin= 9 ErrMin= 1.39D-06
 ErrMax= 1.39D-06  0.00D+00 EMaxC= 1.00D-01 BMatC= 5.19D-10 BMatP= 3.25D-09
 IDIUse=1 WtCom= 1.00D+00 WtEn= 0.00D+00
 Coeff-Com:  0.578D-04-0.172D-03-0.748D-03-0.241D-04 0.133D-01-0.167D-02
 Coeff-Com: -0.160D+00 0.170D+00 0.979D+00
 Coeff:      0.578D-04-0.172D-03-0.748D-03-0.241D-04 0.133D-01-0.167D-02
 Coeff:     -0.160D+00 0.170D+00 0.979D+00
 Gap=     0.475 Goal=   None    Shift=    0.000
 RMSDP=6.97D-07 MaxDP=2.07D-05 DE=-6.64D-09 OVMax= 1.25D-05

 Cycle  10  Pass 1  IDiag  1:
 E= -512.491980519571     Delta-E=       -0.000000000885 Rises=F Damp=F
 DIIS: error= 3.21D-07 at cycle  10 NSaved=  10.
 NSaved=10 IEnMin=10 EnMin= -512.491980519571     IErMin=10 ErrMin= 3.21D-07
 ErrMax= 3.21D-07  0.00D+00 EMaxC= 1.00D-01 BMatC= 2.19D-11 BMatP= 5.19D-10
 IDIUse=1 WtCom= 1.00D+00 WtEn= 0.00D+00
 Coeff-Com: -0.182D-04 0.117D-03-0.114D-03-0.770D-03-0.888D-04 0.708D-02
 Coeff-Com:  0.182D-02-0.766D-01-0.830D-01 0.115D+01
 Coeff:     -0.182D-04 0.117D-03-0.114D-03-0.770D-03-0.888D-04 0.708D-02
 Coeff:      0.182D-02-0.766D-01-0.830D-01 0.115D+01
 Gap=     0.475 Goal=   None    Shift=    0.000
 RMSDP=1.55D-07 MaxDP=4.35D-06 DE=-8.85D-10 OVMax= 2.97D-06

 Cycle  11  Pass 1  IDiag  1:
 E= -512.491980519625     Delta-E=       -0.000000000054 Rises=F Damp=F
 DIIS: error= 7.54D-08 at cycle  11 NSaved=  11.
 NSaved=11 IEnMin=11 EnMin= -512.491980519625     IErMin=11 ErrMin= 7.54D-08
 ErrMax= 7.54D-08  0.00D+00 EMaxC= 1.00D-01 BMatC= 1.81D-12 BMatP= 2.19D-11
 IDIUse=1 WtCom= 1.00D+00 WtEn= 0.00D+00
 Coeff-Com: -0.272D-05 0.482D-05 0.511D-04 0.691D-04-0.964D-03-0.377D-03
 Coeff-Com:  0.113D-01-0.509D-02-0.709D-01-0.810D-01 0.115D+01
 Coeff:     -0.272D-05 0.482D-05 0.511D-04 0.691D-04-0.964D-03-0.377D-03
 Coeff:      0.113D-01-0.509D-02-0.709D-01-0.810D-01 0.115D+01
 Gap=     0.475 Goal=   None    Shift=    0.000
 RMSDP=3.60D-08 MaxDP=6.66D-07 DE=-5.42D-11 OVMax= 9.03D-07

 Cycle  12  Pass 1  IDiag  1:
 E= -512.491980519630     Delta-E=       -0.000000000005 Rises=F Damp=F
 DIIS: error= 2.11D-08 at cycle  12 NSaved=  12.
 NSaved=12 IEnMin=12 EnMin= -512.491980519630     IErMin=12 ErrMin= 2.11D-08
 ErrMax= 2.11D-08  0.00D+00 EMaxC= 1.00D-01 BMatC= 1.37D-13 BMatP= 1.81D-12
 IDIUse=1 WtCom= 1.00D+00 WtEn= 0.00D+00
 Coeff-Com:  0.121D-05-0.800D-05 0.658D-05 0.607D-04-0.112D-04-0.489D-03
 Coeff-Com: -0.406D-04 0.597D-02 0.354D-02-0.785D-01 0.204D-01 0.105D+01
 Coeff:      0.121D-05-0.800D-05 0.658D-05 0.607D-04-0.112D-04-0.489D-03
 Coeff:     -0.406D-04 0.597D-02 0.354D-02-0.785D-01 0.204D-01 0.105D+01
 Gap=     0.475 Goal=   None    Shift=    0.000
 RMSDP=1.15D-08 MaxDP=3.50D-07 DE=-5.12D-12 OVMax= 2.49D-07

 Cycle  13  Pass 1  IDiag  1:
 E= -512.491980519629     Delta-E=        0.000000000001 Rises=F Damp=F
 DIIS: error= 6.97D-09 at cycle  13 NSaved=  13.
 NSaved=13 IEnMin=12 EnMin= -512.491980519630     IErMin=13 ErrMin= 6.97D-09
 ErrMax= 6.97D-09  0.00D+00 EMaxC= 1.00D-01 BMatC= 2.29D-14 BMatP= 1.37D-13
 IDIUse=1 WtCom= 1.00D+00 WtEn= 0.00D+00
 Coeff-Com:  0.553D-06-0.220D-05-0.447D-05 0.800D-05 0.959D-04-0.674D-04
 Coeff-Com: -0.123D-02 0.195D-02 0.761D-02-0.775D-02-0.115D+00 0.203D+00
 Coeff-Com:  0.912D+00
 Coeff:      0.553D-06-0.220D-05-0.447D-05 0.800D-05 0.959D-04-0.674D-04
 Coeff:     -0.123D-02 0.195D-02 0.761D-02-0.775D-02-0.115D+00 0.203D+00
 Coeff:      0.912D+00
 Gap=     0.475 Goal=   None    Shift=    0.000
 RMSDP=2.90D-09 MaxDP=6.64D-08 DE= 9.09D-13 OVMax= 7.00D-08

 SCF Done:  E(RHF) =  -512.491980520     A.U. after   13 cycles
            NFock= 13  Conv=0.29D-08     -V/T= 2.0016
 KE= 5.116912210504D+02 PE=-1.905364727596D+03 EE= 5.375569875915D+02
 Leave Link  502 at Thu Apr  2 13:29:13 2026, MaxMem=  2147483648 cpu:               3.2 elap:               0.7
 (Enter /Users/yarger/Applications/g16/l701.exe)
 ... and contract with generalized density number  0.
 Compute integral first derivatives.
 Leave Link  701 at Thu Apr  2 13:29:14 2026, MaxMem=  2147483648 cpu:               0.5 elap:               0.1
 (Enter /Users/yarger/Applications/g16/l702.exe)
 L702 exits ... SP integral derivatives will be done elsewhere.
 Leave Link  702 at Thu Apr  2 13:29:14 2026, MaxMem=  2147483648 cpu:               0.1 elap:               0.0
 (Enter /Users/yarger/Applications/g16/l703.exe)
 Integral derivatives from FoFJK, PRISM(SPDF).
 Compute integral first derivatives, UseDBF=F ICtDFT=           0.
 Calling FoFJK, ICntrl=      2127 FMM=F ISym2X=0 I1Cent= 0 IOpClX= 0 NMat=1 NMatS=1 NMatT=0.
 FoFJK:  IHMeth= 1 ICntrl=    2127 DoSepK=F KAlg= 0 I1Cent=           0 FoldK=F
 IRaf=         0 NMat=       1 IRICut=       1 DoRegI=T DoRafI=F ISym2E= 0 IDoP0=0 IntGTp=1.
 FoFCou: FMM=F IPFlag=           0 FMFlag=      100000 FMFlg1=         800
         NFxFlg=           0 DoJE=F BraDBF=F KetDBF=F FulRan=T
         wScrn=  0.000000 ICntrl=      2127 IOpCl=  0 I1Cent=           0 NGrid=           0
         NMat0=    1 NMatS0=      1 NMatT0=    0 NMatD0=    1 NMtDS0=    0 NMtDT0=    0
 Symmetry not used in FoFCou.
 Leave Link  703 at Thu Apr  2 13:29:14 2026, MaxMem=  2147483648 cpu:               3.4 elap:               0.5
 (Enter /Users/yarger/Applications/g16/l716.exe)
 Dipole        = 8.14602029D-01-6.14289832D-01 3.97817469D-02
 ***** Axes restored to original set *****
 -------------------------------------------------------------------
 Center     Atomic                   Forces (Hartrees/Bohr)
 Number     Number              X              Y              Z
 -------------------------------------------------------------------
      1        6          -0.001867460   -0.032076447   -0.007436799
      2        1          -0.009333789   -0.011856286   -0.000512280
      3        1           0.011663272   -0.015734083   -0.004207792
      4        6          -0.005143172    0.122874440    0.025620461
      5        6          -0.021696360   -0.035284642    0.015913021
      6        9          -0.002888153   -0.001979126    0.001485604
      7        9          -0.003498560    0.029032534    0.036098880
      8        9          -0.011035470    0.002080616   -0.049880800
      9        9           0.043799692   -0.057057006   -0.017080295
 -------------------------------------------------------------------
 Cartesian Forces:  Max     0.122874440 RMS     0.033177119
 Leave Link  716 at Thu Apr  2 13:29:14 2026, MaxMem=  2147483648 cpu:               0.1 elap:               0.0
 (Enter /Users/yarger/Applications/g16/l103.exe)

 GradGradGradGradGradGradGradGradGradGradGradGradGradGradGradGradGradGrad
 Berny optimization.
 Using GEDIIS/GDIIS optimizer.
 FormGI is forming the generalized inverse of G from B-inverse, IUseBI=4.
 Internal  Forces:  Max     0.066999376 RMS     0.025440576
 Search for a local minimum.
 Step number  11 out of a maximum of   40
 All quantities printed in internal units (Hartrees-Bohrs-Radians)
 RMS Force = .25441D-01 SwitMx=.10000D-02 MixMth= 1
 Mixed Optimization -- RFO/linear search
 Update second derivatives using D2CorX and points    9   11   10
 DE=  2.34D-02 DEPred=-1.03D-02 R=-2.27D+00
 Trust test=-2.27D+00 RLast= 8.47D-01 DXMaxT set to 2.52D-01
 ITU= -1  0  0  0  0  0  1  1  1  1  0
 Use linear search instead of GDIIS.
     Eigenvalues ---    0.00914   0.01955   0.03017   0.03048   0.10955
     Eigenvalues ---    0.12392   0.13844   0.17577   0.21817   0.24633
     Eigenvalues ---    0.25375   0.25703   0.30461   0.35410   0.37005
     Eigenvalues ---    0.46947   0.56474   0.57026   0.60753   0.65182
     Eigenvalues ---    0.75795
 RFO step:  Lambda=-8.40992856D-04 EMin= 9.13727442D-03
 Quartic linear search produced a step of -0.88503.
 Iteration  1 RMS(Cart)=  0.14994798 RMS(Int)=  0.01507939
 Iteration  2 RMS(Cart)=  0.02073918 RMS(Int)=  0.00053697
 Iteration  3 RMS(Cart)=  0.00031690 RMS(Int)=  0.00045185
 Iteration  4 RMS(Cart)=  0.00000012 RMS(Int)=  0.00045185
 ITry= 1 IFail=0 DXMaxC= 4.01D-01 DCOld= 1.00D+10 DXMaxT= 2.52D-01 DXLimC= 3.00D+00 Rises=F
 Variable       Old X    -DE/DX   Delta X   Delta X   Delta X     New X
                                 (Linear)    (Quad)   (Total)
    R1        2.03934  -0.00608  -0.01190  -0.00103  -0.01294   2.02640
    R2        2.01038   0.00923   0.01700  -0.00057   0.01643   2.02681
    R3        2.55346  -0.05150  -0.07896   0.00424  -0.07471   2.47875
    R4        2.79676   0.03812   0.06254  -0.00319   0.05935   2.85611
    R5        2.36818   0.06700   0.13010   0.00336   0.13346   2.50164
    R6        2.52036   0.00335  -0.03737   0.00151  -0.03586   2.48450
    R7        2.42768   0.04468   0.06808  -0.00112   0.06696   2.49464
    R8        2.42891   0.04859   0.07018   0.00019   0.07037   2.49928
    A1        1.90356   0.02125   0.16794   0.00041   0.16834   2.07190
    A2        2.10861  -0.00674  -0.00937   0.00238  -0.00700   2.10161
    A3        2.27095  -0.01450  -0.15854  -0.00276  -0.16131   2.10964
    A4        1.98867   0.03590   0.18366   0.00714   0.19082   2.17948
    A5        2.38451  -0.05479  -0.23642   0.00166  -0.23468   2.14983
    A6        1.90924   0.01888   0.05310  -0.00924   0.04384   1.95308
    A7        1.89189   0.00650   0.05022  -0.00186   0.04824   1.94013
    A8        2.00202  -0.01254  -0.06361   0.00188  -0.06159   1.94043
    A9        1.99813  -0.01702  -0.05077  -0.00070  -0.05129   1.94683
   A10        1.87080   0.00172   0.01788   0.00016   0.01789   1.88869
   A11        1.86884   0.00219   0.01134  -0.00178   0.00948   1.87832
   A12        1.82401   0.02093   0.03962   0.00220   0.04223   1.86625
    D1        0.01328   0.00095   0.02458   0.01619   0.03989   0.05316
    D2        3.10684   0.00168   0.03872   0.00205   0.04165  -3.13470
    D3       -3.11507  -0.00009   0.00602   0.01218   0.01732  -3.09775
    D4       -0.02151   0.00064   0.02017  -0.00196   0.01909  -0.00242
    D5       -2.63995  -0.00035  -0.24333   0.10518  -0.13883  -2.77877
    D6       -0.55032  -0.00158  -0.22797   0.10526  -0.12314  -0.67346
    D7        1.55861   0.00312  -0.25905   0.10921  -0.15069   1.40792
    D8        0.53661   0.00138  -0.24799   0.11530  -0.13206   0.40455
    D9        2.62624   0.00015  -0.23262   0.11538  -0.11637   2.50986
   D10       -1.54801   0.00485  -0.26371   0.11933  -0.14392  -1.69194
         Item               Value     Threshold  Converged?
 Maximum Force            0.066999     0.000015     NO 
 RMS     Force            0.025441     0.000010     NO 
 Maximum Displacement     0.400617     0.000060     NO 
 RMS     Displacement     0.158808     0.000040     NO 
 Predicted change in Energy=-1.756102D-03
 GradGradGradGradGradGradGradGradGradGradGradGradGradGradGradGradGradGrad

 Leave Link  103 at Thu Apr  2 13:29:14 2026, MaxMem=  2147483648 cpu:               0.1 elap:               0.0
 (Enter /Users/yarger/Applications/g16/l202.exe)
                          Input orientation:                          
 ---------------------------------------------------------------------
 Center     Atomic      Atomic             Coordinates (Angstroms)
 Number     Number       Type             X           Y           Z
 ---------------------------------------------------------------------
      1          6           0        1.724225    1.057192    0.082294
      2          1           0        1.306556    2.025594    0.276287
      3          1           0        2.789835    0.961263    0.007322
      4          6           0        0.943345    0.011546   -0.049627
      5          6           0       -0.567124    0.051061   -0.014694
      6          9           0       -1.066436   -1.131838    0.268119
      7          9           0       -1.000968    0.909072    0.889891
      8          9           0       -1.070088    0.430297   -1.177612
      9          9           0        1.400176   -1.209022   -0.281983
 ---------------------------------------------------------------------
                    Distance matrix (angstroms):
                    1          2          3          4          5
     1  C    0.000000
     2  H    1.072327   0.000000
     3  H    1.072543   1.845335   0.000000
     4  C    1.311698   2.072325   2.077194   0.000000
     5  C    2.504393   2.737541   3.478237   1.511390   0.000000
     6  F    3.551644   3.949752   4.395443   2.333990   1.314742
     7  F    2.846196   2.635868   3.892537   2.338504   1.320105
     8  F    3.128665   3.210489   4.072469   2.345552   1.322563
     9  F    2.318066   3.283774   2.593258   1.323809   2.351494
                    6          7          8          9
     6  F    0.000000
     7  F    2.134526   0.000000
     8  F    2.128478   2.123340   0.000000
     9  F    2.528388   3.409561   3.097050   0.000000
 Stoichiometry    C3H2F4
 Framework group  C1[X(C3H2F4)]
 Deg. of freedom    21
 Full point group                 C1      NOp   1
 RotChk:  IX=0 Diff= 5.66D-02
 Largest Abelian subgroup         C1      NOp   1
 Largest concise Abelian subgroup C1      NOp   1
                         Standard orientation:                         
 ---------------------------------------------------------------------
 Center     Atomic      Atomic             Coordinates (Angstroms)
 Number     Number       Type             X           Y           Z
 ---------------------------------------------------------------------
      1          6           0        1.680648   -1.090985    0.001829
      2          1           0        1.239064   -2.067894   -0.021353
      3          1           0        2.749659   -1.009339    0.031791
      4          6           0        0.924034   -0.019659   -0.016761
      5          6           0       -0.587279   -0.028698   -0.004506
      6          9           0       -1.072408    1.104409   -0.461960
      7          9           0       -1.064361   -1.011108   -0.746086
      8          9           0       -1.062044   -0.203132    1.217518
      9          9           0        1.410686    1.211307    0.002327
 ---------------------------------------------------------------------
 Rotational constants (GHZ):           3.8064929           2.4855039           2.0174512
 Leave Link  202 at Thu Apr  2 13:29:14 2026, MaxMem=  2147483648 cpu:               0.0 elap:               0.0
 (Enter /Users/yarger/Applications/g16/l301.exe)
 Standard basis: 6-31+G(d) (6D, 7F)
 Ernie: Thresh=  0.10000D-02 Tol=  0.10000D-05 Strict=F.
 There are   137 symmetry adapted cartesian basis functions of A   symmetry.
 There are   137 symmetry adapted basis functions of A   symmetry.
   137 basis functions,   232 primitive gaussians,   137 cartesian basis functions
    28 alpha electrons       28 beta electrons
       nuclear repulsion energy       336.0232298130 Hartrees.
 IExCor=    0 DFT=F Ex=HF Corr=None ExCW=0 ScaHFX=  1.000000
 ScaDFX=  1.000000  1.000000  1.000000  1.000000 ScalE2=  1.000000  1.000000
 IRadAn=      5 IRanWt=     -1 IRanGd=            0 ICorTp=0 IEmpDi=  4
 NAtoms=    9 NActive=    9 NUniq=    9 SFac= 1.00D+00 NAtFMM=   60 NAOKFM=F Big=F
 Integral buffers will be    131072 words long.
 Raffenetti 1 integral format.
 Two-electron integral symmetry is turned on.
 Leave Link  301 at Thu Apr  2 13:29:14 2026, MaxMem=  2147483648 cpu:               0.2 elap:               0.0
 (Enter /Users/yarger/Applications/g16/l302.exe)
 NPDir=0 NMtPBC=     1 NCelOv=     1 NCel=       1 NClECP=     1 NCelD=      1
         NCelK=      1 NCelE2=     1 NClLst=     1 CellRange=     0.0.
 One-electron integrals computed using PRISM.
 One-electron integral symmetry used in STVInt
 NBasis=   137 RedAO= T EigKep=  6.42D-05  NBF=   137
 NBsUse=   137 1.00D-06 EigRej= -1.00D+00 NBFU=   137
 Leave Link  302 at Thu Apr  2 13:29:14 2026, MaxMem=  2147483648 cpu:               0.8 elap:               0.1
 (Enter /Users/yarger/Applications/g16/l303.exe)
 DipDrv:  MaxL=1.
 Leave Link  303 at Thu Apr  2 13:29:15 2026, MaxMem=  2147483648 cpu:               0.1 elap:               0.0
 (Enter /Users/yarger/Applications/g16/l401.exe)
 Lowest energy guess from the checkpoint file:  "2223Tetrafluoropropene_Opt_Freq_HF_631pd_Gaussian16.chk"
 B after Tr=     0.000000   -0.000000   -0.000000
         Rot=    0.999066    0.042999   -0.000503   -0.004216 Ang=   4.95 deg.
 Guess basis will be translated and rotated to current coordinates.
 B after Tr=     0.000000    0.000000   -0.000000
         Rot=    0.999624   -0.025326   -0.004978    0.009263 Ang=  -3.14 deg.
 Guess basis will be translated and rotated to current coordinates.
 CkInt1:  FT= 1.15D-01
 Max alpha theta=  6.578 degrees.
 JPrj=2 DoOrth=T DoCkMO=T.
 Leave Link  401 at Thu Apr  2 13:29:15 2026, MaxMem=  2147483648 cpu:               0.5 elap:               0.1
 (Enter /Users/yarger/Applications/g16/l502.exe)
 Keep R1 ints in memory in canonical form, NReq=46403210.
 FoFCou: FMM=F IPFlag=           0 FMFlag=           0 FMFlg1=           0
         NFxFlg=           0 DoJE=F BraDBF=F KetDBF=F FulRan=T
         wScrn=  0.000000 ICntrl=       600 IOpCl=  0 I1Cent=           0 NGrid=           0
         NMat0=    1 NMatS0=   9453 NMatT0=    0 NMatD0=    1 NMtDS0=    0 NMtDT0=    0
 Symmetry not used in FoFCou.
 Two-electron integral symmetry not used.
 Closed shell SCF:
 Using DIIS extrapolation, IDIIS=  1040.
 NGot=  2147483648 LenX=  2102759234 LenY=  2102740024
 Requested convergence on RMS density matrix=1.00D-08 within 128 cycles.
 Requested convergence on MAX density matrix=1.00D-06.
 Requested convergence on             energy=1.00D-06.
 No special actions if energy rises.

 Cycle   1  Pass 1  IDiag  1:
 E= -512.509545476967    
 DIIS: error= 4.03D-03 at cycle   1 NSaved=   1.
 NSaved= 1 IEnMin= 1 EnMin= -512.509545476967     IErMin= 1 ErrMin= 4.03D-03
 ErrMax= 4.03D-03  0.00D+00 EMaxC= 1.00D-01 BMatC= 4.19D-03 BMatP= 4.19D-03
 IDIUse=3 WtCom= 9.60D-01 WtEn= 4.03D-02
 Coeff-Com:  0.100D+01
 Coeff-En:   0.100D+01
 Coeff:      0.100D+01
 Gap=    26.058 Goal=   None    Shift=    0.000
 GapD=   26.058 DampG=2.000 DampE=1.000 DampFc=2.0000 IDamp=-1.
 RMSDP=8.77D-04 MaxDP=1.96D-02              OVMax= 1.93D-02

 Cycle   2  Pass 1  IDiag  1:
 E= -512.515667371125     Delta-E=       -0.006121894158 Rises=F Damp=F
 DIIS: error= 1.07D-03 at cycle   2 NSaved=   2.
 NSaved= 2 IEnMin= 2 EnMin= -512.515667371125     IErMin= 2 ErrMin= 1.07D-03
 ErrMax= 1.07D-03  0.00D+00 EMaxC= 1.00D-01 BMatC= 3.27D-04 BMatP= 4.19D-03
 IDIUse=3 WtCom= 9.89D-01 WtEn= 1.07D-02
 Coeff-Com: -0.287D+00 0.129D+01
 Coeff-En:   0.000D+00 0.100D+01
 Coeff:     -0.283D+00 0.128D+01
 Gap=     0.489 Goal=   None    Shift=    0.000
 RMSDP=2.47D-04 MaxDP=4.55D-03 DE=-6.12D-03 OVMax= 9.02D-03

 Cycle   3  Pass 1  IDiag  1:
 E= -512.516426801618     Delta-E=       -0.000759430492 Rises=F Damp=F
 DIIS: error= 3.62D-04 at cycle   3 NSaved=   3.
 NSaved= 3 IEnMin= 3 EnMin= -512.516426801618     IErMin= 3 ErrMin= 3.62D-04
 ErrMax= 3.62D-04  0.00D+00 EMaxC= 1.00D-01 BMatC= 2.05D-05 BMatP= 3.27D-04
 IDIUse=3 WtCom= 9.96D-01 WtEn= 3.62D-03
 Coeff-Com: -0.259D-01-0.145D-01 0.104D+01
 Coeff-En:   0.000D+00 0.000D+00 0.100D+01
 Coeff:     -0.258D-01-0.145D-01 0.104D+01
 Gap=     0.489 Goal=   None    Shift=    0.000
 RMSDP=8.16D-05 MaxDP=2.27D-03 DE=-7.59D-04 OVMax= 2.66D-03

 Cycle   4  Pass 1  IDiag  1:
 E= -512.516473097497     Delta-E=       -0.000046295879 Rises=F Damp=F
 DIIS: error= 1.16D-04 at cycle   4 NSaved=   4.
 NSaved= 4 IEnMin= 4 EnMin= -512.516473097497     IErMin= 4 ErrMin= 1.16D-04
 ErrMax= 1.16D-04  0.00D+00 EMaxC= 1.00D-01 BMatC= 4.86D-06 BMatP= 2.05D-05
 IDIUse=3 WtCom= 9.99D-01 WtEn= 1.16D-03
 Coeff-Com:  0.361D-01-0.196D+00 0.264D+00 0.895D+00
 Coeff-En:   0.000D+00 0.000D+00 0.000D+00 0.100D+01
 Coeff:      0.360D-01-0.195D+00 0.264D+00 0.895D+00
 Gap=     0.489 Goal=   None    Shift=    0.000
 RMSDP=4.09D-05 MaxDP=1.22D-03 DE=-4.63D-05 OVMax= 1.26D-03

 Cycle   5  Pass 1  IDiag  1:
 E= -512.516481699715     Delta-E=       -0.000008602218 Rises=F Damp=F
 DIIS: error= 4.10D-05 at cycle   5 NSaved=   5.
 NSaved= 5 IEnMin= 5 EnMin= -512.516481699715     IErMin= 5 ErrMin= 4.10D-05
 ErrMax= 4.10D-05  0.00D+00 EMaxC= 1.00D-01 BMatC= 3.13D-07 BMatP= 4.86D-06
 IDIUse=1 WtCom= 1.00D+00 WtEn= 0.00D+00
 Coeff-Com: -0.644D-03 0.202D-01-0.130D+00-0.936D-01 0.120D+01
 Coeff:     -0.644D-03 0.202D-01-0.130D+00-0.936D-01 0.120D+01
 Gap=     0.489 Goal=   None    Shift=    0.000
 RMSDP=1.55D-05 MaxDP=4.03D-04 DE=-8.60D-06 OVMax= 5.23D-04

 Cycle   6  Pass 1  IDiag  1:
 E= -512.516482657161     Delta-E=       -0.000000957446 Rises=F Damp=F
 DIIS: error= 1.33D-05 at cycle   6 NSaved=   6.
 NSaved= 6 IEnMin= 6 EnMin= -512.516482657161     IErMin= 6 ErrMin= 1.33D-05
 ErrMax= 1.33D-05  0.00D+00 EMaxC= 1.00D-01 BMatC= 2.17D-08 BMatP= 3.13D-07
 IDIUse=1 WtCom= 1.00D+00 WtEn= 0.00D+00
 Coeff-Com: -0.330D-02 0.170D-01-0.134D-01-0.774D-01-0.980D-01 0.118D+01
 Coeff:     -0.330D-02 0.170D-01-0.134D-01-0.774D-01-0.980D-01 0.118D+01
 Gap=     0.489 Goal=   None    Shift=    0.000
 RMSDP=4.30D-06 MaxDP=9.70D-05 DE=-9.57D-07 OVMax= 1.41D-04

 Cycle   7  Pass 1  IDiag  1:
 E= -512.516482724809     Delta-E=       -0.000000067648 Rises=F Damp=F
 DIIS: error= 3.61D-06 at cycle   7 NSaved=   7.
 NSaved= 7 IEnMin= 7 EnMin= -512.516482724809     IErMin= 7 ErrMin= 3.61D-06
 ErrMax= 3.61D-06  0.00D+00 EMaxC= 1.00D-01 BMatC= 1.38D-09 BMatP= 2.17D-08
 IDIUse=1 WtCom= 1.00D+00 WtEn= 0.00D+00
 Coeff-Com:  0.437D-03-0.315D-02 0.894D-02 0.133D-01-0.543D-01-0.127D+00
 Coeff-Com:  0.116D+01
 Coeff:      0.437D-03-0.315D-02 0.894D-02 0.133D-01-0.543D-01-0.127D+00
 Coeff:      0.116D+01
 Gap=     0.489 Goal=   None    Shift=    0.000
 RMSDP=1.28D-06 MaxDP=4.07D-05 DE=-6.76D-08 OVMax= 2.47D-05

 Cycle   8  Pass 1  IDiag  1:
 E= -512.516482728286     Delta-E=       -0.000000003477 Rises=F Damp=F
 DIIS: error= 9.58D-07 at cycle   8 NSaved=   8.
 NSaved= 8 IEnMin= 8 EnMin= -512.516482728286     IErMin= 8 ErrMin= 9.58D-07
 ErrMax= 9.58D-07  0.00D+00 EMaxC= 1.00D-01 BMatC= 2.04D-10 BMatP= 1.38D-09
 IDIUse=1 WtCom= 1.00D+00 WtEn= 0.00D+00
 Coeff-Com:  0.411D-03-0.227D-02 0.296D-02 0.102D-01-0.474D-03-0.137D+00
 Coeff-Com:  0.182D+00 0.945D+00
 Coeff:      0.411D-03-0.227D-02 0.296D-02 0.102D-01-0.474D-03-0.137D+00
 Coeff:      0.182D+00 0.945D+00
 Gap=     0.489 Goal=   None    Shift=    0.000
 RMSDP=4.61D-07 MaxDP=1.46D-05 DE=-3.48D-09 OVMax= 6.20D-06

 Cycle   9  Pass 1  IDiag  1:
 E= -512.516482728646     Delta-E=       -0.000000000360 Rises=F Damp=F
 DIIS: error= 2.80D-07 at cycle   9 NSaved=   9.
 NSaved= 9 IEnMin= 9 EnMin= -512.516482728646     IErMin= 9 ErrMin= 2.80D-07
 ErrMax= 2.80D-07  0.00D+00 EMaxC= 1.00D-01 BMatC= 1.88D-11 BMatP= 2.04D-10
 IDIUse=1 WtCom= 1.00D+00 WtEn= 0.00D+00
 Coeff-Com: -0.496D-04 0.368D-03-0.105D-02-0.150D-02 0.637D-02 0.162D-01
 Coeff-Com: -0.151D+00 0.869D-02 0.112D+01
 Coeff:     -0.496D-04 0.368D-03-0.105D-02-0.150D-02 0.637D-02 0.162D-01
 Coeff:     -0.151D+00 0.869D-02 0.112D+01
 Gap=     0.489 Goal=   None    Shift=    0.000
 RMSDP=1.88D-07 MaxDP=6.76D-06 DE=-3.60D-10 OVMax= 2.12D-06

 Cycle  10  Pass 1  IDiag  1:
 E= -512.516482728698     Delta-E=       -0.000000000052 Rises=F Damp=F
 DIIS: error= 5.25D-08 at cycle  10 NSaved=  10.
 NSaved=10 IEnMin=10 EnMin= -512.516482728698     IErMin=10 ErrMin= 5.25D-08
 ErrMax= 5.25D-08  0.00D+00 EMaxC= 1.00D-01 BMatC= 9.96D-13 BMatP= 1.88D-11
 IDIUse=1 WtCom= 1.00D+00 WtEn= 0.00D+00
 Coeff-Com: -0.253D-04 0.142D-03-0.202D-03-0.662D-03 0.212D-03 0.914D-02
 Coeff-Com: -0.171D-01-0.567D-01 0.579D-01 0.101D+01
 Coeff:     -0.253D-04 0.142D-03-0.202D-03-0.662D-03 0.212D-03 0.914D-02
 Coeff:     -0.171D-01-0.567D-01 0.579D-01 0.101D+01
 Gap=     0.489 Goal=   None    Shift=    0.000
 RMSDP=2.15D-08 MaxDP=5.58D-07 DE=-5.21D-11 OVMax= 4.78D-07

 Cycle  11  Pass 1  IDiag  1:
 E= -512.516482728692     Delta-E=        0.000000000006 Rises=F Damp=F
 DIIS: error= 2.03D-08 at cycle  11 NSaved=  11.
 NSaved=11 IEnMin=10 EnMin= -512.516482728698     IErMin=11 ErrMin= 2.03D-08
 ErrMax= 2.03D-08  0.00D+00 EMaxC= 1.00D-01 BMatC= 1.14D-13 BMatP= 9.96D-13
 IDIUse=1 WtCom= 1.00D+00 WtEn= 0.00D+00
 Coeff-Com:  0.857D-06-0.139D-04 0.733D-04 0.389D-04-0.622D-03-0.706D-05
 Coeff-Com:  0.119D-01-0.104D-01-0.989D-01 0.165D+00 0.933D+00
 Coeff:      0.857D-06-0.139D-04 0.733D-04 0.389D-04-0.622D-03-0.706D-05
 Coeff:      0.119D-01-0.104D-01-0.989D-01 0.165D+00 0.933D+00
 Gap=     0.489 Goal=   None    Shift=    0.000
 RMSDP=7.55D-09 MaxDP=1.95D-07 DE= 6.14D-12 OVMax= 1.37D-07

 SCF Done:  E(RHF) =  -512.516482729     A.U. after   11 cycles
            NFock= 11  Conv=0.75D-08     -V/T= 2.0023
 KE= 5.113183504216D+02 PE=-1.890020349189D+03 EE= 5.301622862259D+02
 Leave Link  502 at Thu Apr  2 13:29:15 2026, MaxMem=  2147483648 cpu:               3.0 elap:               0.6
 (Enter /Users/yarger/Applications/g16/l701.exe)
 ... and contract with generalized density number  0.
 Compute integral first derivatives.
 Leave Link  701 at Thu Apr  2 13:29:15 2026, MaxMem=  2147483648 cpu:               0.5 elap:               0.1
 (Enter /Users/yarger/Applications/g16/l702.exe)
 L702 exits ... SP integral derivatives will be done elsewhere.
 Leave Link  702 at Thu Apr  2 13:29:15 2026, MaxMem=  2147483648 cpu:               0.1 elap:               0.0
 (Enter /Users/yarger/Applications/g16/l703.exe)
 Integral derivatives from FoFJK, PRISM(SPDF).
 Compute integral first derivatives, UseDBF=F ICtDFT=           0.
 Calling FoFJK, ICntrl=      2127 FMM=F ISym2X=0 I1Cent= 0 IOpClX= 0 NMat=1 NMatS=1 NMatT=0.
 FoFJK:  IHMeth= 1 ICntrl=    2127 DoSepK=F KAlg= 0 I1Cent=           0 FoldK=F
 IRaf=         0 NMat=       1 IRICut=       1 DoRegI=T DoRafI=F ISym2E= 0 IDoP0=0 IntGTp=1.
 FoFCou: FMM=F IPFlag=           0 FMFlag=      100000 FMFlg1=         800
         NFxFlg=           0 DoJE=F BraDBF=F KetDBF=F FulRan=T
         wScrn=  0.000000 ICntrl=      2127 IOpCl=  0 I1Cent=           0 NGrid=           0
         NMat0=    1 NMatS0=      1 NMatT0=    0 NMatD0=    1 NMtDS0=    0 NMtDT0=    0
 Symmetry not used in FoFCou.
 Leave Link  703 at Thu Apr  2 13:29:16 2026, MaxMem=  2147483648 cpu:               3.2 elap:               0.4
 (Enter /Users/yarger/Applications/g16/l716.exe)
 Dipole        = 6.84213085D-01-6.75659445D-01-1.30521338D-02
 ***** Axes restored to original set *****
 -------------------------------------------------------------------
 Center     Atomic                   Forces (Hartrees/Bohr)
 Number     Number              X              Y              Z
 -------------------------------------------------------------------
      1        6          -0.002208971   -0.004774224    0.001242288
      2        1          -0.000461992   -0.000411590   -0.000162244
      3        1           0.000475913   -0.000483317   -0.000049897
      4        6           0.001336887    0.004966299    0.000211932
      5        6          -0.000819647   -0.000600765    0.000626986
      6        9          -0.000103767   -0.000241696    0.001131143
      7        9           0.000396608    0.001548223    0.000611968
      8        9          -0.000081123   -0.000898247   -0.001978883
      9        9           0.001466092    0.000895319   -0.001633293
 -------------------------------------------------------------------
 Cartesian Forces:  Max     0.004966299 RMS     0.001640184
 Leave Link  716 at Thu Apr  2 13:29:16 2026, MaxMem=  2147483648 cpu:               0.1 elap:               0.0
 (Enter /Users/yarger/Applications/g16/l103.exe)

 GradGradGradGradGradGradGradGradGradGradGradGradGradGradGradGradGradGrad
 Berny optimization.
 Using GEDIIS/GDIIS optimizer.
 FormGI is forming the generalized inverse of G from B-inverse, IUseBI=4.
 Internal  Forces:  Max     0.005722411 RMS     0.001424504
 Search for a local minimum.
 Step number  12 out of a maximum of   40
 All quantities printed in internal units (Hartrees-Bohrs-Radians)
 RMS Force = .14245D-02 SwitMx=.10000D-02 MixMth= 1
 Mixed Optimization -- RFO/linear search
 Update second derivatives using D2CorX and points   11   10   12
 DE= -1.10D-03 DEPred=-1.76D-03 R= 6.25D-01
 TightC=F SS=  1.41D+00  RLast= 3.57D-01 DXNew= 4.2426D-01 1.0714D+00
 Trust test= 6.25D-01 RLast= 3.57D-01 DXMaxT set to 4.24D-01
 ITU=  1 -1  0  0  0  0  0  1  1  1  1  0
 Use linear search instead of GDIIS.
     Eigenvalues ---    0.00153   0.01694   0.03000   0.03047   0.10856
     Eigenvalues ---    0.13017   0.14121   0.17808   0.22288   0.24961
     Eigenvalues ---    0.25438   0.27379   0.33163   0.35651   0.37038
     Eigenvalues ---    0.47722   0.56469   0.57068   0.60795   0.68541
     Eigenvalues ---    1.07405
 RFO step:  Lambda=-1.57224915D-03 EMin= 1.52770568D-03
 Quartic linear search produced a step of  1.04974.
 Iteration  1 RMS(Cart)=  0.11552367 RMS(Int)=  0.07067558
 Iteration  2 RMS(Cart)=  0.08795610 RMS(Int)=  0.00338077
 Iteration  3 RMS(Cart)=  0.00370164 RMS(Int)=  0.00021805
 Iteration  4 RMS(Cart)=  0.00000483 RMS(Int)=  0.00021802
 Iteration  5 RMS(Cart)=  0.00000000 RMS(Int)=  0.00021802
 ITry= 1 IFail=0 DXMaxC= 4.88D-01 DCOld= 1.00D+10 DXMaxT= 4.24D-01 DXLimC= 3.00D+00 Rises=F
 Variable       Old X    -DE/DX   Delta X   Delta X   Delta X     New X
                                 (Linear)    (Quad)   (Total)
    R1        2.02640  -0.00022   0.00054  -0.00059  -0.00005   2.02635
    R2        2.02681   0.00052  -0.00291  -0.00026  -0.00317   2.02364
    R3        2.47875  -0.00572   0.01522  -0.00113   0.01410   2.49285
    R4        2.85611   0.00061  -0.01188  -0.00967  -0.02156   2.83456
    R5        2.50164  -0.00003  -0.01421  -0.00762  -0.02183   2.47980
    R6        2.48450   0.00050   0.00668   0.00300   0.00968   2.49418
    R7        2.49464   0.00130  -0.01045  -0.00513  -0.01558   2.47906
    R8        2.49928   0.00151  -0.00937  -0.00262  -0.01200   2.48729
    A1        2.07190   0.00069  -0.02248  -0.00055  -0.02304   2.04887
    A2        2.10161  -0.00050   0.00376  -0.00016   0.00360   2.10520
    A3        2.10964  -0.00019   0.01871   0.00069   0.01939   2.12903
    A4        2.17948   0.00087  -0.01753   0.00098  -0.01670   2.16279
    A5        2.14983  -0.00245   0.03406   0.00408   0.03794   2.18777
    A6        1.95308   0.00158  -0.01696  -0.00563  -0.02270   1.93038
    A7        1.94013   0.00022  -0.00893  -0.00122  -0.01012   1.93001
    A8        1.94043  -0.00129   0.01080  -0.00407   0.00668   1.94711
    A9        1.94683  -0.00070   0.00638   0.00268   0.00900   1.95583
   A10        1.88869   0.00044  -0.00243   0.00201  -0.00039   1.88830
   A11        1.87832   0.00024  -0.00350  -0.00283  -0.00631   1.87202
   A12        1.86625   0.00120  -0.00266   0.00364   0.00085   1.86710
    D1        0.05316  -0.00012   0.01272   0.01994   0.03308   0.08624
    D2       -3.13470  -0.00009  -0.00221   0.00312   0.00050  -3.13419
    D3       -3.09775  -0.00007   0.01104   0.01668   0.02814  -3.06961
    D4       -0.00242  -0.00004  -0.00388  -0.00014  -0.00443  -0.00685
    D5       -2.77877   0.00126   0.14288   0.19772   0.34092  -2.43785
    D6       -0.67346   0.00109   0.14113   0.19667   0.33806  -0.33541
    D7        1.40792   0.00127   0.14907   0.20033   0.34979   1.75771
    D8        0.40455   0.00132   0.15551   0.21268   0.36787   0.77242
    D9        2.50986   0.00115   0.15376   0.21163   0.36500   2.87487
   D10       -1.69194   0.00134   0.16170   0.21529   0.37673  -1.31521
         Item               Value     Threshold  Converged?
 Maximum Force            0.005722     0.000015     NO 
 RMS     Force            0.001425     0.000010     NO 
 Maximum Displacement     0.487830     0.000060     NO 
 RMS     Displacement     0.201203     0.000040     NO 
 Predicted change in Energy=-1.717092D-03
 Lowest energy point so far.  Saving SCF results.
 GradGradGradGradGradGradGradGradGradGradGradGradGradGradGradGradGradGrad

 Leave Link  103 at Thu Apr  2 13:29:16 2026, MaxMem=  2147483648 cpu:               0.1 elap:               0.0
 (Enter /Users/yarger/Applications/g16/l202.exe)
                          Input orientation:                          
 ---------------------------------------------------------------------
 Center     Atomic      Atomic             Coordinates (Angstroms)
 Number     Number       Type             X           Y           Z
 ---------------------------------------------------------------------
      1          6           0        1.725545    1.040032    0.155581
      2          1           0        1.313498    1.962084    0.515946
      3          1           0        2.788003    0.990503    0.031155
      4          6           0        0.942789    0.010627   -0.104795
      5          6           0       -0.554649    0.058128   -0.031512
      6          9           0       -1.028356   -1.050918    0.504825
      7          9           0       -0.970096    1.071924    0.690014
      8          9           0       -1.104127    0.182277   -1.221085
      9          9           0        1.346911   -1.159492   -0.540132
 ---------------------------------------------------------------------
                    Distance matrix (angstroms):
                    1          2          3          4          5
     1  C    0.000000
     2  H    1.072300   0.000000
     3  H    1.070865   1.831163   0.000000
     4  C    1.319157   2.081088   2.093670   0.000000
     5  C    2.489664   2.723001   3.470818   1.499983   0.000000
     6  F    3.475344   3.816096   4.353890   2.320329   1.319863
     7  F    2.748294   2.457131   3.816286   2.327488   1.311860
     8  F    3.261594   3.468415   4.167735   2.337827   1.316215
     9  F    2.337795   3.295551   2.650583   1.312255   2.314568
                    6          7          8          9
     6  F    0.000000
     7  F    2.131700   0.000000
     8  F    2.122564   2.112281   0.000000
     9  F    2.597233   3.443980   2.876045   0.000000
 Stoichiometry    C3H2F4
 Framework group  C1[X(C3H2F4)]
 Deg. of freedom    21
 Full point group                 C1      NOp   1
 RotChk:  IX=3 Diff= 2.11D-01
 Largest Abelian subgroup         C1      NOp   1
 Largest concise Abelian subgroup C1      NOp   1
                         Standard orientation:                         
 ---------------------------------------------------------------------
 Center     Atomic      Atomic             Coordinates (Angstroms)
 Number     Number       Type             X           Y           Z
 ---------------------------------------------------------------------
      1          6           0        1.693733   -1.071681   -0.002386
      2          1           0        1.263614   -2.053079   -0.043418
      3          1           0        2.761352   -1.003274    0.045175
      4          6           0        0.925249    0.000247   -0.026390
      5          6           0       -0.573902   -0.043939   -0.003089
      6          9           0       -1.077489    0.857303   -0.825405
      7          9           0       -1.027078   -1.222279   -0.359632
      8          9           0       -1.057319    0.207297    1.195081
      9          9           0        1.351281    1.240856    0.011005
 ---------------------------------------------------------------------
 Rotational constants (GHZ):           3.7980855           2.5389905           2.0459837
 Leave Link  202 at Thu Apr  2 13:29:16 2026, MaxMem=  2147483648 cpu:               0.0 elap:               0.0
 (Enter /Users/yarger/Applications/g16/l301.exe)
 Standard basis: 6-31+G(d) (6D, 7F)
 Ernie: Thresh=  0.10000D-02 Tol=  0.10000D-05 Strict=F.
 There are   137 symmetry adapted cartesian basis functions of A   symmetry.
 There are   137 symmetry adapted basis functions of A   symmetry.
   137 basis functions,   232 primitive gaussians,   137 cartesian basis functions
    28 alpha electrons       28 beta electrons
       nuclear repulsion energy       337.5500259572 Hartrees.
 IExCor=    0 DFT=F Ex=HF Corr=None ExCW=0 ScaHFX=  1.000000
 ScaDFX=  1.000000  1.000000  1.000000  1.000000 ScalE2=  1.000000  1.000000
 IRadAn=      5 IRanWt=     -1 IRanGd=            0 ICorTp=0 IEmpDi=  4
 NAtoms=    9 NActive=    9 NUniq=    9 SFac= 1.00D+00 NAtFMM=   60 NAOKFM=F Big=F
 Integral buffers will be    131072 words long.
 Raffenetti 1 integral format.
 Two-electron integral symmetry is turned on.
 Leave Link  301 at Thu Apr  2 13:29:16 2026, MaxMem=  2147483648 cpu:               0.2 elap:               0.0
 (Enter /Users/yarger/Applications/g16/l302.exe)
 NPDir=0 NMtPBC=     1 NCelOv=     1 NCel=       1 NClECP=     1 NCelD=      1
         NCelK=      1 NCelE2=     1 NClLst=     1 CellRange=     0.0.
 One-electron integrals computed using PRISM.
 One-electron integral symmetry used in STVInt
 NBasis=   137 RedAO= T EigKep=  7.06D-05  NBF=   137
 NBsUse=   137 1.00D-06 EigRej= -1.00D+00 NBFU=   137
 Leave Link  302 at Thu Apr  2 13:29:16 2026, MaxMem=  2147483648 cpu:               0.7 elap:               0.1
 (Enter /Users/yarger/Applications/g16/l303.exe)
 DipDrv:  MaxL=1.
 Leave Link  303 at Thu Apr  2 13:29:16 2026, MaxMem=  2147483648 cpu:               0.1 elap:               0.0
 (Enter /Users/yarger/Applications/g16/l401.exe)
 Initial guess from the checkpoint file:  "2223Tetrafluoropropene_Opt_Freq_HF_631pd_Gaussian16.chk"
 B after Tr=    -0.000000   -0.000000   -0.000000
         Rot=    0.994265    0.106496    0.001109   -0.009672 Ang=  12.28 deg.
 Guess basis will be translated and rotated to current coordinates.
 JPrj=2 DoOrth=T DoCkMO=T.
 Generating alternative initial guess.
 ExpMin= 4.38D-02 ExpMax= 7.00D+03 ExpMxC= 1.05D+03 IAcc=2 IRadAn=         4 AccDes= 0.00D+00
 Harris functional with IExCor=  205 and IRadAn=       4 diagonalized for initial guess.
 HarFok:  IExCor=  205 AccDes= 0.00D+00 IRadAn=         4 IDoV= 1 UseB2=F ITyADJ=14
 ICtDFT=  3500011 ScaDFX=  1.000000  1.000000  1.000000  1.000000
 FoFCou: FMM=F IPFlag=           0 FMFlag=      100000 FMFlg1=           0
         NFxFlg=           0 DoJE=T BraDBF=F KetDBF=T FulRan=T
         wScrn=  0.000000 ICntrl=       500 IOpCl=  0 I1Cent=   200000004 NGrid=           0
         NMat0=    1 NMatS0=      1 NMatT0=    0 NMatD0=    1 NMtDS0=    0 NMtDT0=    0
 Petite list used in FoFCou.
 Harris En= -512.525804395577    
 Leave Link  401 at Thu Apr  2 13:29:16 2026, MaxMem=  2147483648 cpu:               1.3 elap:               0.2
 (Enter /Users/yarger/Applications/g16/l502.exe)
 Keep R1 ints in memory in canonical form, NReq=46403330.
 FoFCou: FMM=F IPFlag=           0 FMFlag=           0 FMFlg1=           0
         NFxFlg=           0 DoJE=F BraDBF=F KetDBF=F FulRan=T
         wScrn=  0.000000 ICntrl=       600 IOpCl=  0 I1Cent=           0 NGrid=           0
         NMat0=    1 NMatS0=   9453 NMatT0=    0 NMatD0=    1 NMtDS0=    0 NMtDT0=    0
 Symmetry not used in FoFCou.
 Two-electron integral symmetry not used.
 Closed shell SCF:
 Using DIIS extrapolation, IDIIS=  1040.
 NGot=  2147483648 LenX=  2102759234 LenY=  2102740024
 Requested convergence on RMS density matrix=1.00D-08 within 128 cycles.
 Requested convergence on MAX density matrix=1.00D-06.
 Requested convergence on             energy=1.00D-06.
 No special actions if energy rises.

 Cycle   1  Pass 1  IDiag  1:
 E= -512.447789879915    
 DIIS: error= 1.12D-02 at cycle   1 NSaved=   1.
 NSaved= 1 IEnMin= 1 EnMin= -512.447789879915     IErMin= 1 ErrMin= 1.12D-02
 ErrMax= 1.12D-02  0.00D+00 EMaxC= 1.00D-01 BMatC= 4.33D-02 BMatP= 4.33D-02
 IDIUse=3 WtCom= 8.88D-01 WtEn= 1.12D-01
 Coeff-Com:  0.100D+01
 Coeff-En:   0.100D+01
 Coeff:      0.100D+01
 Recover alternate guess density for next cycle.
 RMSDP=6.81D-03 MaxDP=1.17D-01              OVMax= 0.00D+00

 Cycle   2  Pass 1  IDiag  1:
 E= -512.323686056166     Delta-E=        0.124103823749 Rises=F Damp=F
 Switch densities from cycles 1 and 2 for lowest energy.
 DIIS: error= 5.55D-02 at cycle   2 NSaved=   2.
 NSaved= 2 IEnMin= 1 EnMin= -512.447789879915     IErMin= 1 ErrMin= 1.12D-02
 ErrMax= 5.55D-02  0.00D+00 EMaxC= 1.00D+00 BMatC= 4.18D-01 BMatP= 4.33D-02
 IDIUse=1 WtCom= 1.00D+00 WtEn= 0.00D+00
 Coeff-Com:  0.911D+00 0.885D-01
 Coeff:      0.911D+00 0.885D-01
 Gap=     0.531 Goal=   None    Shift=    0.000
 RMSDP=2.43D-03 MaxDP=5.39D-02 DE= 1.24D-01 OVMax= 1.69D-01

 Cycle   3  Pass 1  IDiag  1:
 E= -512.511115129199     Delta-E=       -0.187429073033 Rises=F Damp=F
 DIIS: error= 3.18D-03 at cycle   3 NSaved=   3.
 NSaved= 3 IEnMin= 3 EnMin= -512.511115129199     IErMin= 3 ErrMin= 3.18D-03
 ErrMax= 3.18D-03  0.00D+00 EMaxC= 1.00D+00 BMatC= 3.15D-03 BMatP= 4.33D-02
 IDIUse=1 WtCom= 1.00D+00 WtEn= 0.00D+00
 Coeff-Com: -0.231D+00 0.165D-01 0.121D+01
 Coeff:     -0.231D+00 0.165D-01 0.121D+01
 Gap=     0.489 Goal=   None    Shift=    0.000
 RMSDP=7.76D-04 MaxDP=1.48D-02 DE=-1.87D-01 OVMax= 2.57D-02

 Cycle   4  Pass 1  IDiag  1:
 E= -512.517577176077     Delta-E=       -0.006462046878 Rises=F Damp=F
 DIIS: error= 8.92D-04 at cycle   4 NSaved=   4.
 NSaved= 4 IEnMin= 4 EnMin= -512.517577176077     IErMin= 4 ErrMin= 8.92D-04
 ErrMax= 8.92D-04  0.00D+00 EMaxC= 1.00D+00 BMatC= 2.87D-04 BMatP= 3.15D-03
 IDIUse=1 WtCom= 1.00D+00 WtEn= 0.00D+00
 Coeff-Com: -0.640D-01-0.620D-02 0.181D+00 0.889D+00
 Coeff:     -0.640D-01-0.620D-02 0.181D+00 0.889D+00
 Gap=     0.489 Goal=   None    Shift=    0.000
 RMSDP=2.16D-04 MaxDP=5.80D-03 DE=-6.46D-03 OVMax= 7.96D-03

 Cycle   5  Pass 1  IDiag  1:
 E= -512.518028475305     Delta-E=       -0.000451299228 Rises=F Damp=F
 DIIS: error= 3.79D-04 at cycle   5 NSaved=   5.
 NSaved= 5 IEnMin= 5 EnMin= -512.518028475305     IErMin= 5 ErrMin= 3.79D-04
 ErrMax= 3.79D-04  0.00D+00 EMaxC= 1.00D+00 BMatC= 4.04D-05 BMatP= 2.87D-04
 IDIUse=1 WtCom= 1.00D+00 WtEn= 0.00D+00
 Coeff-Com:  0.237D-01 0.158D-03-0.143D+00 0.629D-01 0.106D+01
 Coeff:      0.237D-01 0.158D-03-0.143D+00 0.629D-01 0.106D+01
 Gap=     0.487 Goal=   None    Shift=    0.000
 RMSDP=1.34D-04 MaxDP=3.96D-03 DE=-4.51D-04 OVMax= 4.16D-03

 Cycle   6  Pass 1  IDiag  1:
 E= -512.518118350500     Delta-E=       -0.000089875195 Rises=F Damp=F
 DIIS: error= 1.27D-04 at cycle   6 NSaved=   6.
 NSaved= 6 IEnMin= 6 EnMin= -512.518118350500     IErMin= 6 ErrMin= 1.27D-04
 ErrMax= 1.27D-04  0.00D+00 EMaxC= 1.00D+00 BMatC= 3.65D-06 BMatP= 4.04D-05
 IDIUse=1 WtCom= 1.00D+00 WtEn= 0.00D+00
 Coeff-Com:  0.776D-02 0.765D-03-0.311D-01-0.712D-01 0.845D-01 0.101D+01
 Coeff:      0.776D-02 0.765D-03-0.311D-01-0.712D-01 0.845D-01 0.101D+01
 Gap=     0.488 Goal=   None    Shift=    0.000
 RMSDP=4.11D-05 MaxDP=1.03D-03 DE=-8.99D-05 OVMax= 1.44D-03

 Cycle   7  Pass 1  IDiag  1:
 E= -512.518127614696     Delta-E=       -0.000009264196 Rises=F Damp=F
 DIIS: error= 5.46D-05 at cycle   7 NSaved=   7.
 NSaved= 7 IEnMin= 7 EnMin= -512.518127614696     IErMin= 7 ErrMin= 5.46D-05
 ErrMax= 5.46D-05  0.00D+00 EMaxC= 1.00D+00 BMatC= 4.30D-07 BMatP= 3.65D-06
 IDIUse=1 WtCom= 1.00D+00 WtEn= 0.00D+00
 Coeff-Com: -0.274D-02-0.150D-03 0.183D-01-0.620D-02-0.138D+00-0.120D-01
 Coeff-Com:  0.114D+01
 Coeff:     -0.274D-02-0.150D-03 0.183D-01-0.620D-02-0.138D+00-0.120D-01
 Coeff:      0.114D+01
 Gap=     0.488 Goal=   None    Shift=    0.000
 RMSDP=1.66D-05 MaxDP=3.50D-04 DE=-9.26D-06 OVMax= 5.49D-04

 Cycle   8  Pass 1  IDiag  1:
 E= -512.518128772736     Delta-E=       -0.000001158040 Rises=F Damp=F
 DIIS: error= 1.65D-05 at cycle   8 NSaved=   8.
 NSaved= 8 IEnMin= 8 EnMin= -512.518128772736     IErMin= 8 ErrMin= 1.65D-05
 ErrMax= 1.65D-05  0.00D+00 EMaxC= 1.00D+00 BMatC= 4.22D-08 BMatP= 4.30D-07
 IDIUse=1 WtCom= 1.00D+00 WtEn= 0.00D+00
 Coeff-Com: -0.117D-02-0.725D-04 0.614D-02 0.508D-02-0.367D-01-0.777D-01
 Coeff-Com:  0.207D+00 0.897D+00
 Coeff:     -0.117D-02-0.725D-04 0.614D-02 0.508D-02-0.367D-01-0.777D-01
 Coeff:      0.207D+00 0.897D+00
 Gap=     0.488 Goal=   None    Shift=    0.000
 RMSDP=4.24D-06 MaxDP=9.39D-05 DE=-1.16D-06 OVMax= 1.06D-04

 Cycle   9  Pass 1  IDiag  1:
 E= -512.518128845879     Delta-E=       -0.000000073143 Rises=F Damp=F
 DIIS: error= 5.09D-06 at cycle   9 NSaved=   9.
 NSaved= 9 IEnMin= 9 EnMin= -512.518128845879     IErMin= 9 ErrMin= 5.09D-06
 ErrMax= 5.09D-06  0.00D+00 EMaxC= 1.00D+00 BMatC= 4.10D-09 BMatP= 4.22D-08
 IDIUse=1 WtCom= 1.00D+00 WtEn= 0.00D+00
 Coeff-Com:  0.312D-03 0.170D-04-0.213D-02 0.118D-02 0.156D-01 0.815D-03
 Coeff-Com: -0.130D+00 0.168D-02 0.111D+01
 Coeff:      0.312D-03 0.170D-04-0.213D-02 0.118D-02 0.156D-01 0.815D-03
 Coeff:     -0.130D+00 0.168D-02 0.111D+01
 Gap=     0.488 Goal=   None    Shift=    0.000
 RMSDP=2.28D-06 MaxDP=7.26D-05 DE=-7.31D-08 OVMax= 3.80D-05

 Cycle  10  Pass 1  IDiag  1:
 E= -512.518128855081     Delta-E=       -0.000000009201 Rises=F Damp=F
 DIIS: error= 1.24D-06 at cycle  10 NSaved=  10.
 NSaved=10 IEnMin=10 EnMin= -512.518128855081     IErMin=10 ErrMin= 1.24D-06
 ErrMax= 1.24D-06  0.00D+00 EMaxC= 1.00D+00 BMatC= 3.60D-10 BMatP= 4.10D-09
 IDIUse=1 WtCom= 1.00D+00 WtEn= 0.00D+00
 Coeff-Com:  0.915D-04 0.441D-05-0.487D-03-0.363D-03 0.294D-02 0.559D-02
 Coeff-Com: -0.142D-01-0.849D-01 0.340D-02 0.109D+01
 Coeff:      0.915D-04 0.441D-05-0.487D-03-0.363D-03 0.294D-02 0.559D-02
 Coeff:     -0.142D-01-0.849D-01 0.340D-02 0.109D+01
 Gap=     0.488 Goal=   None    Shift=    0.000
 RMSDP=7.96D-07 MaxDP=2.63D-05 DE=-9.20D-09 OVMax= 9.59D-06

 Cycle  11  Pass 1  IDiag  1:
 E= -512.518128855861     Delta-E=       -0.000000000780 Rises=F Damp=F
 DIIS: error= 3.13D-07 at cycle  11 NSaved=  11.
 NSaved=11 IEnMin=11 EnMin= -512.518128855861     IErMin=11 ErrMin= 3.13D-07
 ErrMax= 3.13D-07  0.00D+00 EMaxC= 1.00D+00 BMatC= 3.58D-11 BMatP= 3.60D-10
 IDIUse=1 WtCom= 1.00D+00 WtEn= 0.00D+00
 Coeff-Com: -0.149D-04-0.115D-05 0.130D-03-0.155D-03-0.110D-02 0.662D-03
 Coeff-Com:  0.110D-01-0.127D-01-0.109D+00 0.131D+00 0.980D+00
 Coeff:     -0.149D-04-0.115D-05 0.130D-03-0.155D-03-0.110D-02 0.662D-03
 Coeff:      0.110D-01-0.127D-01-0.109D+00 0.131D+00 0.980D+00
 Gap=     0.488 Goal=   None    Shift=    0.000
 RMSDP=1.87D-07 MaxDP=6.48D-06 DE=-7.80D-10 OVMax= 2.63D-06

 Cycle  12  Pass 1  IDiag  1:
 E= -512.518128855940     Delta-E=       -0.000000000079 Rises=F Damp=F
 DIIS: error= 7.26D-08 at cycle  12 NSaved=  12.
 NSaved=12 IEnMin=12 EnMin= -512.518128855940     IErMin=12 ErrMin= 7.26D-08
 ErrMax= 7.26D-08  0.00D+00 EMaxC= 1.00D+00 BMatC= 2.51D-12 BMatP= 3.58D-11
 IDIUse=1 WtCom= 1.00D+00 WtEn= 0.00D+00
 Coeff-Com: -0.895D-05-0.348D-06 0.495D-04 0.263D-04-0.333D-03-0.403D-03
 Coeff-Com:  0.200D-02 0.627D-02-0.671D-02-0.794D-01 0.609D-01 0.102D+01
 Coeff:     -0.895D-05-0.348D-06 0.495D-04 0.263D-04-0.333D-03-0.403D-03
 Coeff:      0.200D-02 0.627D-02-0.671D-02-0.794D-01 0.609D-01 0.102D+01
 Gap=     0.488 Goal=   None    Shift=    0.000
 RMSDP=2.92D-08 MaxDP=4.80D-07 DE=-7.94D-11 OVMax= 8.49D-07

 Cycle  13  Pass 1  IDiag  1:
 E= -512.518128855934     Delta-E=        0.000000000006 Rises=F Damp=F
 DIIS: error= 2.09D-08 at cycle  13 NSaved=  13.
 NSaved=13 IEnMin=12 EnMin= -512.518128855940     IErMin=13 ErrMin= 2.09D-08
 ErrMax= 2.09D-08  0.00D+00 EMaxC= 1.00D+00 BMatC= 2.47D-13 BMatP= 2.51D-12
 IDIUse=1 WtCom= 1.00D+00 WtEn= 0.00D+00
 Coeff-Com:  0.369D-06 0.297D-07-0.623D-05 0.193D-04 0.508D-04-0.106D-03
 Coeff-Com: -0.694D-03 0.160D-02 0.858D-02-0.182D-01-0.823D-01 0.112D+00
 Coeff-Com:  0.979D+00
 Coeff:      0.369D-06 0.297D-07-0.623D-05 0.193D-04 0.508D-04-0.106D-03
 Coeff:     -0.694D-03 0.160D-02 0.858D-02-0.182D-01-0.823D-01 0.112D+00
 Coeff:      0.979D+00
 Gap=     0.488 Goal=   None    Shift=    0.000
 RMSDP=1.39D-08 MaxDP=4.27D-07 DE= 5.91D-12 OVMax= 2.03D-07

 Cycle  14  Pass 1  IDiag  1:
 E= -512.518128855943     Delta-E=       -0.000000000008 Rises=F Damp=F
 DIIS: error= 9.04D-09 at cycle  14 NSaved=  14.
 NSaved=14 IEnMin=14 EnMin= -512.518128855943     IErMin=14 ErrMin= 9.04D-09
 ErrMax= 9.04D-09  0.00D+00 EMaxC= 1.00D+00 BMatC= 1.74D-14 BMatP= 2.47D-13
 IDIUse=1 WtCom= 1.00D+00 WtEn= 0.00D+00
 Coeff-Com:  0.716D-06 0.170D-07-0.364D-05-0.202D-05 0.211D-04 0.384D-04
 Coeff-Com: -0.107D-03-0.681D-03 0.575D-04 0.788D-02-0.106D-02-0.832D-01
 Coeff-Com: -0.816D-01 0.116D+01
 Coeff:      0.716D-06 0.170D-07-0.364D-05-0.202D-05 0.211D-04 0.384D-04
 Coeff:     -0.107D-03-0.681D-03 0.575D-04 0.788D-02-0.106D-02-0.832D-01
 Coeff:     -0.816D-01 0.116D+01
 Gap=     0.488 Goal=   None    Shift=    0.000
 RMSDP=4.45D-09 MaxDP=1.49D-07 DE=-8.41D-12 OVMax= 7.62D-08

 SCF Done:  E(RHF) =  -512.518128856     A.U. after   14 cycles
            NFock= 14  Conv=0.45D-08     -V/T= 2.0022
 KE= 5.113741930219D+02 PE=-1.893076286998D+03 EE= 5.316339391632D+02
 Leave Link  502 at Thu Apr  2 13:29:17 2026, MaxMem=  2147483648 cpu:               3.4 elap:               0.7
 (Enter /Users/yarger/Applications/g16/l701.exe)
 ... and contract with generalized density number  0.
 Compute integral first derivatives.
 Leave Link  701 at Thu Apr  2 13:29:17 2026, MaxMem=  2147483648 cpu:               0.5 elap:               0.1
 (Enter /Users/yarger/Applications/g16/l702.exe)
 L702 exits ... SP integral derivatives will be done elsewhere.
 Leave Link  702 at Thu Apr  2 13:29:17 2026, MaxMem=  2147483648 cpu:               0.1 elap:               0.0
 (Enter /Users/yarger/Applications/g16/l703.exe)
 Integral derivatives from FoFJK, PRISM(SPDF).
 Compute integral first derivatives, UseDBF=F ICtDFT=           0.
 Calling FoFJK, ICntrl=      2127 FMM=F ISym2X=0 I1Cent= 0 IOpClX= 0 NMat=1 NMatS=1 NMatT=0.
 FoFJK:  IHMeth= 1 ICntrl=    2127 DoSepK=F KAlg= 0 I1Cent=           0 FoldK=F
 IRaf=         0 NMat=       1 IRICut=       1 DoRegI=T DoRafI=F ISym2E= 0 IDoP0=0 IntGTp=1.
 FoFCou: FMM=F IPFlag=           0 FMFlag=      100000 FMFlg1=         800
         NFxFlg=           0 DoJE=F BraDBF=F KetDBF=F FulRan=T
         wScrn=  0.000000 ICntrl=      2127 IOpCl=  0 I1Cent=           0 NGrid=           0
         NMat0=    1 NMatS0=      1 NMatT0=    0 NMatD0=    1 NMtDS0=    0 NMtDT0=    0
 Symmetry not used in FoFCou.
 Leave Link  703 at Thu Apr  2 13:29:18 2026, MaxMem=  2147483648 cpu:               3.3 elap:               0.5
 (Enter /Users/yarger/Applications/g16/l716.exe)
 Dipole        = 7.24227973D-01-6.87430763D-01-4.70512226D-03
 ***** Axes restored to original set *****
 -------------------------------------------------------------------
 Center     Atomic                   Forces (Hartrees/Bohr)
 Number     Number              X              Y              Z
 -------------------------------------------------------------------
      1        6          -0.003970608   -0.011467942   -0.000682008
      2        1          -0.001977934   -0.001610509   -0.001214990
      3        1           0.001982354   -0.003158438   -0.000390961
      4        6           0.001312324    0.024109930    0.002637470
      5        6          -0.003551066   -0.005626861    0.004289777
      6        9          -0.000652964   -0.000966859    0.001497517
      7        9          -0.001299262    0.006586818    0.005817624
      8        9          -0.000138787   -0.001737387   -0.008119397
      9        9           0.008295942   -0.006128752   -0.003835031
 -------------------------------------------------------------------
 Cartesian Forces:  Max     0.024109930 RMS     0.006368333
 Leave Link  716 at Thu Apr  2 13:29:18 2026, MaxMem=  2147483648 cpu:               0.1 elap:               0.0
 (Enter /Users/yarger/Applications/g16/l103.exe)

 GradGradGradGradGradGradGradGradGradGradGradGradGradGradGradGradGradGrad
 Berny optimization.
 Using GEDIIS/GDIIS optimizer.
 FormGI is forming the generalized inverse of G from B-inverse, IUseBI=4.
 Internal  Forces:  Max     0.015475493 RMS     0.004973917
 Search for a local minimum.
 Step number  13 out of a maximum of   40
 All quantities printed in internal units (Hartrees-Bohrs-Radians)
 RMS Force = .49739D-02 SwitMx=.10000D-02 MixMth= 1
 Mixed Optimization -- RFO/linear search
 Update second derivatives using D2CorX and points   12   13
 DE= -1.65D-03 DEPred=-1.72D-03 R= 9.59D-01
 TightC=F SS=  1.41D+00  RLast= 8.78D-01 DXNew= 7.1352D-01 2.6330D+00
 Trust test= 9.59D-01 RLast= 8.78D-01 DXMaxT set to 7.14D-01
 ITU=  1  1 -1  0  0  0  0  0  1  1  1  1  0
 Use linear search instead of GDIIS.
     Eigenvalues ---    0.00182   0.01811   0.03039   0.03058   0.10955
     Eigenvalues ---    0.13083   0.14397   0.17800   0.22791   0.25422
     Eigenvalues ---    0.25544   0.27301   0.33449   0.35720   0.37037
     Eigenvalues ---    0.47772   0.56584   0.57640   0.60803   0.71135
     Eigenvalues ---    1.20361
 RFO step:  Lambda=-1.16635148D-03 EMin= 1.81992469D-03
 Quartic linear search produced a step of  0.07974.
 Iteration  1 RMS(Cart)=  0.07886331 RMS(Int)=  0.00273352
 Iteration  2 RMS(Cart)=  0.00337685 RMS(Int)=  0.00005780
 Iteration  3 RMS(Cart)=  0.00000554 RMS(Int)=  0.00005768
 Iteration  4 RMS(Cart)=  0.00000000 RMS(Int)=  0.00005768
 ITry= 1 IFail=0 DXMaxC= 2.01D-01 DCOld= 1.00D+10 DXMaxT= 7.14D-01 DXLimC= 3.00D+00 Rises=F
 Variable       Old X    -DE/DX   Delta X   Delta X   Delta X     New X
                                 (Linear)    (Quad)   (Total)
    R1        2.02635  -0.00103  -0.00000  -0.00159  -0.00160   2.02475
    R2        2.02364   0.00216  -0.00025   0.00124   0.00099   2.02463
    R3        2.49285  -0.01548   0.00112  -0.00509  -0.00397   2.48888
    R4        2.83456   0.00575  -0.00172  -0.00328  -0.00500   2.82956
    R5        2.47980   0.00929  -0.00174   0.00564   0.00390   2.48370
    R6        2.49418   0.00166   0.00077   0.00220   0.00297   2.49715
    R7        2.47906   0.00870  -0.00124   0.00281   0.00157   2.48062
    R8        2.48729   0.00723  -0.00096   0.00058  -0.00038   2.48691
    A1        2.04887   0.00368  -0.00184   0.00583   0.00399   2.05286
    A2        2.10520  -0.00137   0.00029   0.00190   0.00219   2.10739
    A3        2.12903  -0.00231   0.00155  -0.00773  -0.00618   2.12285
    A4        2.16279   0.00651  -0.00133   0.01685   0.01535   2.17813
    A5        2.18777  -0.01039   0.00303  -0.00818  -0.00533   2.18245
    A6        1.93038   0.00394  -0.00181  -0.00644  -0.00842   1.92195
    A7        1.93001   0.00105  -0.00081   0.00024  -0.00058   1.92943
    A8        1.94711  -0.00135   0.00053   0.00510   0.00563   1.95274
    A9        1.95583  -0.00512   0.00072  -0.01079  -0.01008   1.94575
   A10        1.88830   0.00010  -0.00003  -0.00081  -0.00084   1.88746
   A11        1.87202   0.00130  -0.00050  -0.00014  -0.00067   1.87135
   A12        1.86710   0.00433   0.00007   0.00664   0.00672   1.87381
    D1        0.08624  -0.00135   0.00264  -0.03708  -0.03441   0.05183
    D2       -3.13419  -0.00007   0.00004   0.00177   0.00178  -3.13241
    D3       -3.06961  -0.00135   0.00224  -0.03688  -0.03460  -3.10421
    D4       -0.00685  -0.00008  -0.00035   0.00197   0.00159  -0.00527
    D5       -2.43785   0.00086   0.02719   0.12776   0.15498  -2.28286
    D6       -0.33541   0.00080   0.02696   0.13031   0.15729  -0.17811
    D7        1.75771   0.00189   0.02789   0.13492   0.16282   1.92053
    D8        0.77242   0.00035   0.02933   0.09417   0.12349   0.89591
    D9        2.87487   0.00030   0.02911   0.09671   0.12580   3.00066
   D10       -1.31521   0.00139   0.03004   0.10132   0.13132  -1.18388
         Item               Value     Threshold  Converged?
 Maximum Force            0.015475     0.000015     NO 
 RMS     Force            0.004974     0.000010     NO 
 Maximum Displacement     0.200564     0.000060     NO 
 RMS     Displacement     0.079085     0.000040     NO 
 Predicted change in Energy=-7.116889D-04
 Lowest energy point so far.  Saving SCF results.
 GradGradGradGradGradGradGradGradGradGradGradGradGradGradGradGradGradGrad

 Leave Link  103 at Thu Apr  2 13:29:18 2026, MaxMem=  2147483648 cpu:               0.2 elap:               0.0
 (Enter /Users/yarger/Applications/g16/l202.exe)
                          Input orientation:                          
 ---------------------------------------------------------------------
 Center     Atomic      Atomic             Coordinates (Angstroms)
 Number     Number       Type             X           Y           Z
 ---------------------------------------------------------------------
      1          6           0        1.730189    1.033490    0.182448
      2          1           0        1.331755    1.939128    0.593646
      3          1           0        2.792311    0.970114    0.056927
      4          6           0        0.935773    0.033413   -0.139094
      5          6           0       -0.557776    0.061467   -0.036426
      6          9           0       -0.999664   -1.012927    0.593337
      7          9           0       -0.983789    1.119918    0.612686
      8          9           0       -1.122398    0.076144   -1.225074
      9          9           0        1.333117   -1.115582   -0.638452
 ---------------------------------------------------------------------
                    Distance matrix (angstroms):
                    1          2          3          4          5
     1  C    0.000000
     2  H    1.071454   0.000000
     3  H    1.071389   1.833107   0.000000
     4  C    1.317058   2.079774   2.088676   0.000000
     5  C    2.495500   2.737321   3.472382   1.497336   0.000000
     6  F    3.436387   3.761668   4.312686   2.318878   1.321435
     7  F    2.749227   2.456259   3.819717   2.330318   1.312689
     8  F    3.321880   3.577893   4.215170   2.327498   1.316015
     9  F    2.334535   3.293831   2.638736   1.314317   2.307239
                    6          7          8          9
     6  F    0.000000
     7  F    2.132992   0.000000
     8  F    2.123148   2.118027   0.000000
     9  F    2.640020   3.454107   2.791753   0.000000
 Stoichiometry    C3H2F4
 Framework group  C1[X(C3H2F4)]
 Deg. of freedom    21
 Full point group                 C1      NOp   1
 RotChk:  IX=3 Diff= 9.05D-02
 Largest Abelian subgroup         C1      NOp   1
 Largest concise Abelian subgroup C1      NOp   1
                         Standard orientation:                         
 ---------------------------------------------------------------------
 Center     Atomic      Atomic             Coordinates (Angstroms)
 Number     Number       Type             X           Y           Z
 ---------------------------------------------------------------------
      1          6           0        1.705967   -1.063019   -0.002622
      2          1           0        1.292478   -2.051074   -0.030708
      3          1           0        2.773183   -0.971693    0.021556
      4          6           0        0.922234   -0.004589   -0.013987
      5          6           0       -0.574381   -0.049346   -0.001459
      6          9           0       -1.069629    0.729291   -0.947315
      7          9           0       -1.029123   -1.265675   -0.193572
      8          9           0       -1.059656    0.374660    1.145983
      9          9           0        1.337454    1.242223    0.007965
 ---------------------------------------------------------------------
 Rotational constants (GHZ):           3.7982604           2.5404634           2.0497656
 Leave Link  202 at Thu Apr  2 13:29:18 2026, MaxMem=  2147483648 cpu:               0.0 elap:               0.0
 (Enter /Users/yarger/Applications/g16/l301.exe)
 Standard basis: 6-31+G(d) (6D, 7F)
 Ernie: Thresh=  0.10000D-02 Tol=  0.10000D-05 Strict=F.
 There are   137 symmetry adapted cartesian basis functions of A   symmetry.
 There are   137 symmetry adapted basis functions of A   symmetry.
   137 basis functions,   232 primitive gaussians,   137 cartesian basis functions
    28 alpha electrons       28 beta electrons
       nuclear repulsion energy       337.5951199467 Hartrees.
 IExCor=    0 DFT=F Ex=HF Corr=None ExCW=0 ScaHFX=  1.000000
 ScaDFX=  1.000000  1.000000  1.000000  1.000000 ScalE2=  1.000000  1.000000
 IRadAn=      5 IRanWt=     -1 IRanGd=            0 ICorTp=0 IEmpDi=  4
 NAtoms=    9 NActive=    9 NUniq=    9 SFac= 1.00D+00 NAtFMM=   60 NAOKFM=F Big=F
 Integral buffers will be    131072 words long.
 Raffenetti 1 integral format.
 Two-electron integral symmetry is turned on.
 Leave Link  301 at Thu Apr  2 13:29:18 2026, MaxMem=  2147483648 cpu:               0.1 elap:               0.0
 (Enter /Users/yarger/Applications/g16/l302.exe)
 NPDir=0 NMtPBC=     1 NCelOv=     1 NCel=       1 NClECP=     1 NCelD=      1
         NCelK=      1 NCelE2=     1 NClLst=     1 CellRange=     0.0.
 One-electron integrals computed using PRISM.
 One-electron integral symmetry used in STVInt
 NBasis=   137 RedAO= T EigKep=  6.92D-05  NBF=   137
 NBsUse=   137 1.00D-06 EigRej= -1.00D+00 NBFU=   137
 Leave Link  302 at Thu Apr  2 13:29:18 2026, MaxMem=  2147483648 cpu:               0.7 elap:               0.1
 (Enter /Users/yarger/Applications/g16/l303.exe)
 DipDrv:  MaxL=1.
 Leave Link  303 at Thu Apr  2 13:29:18 2026, MaxMem=  2147483648 cpu:               0.1 elap:               0.0
 (Enter /Users/yarger/Applications/g16/l401.exe)
 Initial guess from the checkpoint file:  "2223Tetrafluoropropene_Opt_Freq_HF_631pd_Gaussian16.chk"
 B after Tr=    -0.000000    0.000000    0.000000
         Rot=    0.999046    0.043622    0.000840   -0.001824 Ang=   5.01 deg.
 Guess basis will be translated and rotated to current coordinates.
 JPrj=2 DoOrth=T DoCkMO=T.
 Generating alternative initial guess.
 ExpMin= 4.38D-02 ExpMax= 7.00D+03 ExpMxC= 1.05D+03 IAcc=2 IRadAn=         4 AccDes= 0.00D+00
 Harris functional with IExCor=  205 and IRadAn=       4 diagonalized for initial guess.
 HarFok:  IExCor=  205 AccDes= 0.00D+00 IRadAn=         4 IDoV= 1 UseB2=F ITyADJ=14
 ICtDFT=  3500011 ScaDFX=  1.000000  1.000000  1.000000  1.000000
 FoFCou: FMM=F IPFlag=           0 FMFlag=      100000 FMFlg1=           0
         NFxFlg=           0 DoJE=T BraDBF=F KetDBF=T FulRan=T
         wScrn=  0.000000 ICntrl=       500 IOpCl=  0 I1Cent=   200000004 NGrid=           0
         NMat0=    1 NMatS0=      1 NMatT0=    0 NMatD0=    1 NMtDS0=    0 NMtDT0=    0
 Petite list used in FoFCou.
 Harris En= -512.526740293309    
 Leave Link  401 at Thu Apr  2 13:29:18 2026, MaxMem=  2147483648 cpu:               1.3 elap:               0.2
 (Enter /Users/yarger/Applications/g16/l502.exe)
 Keep R1 ints in memory in canonical form, NReq=46403393.
 FoFCou: FMM=F IPFlag=           0 FMFlag=           0 FMFlg1=           0
         NFxFlg=           0 DoJE=F BraDBF=F KetDBF=F FulRan=T
         wScrn=  0.000000 ICntrl=       600 IOpCl=  0 I1Cent=           0 NGrid=           0
         NMat0=    1 NMatS0=   9453 NMatT0=    0 NMatD0=    1 NMtDS0=    0 NMtDT0=    0
 Symmetry not used in FoFCou.
 Two-electron integral symmetry not used.
 Closed shell SCF:
 Using DIIS extrapolation, IDIIS=  1040.
 NGot=  2147483648 LenX=  2102759234 LenY=  2102740024
 Requested convergence on RMS density matrix=1.00D-08 within 128 cycles.
 Requested convergence on MAX density matrix=1.00D-06.
 Requested convergence on             energy=1.00D-06.
 No special actions if energy rises.

 Cycle   1  Pass 1  IDiag  1:
 E= -512.508483039196    
 DIIS: error= 5.46D-03 at cycle   1 NSaved=   1.
 NSaved= 1 IEnMin= 1 EnMin= -512.508483039196     IErMin= 1 ErrMin= 5.46D-03
 ErrMax= 5.46D-03  0.00D+00 EMaxC= 1.00D-01 BMatC= 6.62D-03 BMatP= 6.62D-03
 IDIUse=3 WtCom= 9.45D-01 WtEn= 5.46D-02
 Coeff-Com:  0.100D+01
 Coeff-En:   0.100D+01
 Coeff:      0.100D+01
 Gap=     0.998 Goal=   None    Shift=    0.000
 GapD=    0.998 DampG=2.000 DampE=1.000 DampFc=2.0000 IDamp=-1.
 RMSDP=1.05D-03 MaxDP=2.08D-02              OVMax= 2.15D-02

 Cycle   2  Pass 1  IDiag  1:
 E= -512.517948394687     Delta-E=       -0.009465355491 Rises=F Damp=F
 DIIS: error= 1.63D-03 at cycle   2 NSaved=   2.
 NSaved= 2 IEnMin= 2 EnMin= -512.517948394687     IErMin= 2 ErrMin= 1.63D-03
 ErrMax= 1.63D-03  0.00D+00 EMaxC= 1.00D-01 BMatC= 4.87D-04 BMatP= 6.62D-03
 IDIUse=3 WtCom= 9.84D-01 WtEn= 1.63D-02
 Coeff-Com: -0.291D+00 0.129D+01
 Coeff-En:   0.000D+00 0.100D+01
 Coeff:     -0.286D+00 0.129D+01
 Gap=     0.489 Goal=   None    Shift=    0.000
 RMSDP=3.41D-04 MaxDP=7.08D-03 DE=-9.47D-03 OVMax= 9.63D-03

 Cycle   3  Pass 1  IDiag  1:
 E= -512.519052051577     Delta-E=       -0.001103656890 Rises=F Damp=F
 DIIS: error= 3.51D-04 at cycle   3 NSaved=   3.
 NSaved= 3 IEnMin= 3 EnMin= -512.519052051577     IErMin= 3 ErrMin= 3.51D-04
 ErrMax= 3.51D-04  0.00D+00 EMaxC= 1.00D-01 BMatC= 2.06D-05 BMatP= 4.87D-04
 IDIUse=3 WtCom= 9.96D-01 WtEn= 3.51D-03
 Coeff-Com:  0.305D-01-0.252D+00 0.122D+01
 Coeff-En:   0.000D+00 0.000D+00 0.100D+01
 Coeff:      0.304D-01-0.251D+00 0.122D+01
 Gap=     0.489 Goal=   None    Shift=    0.000
 RMSDP=1.14D-04 MaxDP=3.72D-03 DE=-1.10D-03 OVMax= 3.01D-03

 Cycle   4  Pass 1  IDiag  1:
 E= -512.519113514684     Delta-E=       -0.000061463107 Rises=F Damp=F
 DIIS: error= 9.63D-05 at cycle   4 NSaved=   4.
 NSaved= 4 IEnMin= 4 EnMin= -512.519113514684     IErMin= 4 ErrMin= 9.63D-05
 ErrMax= 9.63D-05  0.00D+00 EMaxC= 1.00D-01 BMatC= 3.10D-06 BMatP= 2.06D-05
 IDIUse=1 WtCom= 1.00D+00 WtEn= 0.00D+00
 Coeff-Com:  0.276D-01-0.139D+00 0.188D+00 0.924D+00
 Coeff:      0.276D-01-0.139D+00 0.188D+00 0.924D+00
 Gap=     0.489 Goal=   None    Shift=    0.000
 RMSDP=3.33D-05 MaxDP=9.64D-04 DE=-6.15D-05 OVMax= 9.36D-04

 Cycle   5  Pass 1  IDiag  1:
 E= -512.519119813017     Delta-E=       -0.000006298333 Rises=F Damp=F
 DIIS: error= 4.38D-05 at cycle   5 NSaved=   5.
 NSaved= 5 IEnMin= 5 EnMin= -512.519119813017     IErMin= 5 ErrMin= 4.38D-05
 ErrMax= 4.38D-05  0.00D+00 EMaxC= 1.00D-01 BMatC= 4.84D-07 BMatP= 3.10D-06
 IDIUse=1 WtCom= 1.00D+00 WtEn= 0.00D+00
 Coeff-Com: -0.231D-02 0.284D-01-0.182D+00 0.829D-01 0.107D+01
 Coeff:     -0.231D-02 0.284D-01-0.182D+00 0.829D-01 0.107D+01
 Gap=     0.489 Goal=   None    Shift=    0.000
 RMSDP=1.58D-05 MaxDP=4.26D-04 DE=-6.30D-06 OVMax= 4.68D-04

 Cycle   6  Pass 1  IDiag  1:
 E= -512.519120985304     Delta-E=       -0.000001172287 Rises=F Damp=F
 DIIS: error= 1.45D-05 at cycle   6 NSaved=   6.
 NSaved= 6 IEnMin= 6 EnMin= -512.519120985304     IErMin= 6 ErrMin= 1.45D-05
 ErrMax= 1.45D-05  0.00D+00 EMaxC= 1.00D-01 BMatC= 3.34D-08 BMatP= 4.84D-07
 IDIUse=1 WtCom= 1.00D+00 WtEn= 0.00D+00
 Coeff-Com: -0.303D-02 0.155D-01-0.176D-01-0.111D+00-0.542D-02 0.112D+01
 Coeff:     -0.303D-02 0.155D-01-0.176D-01-0.111D+00-0.542D-02 0.112D+01
 Gap=     0.489 Goal=   None    Shift=    0.000
 RMSDP=5.01D-06 MaxDP=1.31D-04 DE=-1.17D-06 OVMax= 1.42D-04

 Cycle   7  Pass 1  IDiag  1:
 E= -512.519121078940     Delta-E=       -0.000000093636 Rises=F Damp=F
 DIIS: error= 2.75D-06 at cycle   7 NSaved=   7.
 NSaved= 7 IEnMin= 7 EnMin= -512.519121078940     IErMin= 7 ErrMin= 2.75D-06
 ErrMax= 2.75D-06  0.00D+00 EMaxC= 1.00D-01 BMatC= 1.60D-09 BMatP= 3.34D-08
 IDIUse=1 WtCom= 1.00D+00 WtEn= 0.00D+00
 Coeff-Com:  0.593D-03-0.389D-02 0.124D-01 0.120D-01-0.547D-01-0.176D+00
 Coeff-Com:  0.121D+01
 Coeff:      0.593D-03-0.389D-02 0.124D-01 0.120D-01-0.547D-01-0.176D+00
 Coeff:      0.121D+01
 Gap=     0.489 Goal=   None    Shift=    0.000
 RMSDP=1.80D-06 MaxDP=5.21D-05 DE=-9.36D-08 OVMax= 2.91D-05

 Cycle   8  Pass 1  IDiag  1:
 E= -512.519121083526     Delta-E=       -0.000000004587 Rises=F Damp=F
 DIIS: error= 6.71D-07 at cycle   8 NSaved=   8.
 NSaved= 8 IEnMin= 8 EnMin= -512.519121083526     IErMin= 8 ErrMin= 6.71D-07
 ErrMax= 6.71D-07  0.00D+00 EMaxC= 1.00D-01 BMatC= 1.69D-10 BMatP= 1.60D-09
 IDIUse=1 WtCom= 1.00D+00 WtEn= 0.00D+00
 Coeff-Com:  0.248D-03-0.131D-02 0.202D-02 0.833D-02-0.328D-02-0.864D-01
 Coeff-Com:  0.602D-01 0.102D+01
 Coeff:      0.248D-03-0.131D-02 0.202D-02 0.833D-02-0.328D-02-0.864D-01
 Coeff:      0.602D-01 0.102D+01
 Gap=     0.489 Goal=   None    Shift=    0.000
 RMSDP=6.01D-07 MaxDP=2.05D-05 DE=-4.59D-09 OVMax= 6.84D-06

 Cycle   9  Pass 1  IDiag  1:
 E= -512.519121083867     Delta-E=       -0.000000000340 Rises=F Damp=F
 DIIS: error= 2.68D-07 at cycle   9 NSaved=   9.
 NSaved= 9 IEnMin= 9 EnMin= -512.519121083867     IErMin= 9 ErrMin= 2.68D-07
 ErrMax= 2.68D-07  0.00D+00 EMaxC= 1.00D-01 BMatC= 2.57D-11 BMatP= 1.69D-10
 IDIUse=1 WtCom= 1.00D+00 WtEn= 0.00D+00
 Coeff-Com: -0.472D-04 0.357D-03-0.146D-02-0.421D-03 0.735D-02 0.121D-01
 Coeff-Com: -0.170D+00 0.175D+00 0.977D+00
 Coeff:     -0.472D-04 0.357D-03-0.146D-02-0.421D-03 0.735D-02 0.121D-01
 Coeff:     -0.170D+00 0.175D+00 0.977D+00
 Gap=     0.489 Goal=   None    Shift=    0.000
 RMSDP=2.02D-07 MaxDP=7.28D-06 DE=-3.40D-10 OVMax= 2.27D-06

 Cycle  10  Pass 1  IDiag  1:
 E= -512.519121083916     Delta-E=       -0.000000000049 Rises=F Damp=F
 DIIS: error= 8.31D-08 at cycle  10 NSaved=  10.
 NSaved=10 IEnMin=10 EnMin= -512.519121083916     IErMin=10 ErrMin= 8.31D-08
 ErrMax= 8.31D-08  0.00D+00 EMaxC= 1.00D-01 BMatC= 1.14D-12 BMatP= 2.57D-11
 IDIUse=1 WtCom= 1.00D+00 WtEn= 0.00D+00
 Coeff-Com: -0.125D-04 0.564D-04-0.226D-04-0.527D-03-0.341D-03 0.511D-02
 Coeff-Com:  0.100D-01-0.883D-01-0.689D-01 0.114D+01
 Coeff:     -0.125D-04 0.564D-04-0.226D-04-0.527D-03-0.341D-03 0.511D-02
 Coeff:      0.100D-01-0.883D-01-0.689D-01 0.114D+01
 Gap=     0.489 Goal=   None    Shift=    0.000
 RMSDP=2.28D-08 MaxDP=3.38D-07 DE=-4.93D-11 OVMax= 5.36D-07

 Cycle  11  Pass 1  IDiag  1:
 E= -512.519121083911     Delta-E=        0.000000000005 Rises=F Damp=F
 DIIS: error= 1.59D-08 at cycle  11 NSaved=  11.
 NSaved=11 IEnMin=10 EnMin= -512.519121083916     IErMin=11 ErrMin= 1.59D-08
 ErrMax= 1.59D-08  0.00D+00 EMaxC= 1.00D-01 BMatC= 1.11D-13 BMatP= 1.14D-12
 IDIUse=1 WtCom= 1.00D+00 WtEn= 0.00D+00
 Coeff-Com:  0.860D-06-0.134D-04 0.927D-04-0.693D-04-0.546D-03 0.124D-03
 Coeff-Com:  0.129D-01-0.275D-01-0.749D-01 0.204D+00 0.886D+00
 Coeff:      0.860D-06-0.134D-04 0.927D-04-0.693D-04-0.546D-03 0.124D-03
 Coeff:      0.129D-01-0.275D-01-0.749D-01 0.204D+00 0.886D+00
 Gap=     0.489 Goal=   None    Shift=    0.000
 RMSDP=1.14D-08 MaxDP=3.97D-07 DE= 5.00D-12 OVMax= 1.10D-07

 Cycle  12  Pass 1  IDiag  1:
 E= -512.519121083921     Delta-E=       -0.000000000009 Rises=F Damp=F
 DIIS: error= 5.27D-09 at cycle  12 NSaved=  12.
 NSaved=12 IEnMin=12 EnMin= -512.519121083921     IErMin=12 ErrMin= 5.27D-09
 ErrMax= 5.27D-09  0.00D+00 EMaxC= 1.00D-01 BMatC= 1.02D-14 BMatP= 1.11D-13
 IDIUse=1 WtCom= 1.00D+00 WtEn= 0.00D+00
 Coeff-Com:  0.157D-05-0.776D-05 0.103D-04 0.575D-04-0.381D-05-0.609D-03
 Coeff-Com: -0.112D-03 0.803D-02 0.206D-02-0.112D+00 0.538D-01 0.105D+01
 Coeff:      0.157D-05-0.776D-05 0.103D-04 0.575D-04-0.381D-05-0.609D-03
 Coeff:     -0.112D-03 0.803D-02 0.206D-02-0.112D+00 0.538D-01 0.105D+01
 Gap=     0.489 Goal=   None    Shift=    0.000
 RMSDP=5.35D-09 MaxDP=1.97D-07 DE=-9.32D-12 OVMax= 3.98D-08

 SCF Done:  E(RHF) =  -512.519121084     A.U. after   12 cycles
            NFock= 12  Conv=0.54D-08     -V/T= 2.0022
 KE= 5.113721775737D+02 PE=-1.893162667066D+03 EE= 5.316762484621D+02
 Leave Link  502 at Thu Apr  2 13:29:19 2026, MaxMem=  2147483648 cpu:               3.2 elap:               0.6
 (Enter /Users/yarger/Applications/g16/l701.exe)
 ... and contract with generalized density number  0.
 Compute integral first derivatives.
 Leave Link  701 at Thu Apr  2 13:29:19 2026, MaxMem=  2147483648 cpu:               0.5 elap:               0.1
 (Enter /Users/yarger/Applications/g16/l702.exe)
 L702 exits ... SP integral derivatives will be done elsewhere.
 Leave Link  702 at Thu Apr  2 13:29:19 2026, MaxMem=  2147483648 cpu:               0.1 elap:               0.0
 (Enter /Users/yarger/Applications/g16/l703.exe)
 Integral derivatives from FoFJK, PRISM(SPDF).
 Compute integral first derivatives, UseDBF=F ICtDFT=           0.
 Calling FoFJK, ICntrl=      2127 FMM=F ISym2X=0 I1Cent= 0 IOpClX= 0 NMat=1 NMatS=1 NMatT=0.
 FoFJK:  IHMeth= 1 ICntrl=    2127 DoSepK=F KAlg= 0 I1Cent=           0 FoldK=F
 IRaf=         0 NMat=       1 IRICut=       1 DoRegI=T DoRafI=F ISym2E= 0 IDoP0=0 IntGTp=1.
 FoFCou: FMM=F IPFlag=           0 FMFlag=      100000 FMFlg1=         800
         NFxFlg=           0 DoJE=F BraDBF=F KetDBF=F FulRan=T
         wScrn=  0.000000 ICntrl=      2127 IOpCl=  0 I1Cent=           0 NGrid=           0
         NMat0=    1 NMatS0=      1 NMatT0=    0 NMatD0=    1 NMtDS0=    0 NMtDT0=    0
 Symmetry not used in FoFCou.
 Leave Link  703 at Thu Apr  2 13:29:20 2026, MaxMem=  2147483648 cpu:               3.3 elap:               0.4
 (Enter /Users/yarger/Applications/g16/l716.exe)
 Dipole        = 7.26530128D-01-6.99073748D-01-1.87108121D-03
 ***** Axes restored to original set *****
 -------------------------------------------------------------------
 Center     Atomic                   Forces (Hartrees/Bohr)
 Number     Number              X              Y              Z
 -------------------------------------------------------------------
      1        6          -0.002984084   -0.009744530   -0.001572683
      2        1          -0.002036300   -0.000988563   -0.000953293
      3        1           0.001509461   -0.002503431   -0.000830340
      4        6           0.002040985    0.019641494    0.005083029
      5        6          -0.003961519   -0.004963262    0.003334707
      6        9          -0.000371306   -0.000210140    0.001214175
      7        9          -0.000582479    0.005400083    0.004332938
      8        9          -0.001146642   -0.001405831   -0.007022290
      9        9           0.007531885   -0.005225819   -0.003586243
 -------------------------------------------------------------------
 Cartesian Forces:  Max     0.019641494 RMS     0.005403273
 Leave Link  716 at Thu Apr  2 13:29:20 2026, MaxMem=  2147483648 cpu:               0.1 elap:               0.0
 (Enter /Users/yarger/Applications/g16/l103.exe)

 GradGradGradGradGradGradGradGradGradGradGradGradGradGradGradGradGradGrad
 Berny optimization.
 Using GEDIIS/GDIIS optimizer.
 FormGI is forming the generalized inverse of G from B-inverse, IUseBI=4.
 Internal  Forces:  Max     0.012987949 RMS     0.004220326
 Search for a local minimum.
 Step number  14 out of a maximum of   40
 All quantities printed in internal units (Hartrees-Bohrs-Radians)
 RMS Force = .42203D-02 SwitMx=.10000D-02 MixMth= 1
 Mixed Optimization -- RFO/linear search
 Update second derivatives using D2CorX and points   13   14
 DE= -9.92D-04 DEPred=-7.12D-04 R= 1.39D+00
 TightC=F SS=  1.41D+00  RLast= 3.56D-01 DXNew= 1.2000D+00 1.0675D+00
 Trust test= 1.39D+00 RLast= 3.56D-01 DXMaxT set to 1.07D+00
 ITU=  1  1  1 -1  0  0  0  0  0  1  1  1  1  0
 Use linear search instead of GDIIS.
     Eigenvalues ---    0.00259   0.01731   0.02843   0.03085   0.11221
     Eigenvalues ---    0.12301   0.13759   0.17792   0.20563   0.24847
     Eigenvalues ---    0.25498   0.27107   0.30563   0.35402   0.37020
     Eigenvalues ---    0.47157   0.54100   0.56968   0.60472   0.60984
     Eigenvalues ---    0.77030
 RFO step:  Lambda=-1.10170701D-03 EMin= 2.58865590D-03
 Quartic linear search produced a step of  1.20940.
 Iteration  1 RMS(Cart)=  0.06402607 RMS(Int)=  0.00214706
 Iteration  2 RMS(Cart)=  0.00311241 RMS(Int)=  0.00027905
 Iteration  3 RMS(Cart)=  0.00000600 RMS(Int)=  0.00027902
 Iteration  4 RMS(Cart)=  0.00000000 RMS(Int)=  0.00027902
 ITry= 1 IFail=0 DXMaxC= 1.58D-01 DCOld= 1.00D+10 DXMaxT= 1.07D+00 DXLimC= 3.00D+00 Rises=F
 Variable       Old X    -DE/DX   Delta X   Delta X   Delta X     New X
                                 (Linear)    (Quad)   (Total)
    R1        2.02475  -0.00044  -0.00193   0.00067  -0.00126   2.02349
    R2        2.02463   0.00174   0.00120   0.00292   0.00412   2.02875
    R3        2.48888  -0.01299  -0.00480  -0.01632  -0.02112   2.46776
    R4        2.82956   0.00615  -0.00605   0.01661   0.01056   2.84012
    R5        2.48370   0.00821   0.00471   0.01908   0.02379   2.50749
    R6        2.49715   0.00087   0.00359  -0.00417  -0.00058   2.49657
    R7        2.48062   0.00669   0.00189   0.00979   0.01168   2.49230
    R8        2.48691   0.00682  -0.00046   0.01079   0.01033   2.49724
    A1        2.05286   0.00323   0.00483   0.02277   0.02749   2.08035
    A2        2.10739  -0.00145   0.00264  -0.00531  -0.00277   2.10461
    A3        2.12285  -0.00178  -0.00748  -0.01712  -0.02471   2.09814
    A4        2.17813   0.00464   0.01856   0.02070   0.03872   2.21686
    A5        2.18245  -0.00898  -0.00644  -0.03478  -0.04176   2.14069
    A6        1.92195   0.00435  -0.01019   0.01438   0.00365   1.92560
    A7        1.92943   0.00094  -0.00070   0.00527   0.00456   1.93399
    A8        1.95274  -0.00223   0.00681  -0.01336  -0.00655   1.94619
    A9        1.94575  -0.00275  -0.01219  -0.00277  -0.01498   1.93077
   A10        1.88746   0.00014  -0.00102  -0.00334  -0.00436   1.88309
   A11        1.87135   0.00092  -0.00081   0.00931   0.00849   1.87984
   A12        1.87381   0.00323   0.00812   0.00576   0.01387   1.88768
    D1        0.05183  -0.00087  -0.04161  -0.03586  -0.07703  -0.02520
    D2       -3.13241  -0.00033   0.00216  -0.02606  -0.02434   3.12643
    D3       -3.10421  -0.00053  -0.04185  -0.00739  -0.04880   3.13017
    D4       -0.00527   0.00001   0.00192   0.00241   0.00389  -0.00137
    D5       -2.28286   0.00087   0.18744  -0.04834   0.13943  -2.14343
    D6       -0.17811   0.00019   0.19023  -0.05794   0.13262  -0.04550
    D7        1.92053   0.00087   0.19692  -0.06171   0.13553   2.05606
    D8        0.89591   0.00069   0.14934  -0.05578   0.09324   0.98914
    D9        3.00066   0.00001   0.15214  -0.06539   0.08642   3.08708
   D10       -1.18388   0.00070   0.15882  -0.06916   0.08934  -1.09455
         Item               Value     Threshold  Converged?
 Maximum Force            0.012988     0.000015     NO 
 RMS     Force            0.004220     0.000010     NO 
 Maximum Displacement     0.158030     0.000060     NO 
 RMS     Displacement     0.064674     0.000040     NO 
 Predicted change in Energy=-1.042289D-03
 Lowest energy point so far.  Saving SCF results.
 GradGradGradGradGradGradGradGradGradGradGradGradGradGradGradGradGradGrad

 Leave Link  103 at Thu Apr  2 13:29:20 2026, MaxMem=  2147483648 cpu:               0.1 elap:               0.0
 (Enter /Users/yarger/Applications/g16/l202.exe)
                          Input orientation:                          
 ---------------------------------------------------------------------
 Center     Atomic      Atomic             Coordinates (Angstroms)
 Number     Number       Type             X           Y           Z
 ---------------------------------------------------------------------
      1          6           0        1.737030    1.026277    0.207930
      2          1           0        1.356176    1.931474    0.634721
      3          1           0        2.796610    0.914854    0.075934
      4          6           0        0.924774    0.073381   -0.162951
      5          6           0       -0.572926    0.061504   -0.038292
      6          9           0       -0.977527   -0.984709    0.659640
      7          9           0       -1.016559    1.147189    0.564949
      8          9           0       -1.138735   -0.007482   -1.230526
      9          9           0        1.350675   -1.057321   -0.711408
 ---------------------------------------------------------------------
                    Distance matrix (angstroms):
                    1          2          3          4          5
     1  C    0.000000
     2  H    1.070786   0.000000
     3  H    1.073568   1.849489   0.000000
     4  C    1.305881   2.067583   2.066135   0.000000
     5  C    2.515415   2.769688   3.477791   1.502926   0.000000
     6  F    3.408362   3.735093   4.265345   2.327006   1.321126
     7  F    2.779269   2.499969   3.851412   2.334882   1.318871
     8  F    3.377549   3.669234   4.247880   2.324720   1.321484
     9  F    2.309943   3.277955   2.569068   1.326908   2.324887
                    6          7          8          9
     6  F    0.000000
     7  F    2.134357   0.000000
     8  F    2.133937   2.138206   0.000000
     9  F    2.702882   3.477463   2.751147   0.000000
 Stoichiometry    C3H2F4
 Framework group  C1[X(C3H2F4)]
 Deg. of freedom    21
 Full point group                 C1      NOp   1
 RotChk:  IX=3 Diff= 8.30D-02
 Largest Abelian subgroup         C1      NOp   1
 Largest concise Abelian subgroup C1      NOp   1
                         Standard orientation:                         
 ---------------------------------------------------------------------
 Center     Atomic      Atomic             Coordinates (Angstroms)
 Number     Number       Type             X           Y           Z
 ---------------------------------------------------------------------
      1          6           0        1.714167   -1.061615   -0.000657
      2          1           0        1.317943   -2.056232    0.017410
      3          1           0        2.778588   -0.922023   -0.008960
      4          6           0        0.915843   -0.028178    0.002830
      5          6           0       -0.586978   -0.045720    0.000417
      6          9           0       -1.062500    0.622645   -1.035217
      7          9           0       -1.056088   -1.276774   -0.061746
      8          9           0       -1.060879    0.520689    1.096282
      9          9           0        1.362275    1.221366   -0.001984
 ---------------------------------------------------------------------
 Rotational constants (GHZ):           3.8038099           2.5019267           2.0351503
 Leave Link  202 at Thu Apr  2 13:29:20 2026, MaxMem=  2147483648 cpu:               0.0 elap:               0.0
 (Enter /Users/yarger/Applications/g16/l301.exe)
 Standard basis: 6-31+G(d) (6D, 7F)
 Ernie: Thresh=  0.10000D-02 Tol=  0.10000D-05 Strict=F.
 There are   137 symmetry adapted cartesian basis functions of A   symmetry.
 There are   137 symmetry adapted basis functions of A   symmetry.
   137 basis functions,   232 primitive gaussians,   137 cartesian basis functions
    28 alpha electrons       28 beta electrons
       nuclear repulsion energy       336.4710973304 Hartrees.
 IExCor=    0 DFT=F Ex=HF Corr=None ExCW=0 ScaHFX=  1.000000
 ScaDFX=  1.000000  1.000000  1.000000  1.000000 ScalE2=  1.000000  1.000000
 IRadAn=      5 IRanWt=     -1 IRanGd=            0 ICorTp=0 IEmpDi=  4
 NAtoms=    9 NActive=    9 NUniq=    9 SFac= 1.00D+00 NAtFMM=   60 NAOKFM=F Big=F
 Integral buffers will be    131072 words long.
 Raffenetti 1 integral format.
 Two-electron integral symmetry is turned on.
 Leave Link  301 at Thu Apr  2 13:29:20 2026, MaxMem=  2147483648 cpu:               0.1 elap:               0.0
 (Enter /Users/yarger/Applications/g16/l302.exe)
 NPDir=0 NMtPBC=     1 NCelOv=     1 NCel=       1 NClECP=     1 NCelD=      1
         NCelK=      1 NCelE2=     1 NClLst=     1 CellRange=     0.0.
 One-electron integrals computed using PRISM.
 One-electron integral symmetry used in STVInt
 NBasis=   137 RedAO= T EigKep=  6.32D-05  NBF=   137
 NBsUse=   137 1.00D-06 EigRej= -1.00D+00 NBFU=   137
 Leave Link  302 at Thu Apr  2 13:29:20 2026, MaxMem=  2147483648 cpu:               0.7 elap:               0.1
 (Enter /Users/yarger/Applications/g16/l303.exe)
 DipDrv:  MaxL=1.
 Leave Link  303 at Thu Apr  2 13:29:20 2026, MaxMem=  2147483648 cpu:               0.1 elap:               0.0
 (Enter /Users/yarger/Applications/g16/l401.exe)
 Initial guess from the checkpoint file:  "2223Tetrafluoropropene_Opt_Freq_HF_631pd_Gaussian16.chk"
 B after Tr=     0.000000    0.000000    0.000000
         Rot=    0.999315    0.036767    0.000440    0.004084 Ang=   4.24 deg.
 Guess basis will be translated and rotated to current coordinates.
 JPrj=2 DoOrth=T DoCkMO=T.
 Generating alternative initial guess.
 ExpMin= 4.38D-02 ExpMax= 7.00D+03 ExpMxC= 1.05D+03 IAcc=2 IRadAn=         4 AccDes= 0.00D+00
 Harris functional with IExCor=  205 and IRadAn=       4 diagonalized for initial guess.
 HarFok:  IExCor=  205 AccDes= 0.00D+00 IRadAn=         4 IDoV= 1 UseB2=F ITyADJ=14
 ICtDFT=  3500011 ScaDFX=  1.000000  1.000000  1.000000  1.000000
 FoFCou: FMM=F IPFlag=           0 FMFlag=      100000 FMFlg1=           0
         NFxFlg=           0 DoJE=T BraDBF=F KetDBF=T FulRan=T
         wScrn=  0.000000 ICntrl=       500 IOpCl=  0 I1Cent=   200000004 NGrid=           0
         NMat0=    1 NMatS0=      1 NMatT0=    0 NMatD0=    1 NMtDS0=    0 NMtDT0=    0
 Petite list used in FoFCou.
 Harris En= -512.529591187155    
 Leave Link  401 at Thu Apr  2 13:29:20 2026, MaxMem=  2147483648 cpu:               1.3 elap:               0.2
 (Enter /Users/yarger/Applications/g16/l502.exe)
 Keep R1 ints in memory in canonical form, NReq=46403241.
 FoFCou: FMM=F IPFlag=           0 FMFlag=           0 FMFlg1=           0
         NFxFlg=           0 DoJE=F BraDBF=F KetDBF=F FulRan=T
         wScrn=  0.000000 ICntrl=       600 IOpCl=  0 I1Cent=           0 NGrid=           0
         NMat0=    1 NMatS0=   9453 NMatT0=    0 NMatD0=    1 NMtDS0=    0 NMtDT0=    0
 Symmetry not used in FoFCou.
 Two-electron integral symmetry not used.
 Closed shell SCF:
 Using DIIS extrapolation, IDIIS=  1040.
 NGot=  2147483648 LenX=  2102759234 LenY=  2102740024
 Requested convergence on RMS density matrix=1.00D-08 within 128 cycles.
 Requested convergence on MAX density matrix=1.00D-06.
 Requested convergence on             energy=1.00D-06.
 No special actions if energy rises.

 Cycle   1  Pass 1  IDiag  1:
 E= -512.512882694666    
 DIIS: error= 5.41D-03 at cycle   1 NSaved=   1.
 NSaved= 1 IEnMin= 1 EnMin= -512.512882694666     IErMin= 1 ErrMin= 5.41D-03
 ErrMax= 5.41D-03  0.00D+00 EMaxC= 1.00D-01 BMatC= 4.56D-03 BMatP= 4.56D-03
 IDIUse=3 WtCom= 9.46D-01 WtEn= 5.41D-02
 Coeff-Com:  0.100D+01
 Coeff-En:   0.100D+01
 Coeff:      0.100D+01
 Gap=     0.997 Goal=   None    Shift=    0.000
 GapD=    0.997 DampG=2.000 DampE=1.000 DampFc=2.0000 IDamp=-1.
 RMSDP=1.07D-03 MaxDP=2.38D-02              OVMax= 1.65D-02

 Cycle   2  Pass 1  IDiag  1:
 E= -512.519266557582     Delta-E=       -0.006383862916 Rises=F Damp=F
 DIIS: error= 1.41D-03 at cycle   2 NSaved=   2.
 NSaved= 2 IEnMin= 2 EnMin= -512.519266557582     IErMin= 2 ErrMin= 1.41D-03
 ErrMax= 1.41D-03  0.00D+00 EMaxC= 1.00D-01 BMatC= 3.28D-04 BMatP= 4.56D-03
 IDIUse=3 WtCom= 9.86D-01 WtEn= 1.41D-02
 Coeff-Com: -0.269D+00 0.127D+01
 Coeff-En:   0.000D+00 0.100D+01
 Coeff:     -0.265D+00 0.127D+01
 Gap=     0.492 Goal=   None    Shift=    0.000
 RMSDP=2.83D-04 MaxDP=5.04D-03 DE=-6.38D-03 OVMax= 7.26D-03

 Cycle   3  Pass 1  IDiag  1:
 E= -512.519968749052     Delta-E=       -0.000702191470 Rises=F Damp=F
 DIIS: error= 3.37D-04 at cycle   3 NSaved=   3.
 NSaved= 3 IEnMin= 3 EnMin= -512.519968749052     IErMin= 3 ErrMin= 3.37D-04
 ErrMax= 3.37D-04  0.00D+00 EMaxC= 1.00D-01 BMatC= 2.07D-05 BMatP= 3.28D-04
 IDIUse=3 WtCom= 9.97D-01 WtEn= 3.37D-03
 Coeff-Com: -0.398D-01 0.557D-01 0.984D+00
 Coeff-En:   0.000D+00 0.000D+00 0.100D+01
 Coeff:     -0.396D-01 0.555D-01 0.984D+00
 Gap=     0.493 Goal=   None    Shift=    0.000
 RMSDP=7.52D-05 MaxDP=2.33D-03 DE=-7.02D-04 OVMax= 1.75D-03

 Cycle   4  Pass 1  IDiag  1:
 E= -512.520008203976     Delta-E=       -0.000039454924 Rises=F Damp=F
 DIIS: error= 1.44D-04 at cycle   4 NSaved=   4.
 NSaved= 4 IEnMin= 4 EnMin= -512.520008203976     IErMin= 4 ErrMin= 1.44D-04
 ErrMax= 1.44D-04  0.00D+00 EMaxC= 1.00D-01 BMatC= 4.39D-06 BMatP= 2.07D-05
 IDIUse=3 WtCom= 9.99D-01 WtEn= 1.44D-03
 Coeff-Com:  0.299D-01-0.169D+00 0.202D+00 0.937D+00
 Coeff-En:   0.000D+00 0.000D+00 0.000D+00 0.100D+01
 Coeff:      0.298D-01-0.169D+00 0.202D+00 0.937D+00
 Gap=     0.492 Goal=   None    Shift=    0.000
 RMSDP=3.71D-05 MaxDP=1.16D-03 DE=-3.95D-05 OVMax= 8.58D-04

 Cycle   5  Pass 1  IDiag  1:
 E= -512.520016037318     Delta-E=       -0.000007833342 Rises=F Damp=F
 DIIS: error= 4.53D-05 at cycle   5 NSaved=   5.
 NSaved= 5 IEnMin= 5 EnMin= -512.520016037318     IErMin= 5 ErrMin= 4.53D-05
 ErrMax= 4.53D-05  0.00D+00 EMaxC= 1.00D-01 BMatC= 3.43D-07 BMatP= 4.39D-06
 IDIUse=1 WtCom= 1.00D+00 WtEn= 0.00D+00
 Coeff-Com:  0.108D-02 0.114D-01-0.121D+00-0.797D-01 0.119D+01
 Coeff:      0.108D-02 0.114D-01-0.121D+00-0.797D-01 0.119D+01
 Gap=     0.492 Goal=   None    Shift=    0.000
 RMSDP=1.44D-05 MaxDP=3.70D-04 DE=-7.83D-06 OVMax= 3.90D-04

 Cycle   6  Pass 1  IDiag  1:
 E= -512.520017011730     Delta-E=       -0.000000974413 Rises=F Damp=F
 DIIS: error= 1.23D-05 at cycle   6 NSaved=   6.
 NSaved= 6 IEnMin= 6 EnMin= -512.520017011730     IErMin= 6 ErrMin= 1.23D-05
 ErrMax= 1.23D-05  0.00D+00 EMaxC= 1.00D-01 BMatC= 3.12D-08 BMatP= 3.43D-07
 IDIUse=1 WtCom= 1.00D+00 WtEn= 0.00D+00
 Coeff-Com: -0.304D-02 0.183D-01-0.253D-01-0.101D+00 0.227D-01 0.109D+01
 Coeff:     -0.304D-02 0.183D-01-0.253D-01-0.101D+00 0.227D-01 0.109D+01
 Gap=     0.492 Goal=   None    Shift=    0.000
 RMSDP=4.60D-06 MaxDP=1.10D-04 DE=-9.74D-07 OVMax= 1.26D-04

 Cycle   7  Pass 1  IDiag  1:
 E= -512.520017097408     Delta-E=       -0.000000085678 Rises=F Damp=F
 DIIS: error= 2.83D-06 at cycle   7 NSaved=   7.
 NSaved= 7 IEnMin= 7 EnMin= -512.520017097408     IErMin= 7 ErrMin= 2.83D-06
 ErrMax= 2.83D-06  0.00D+00 EMaxC= 1.00D-01 BMatC= 2.32D-09 BMatP= 3.12D-08
 IDIUse=1 WtCom= 1.00D+00 WtEn= 0.00D+00
 Coeff-Com: -0.277D-03 0.275D-03 0.826D-02-0.540D-03-0.921D-01 0.716D-01
 Coeff-Com:  0.101D+01
 Coeff:     -0.277D-03 0.275D-03 0.826D-02-0.540D-03-0.921D-01 0.716D-01
 Coeff:      0.101D+01
 Gap=     0.492 Goal=   None    Shift=    0.000
 RMSDP=1.40D-06 MaxDP=3.14D-05 DE=-8.57D-08 OVMax= 3.00D-05

 Cycle   8  Pass 1  IDiag  1:
 E= -512.520017102639     Delta-E=       -0.000000005231 Rises=F Damp=F
 DIIS: error= 8.86D-07 at cycle   8 NSaved=   8.
 NSaved= 8 IEnMin= 8 EnMin= -512.520017102639     IErMin= 8 ErrMin= 8.86D-07
 ErrMax= 8.86D-07  0.00D+00 EMaxC= 1.00D-01 BMatC= 2.59D-10 BMatP= 2.32D-09
 IDIUse=1 WtCom= 1.00D+00 WtEn= 0.00D+00
 Coeff-Com:  0.227D-03-0.152D-02 0.308D-02 0.831D-02-0.126D-01-0.819D-01
 Coeff-Com:  0.100D+00 0.984D+00
 Coeff:      0.227D-03-0.152D-02 0.308D-02 0.831D-02-0.126D-01-0.819D-01
 Coeff:      0.100D+00 0.984D+00
 Gap=     0.492 Goal=   None    Shift=    0.000
 RMSDP=6.03D-07 MaxDP=1.82D-05 DE=-5.23D-09 OVMax= 8.41D-06

 Cycle   9  Pass 1  IDiag  1:
 E= -512.520017103142     Delta-E=       -0.000000000503 Rises=F Damp=F
 DIIS: error= 3.29D-07 at cycle   9 NSaved=   9.
 NSaved= 9 IEnMin= 9 EnMin= -512.520017103142     IErMin= 9 ErrMin= 3.29D-07
 ErrMax= 3.29D-07  0.00D+00 EMaxC= 1.00D-01 BMatC= 3.41D-11 BMatP= 2.59D-10
 IDIUse=1 WtCom= 1.00D+00 WtEn= 0.00D+00
 Coeff-Com:  0.638D-04-0.226D-03-0.648D-03 0.119D-02 0.101D-01-0.202D-01
 Coeff-Com: -0.118D+00 0.133D+00 0.995D+00
 Coeff:      0.638D-04-0.226D-03-0.648D-03 0.119D-02 0.101D-01-0.202D-01
 Coeff:     -0.118D+00 0.133D+00 0.995D+00
 Gap=     0.492 Goal=   None    Shift=    0.000
 RMSDP=2.46D-07 MaxDP=8.41D-06 DE=-5.03D-10 OVMax= 2.88D-06

 Cycle  10  Pass 1  IDiag  1:
 E= -512.520017103207     Delta-E=       -0.000000000065 Rises=F Damp=F
 DIIS: error= 9.68D-08 at cycle  10 NSaved=  10.
 NSaved=10 IEnMin=10 EnMin= -512.520017103207     IErMin=10 ErrMin= 9.68D-08
 ErrMax= 9.68D-08  0.00D+00 EMaxC= 1.00D-01 BMatC= 2.31D-12 BMatP= 3.41D-11
 IDIUse=1 WtCom= 1.00D+00 WtEn= 0.00D+00
 Coeff-Com: -0.215D-04 0.141D-03-0.285D-03-0.781D-03 0.118D-02 0.798D-02
 Coeff-Com: -0.877D-02-0.976D-01-0.895D-02 0.111D+01
 Coeff:     -0.215D-04 0.141D-03-0.285D-03-0.781D-03 0.118D-02 0.798D-02
 Coeff:     -0.877D-02-0.976D-01-0.895D-02 0.111D+01
 Gap=     0.492 Goal=   None    Shift=    0.000
 RMSDP=4.89D-08 MaxDP=1.63D-06 DE=-6.55D-11 OVMax= 7.28D-07

 Cycle  11  Pass 1  IDiag  1:
 E= -512.520017103208     Delta-E=       -0.000000000001 Rises=F Damp=F
 DIIS: error= 2.57D-08 at cycle  11 NSaved=  11.
 NSaved=11 IEnMin=11 EnMin= -512.520017103208     IErMin=11 ErrMin= 2.57D-08
 ErrMax= 2.57D-08  0.00D+00 EMaxC= 1.00D-01 BMatC= 1.14D-13 BMatP= 2.31D-12
 IDIUse=1 WtCom= 1.00D+00 WtEn= 0.00D+00
 Coeff-Com: -0.140D-05-0.332D-05 0.758D-04 0.197D-04-0.809D-03 0.324D-03
 Coeff-Com:  0.938D-02 0.315D-02-0.657D-01-0.138D+00 0.119D+01
 Coeff:     -0.140D-05-0.332D-05 0.758D-04 0.197D-04-0.809D-03 0.324D-03
 Coeff:      0.938D-02 0.315D-02-0.657D-01-0.138D+00 0.119D+01
 Gap=     0.492 Goal=   None    Shift=    0.000
 RMSDP=1.42D-08 MaxDP=4.26D-07 DE=-1.14D-12 OVMax= 1.94D-07

 Cycle  12  Pass 1  IDiag  1:
 E= -512.520017103215     Delta-E=       -0.000000000007 Rises=F Damp=F
 DIIS: error= 4.70D-09 at cycle  12 NSaved=  12.
 NSaved=12 IEnMin=12 EnMin= -512.520017103215     IErMin=12 ErrMin= 4.70D-09
 ErrMax= 4.70D-09  0.00D+00 EMaxC= 1.00D-01 BMatC= 5.27D-15 BMatP= 1.14D-13
 IDIUse=1 WtCom= 1.00D+00 WtEn= 0.00D+00
 Coeff-Com:  0.112D-05-0.606D-05 0.543D-05 0.346D-04 0.292D-04-0.397D-03
 Coeff-Com: -0.539D-03 0.377D-02 0.743D-02-0.334D-01-0.119D+00 0.114D+01
 Coeff:      0.112D-05-0.606D-05 0.543D-05 0.346D-04 0.292D-04-0.397D-03
 Coeff:     -0.539D-03 0.377D-02 0.743D-02-0.334D-01-0.119D+00 0.114D+01
 Gap=     0.492 Goal=   None    Shift=    0.000
 RMSDP=4.42D-09 MaxDP=1.59D-07 DE=-7.05D-12 OVMax= 3.30D-08

 SCF Done:  E(RHF) =  -512.520017103     A.U. after   12 cycles
            NFock= 12  Conv=0.44D-08     -V/T= 2.0023
 KE= 5.113246204641D+02 PE=-1.890899090368D+03 EE= 5.305833554700D+02
 Leave Link  502 at Thu Apr  2 13:29:21 2026, MaxMem=  2147483648 cpu:               3.2 elap:               0.7
 (Enter /Users/yarger/Applications/g16/l701.exe)
 ... and contract with generalized density number  0.
 Compute integral first derivatives.
 Leave Link  701 at Thu Apr  2 13:29:21 2026, MaxMem=  2147483648 cpu:               0.5 elap:               0.1
 (Enter /Users/yarger/Applications/g16/l702.exe)
 L702 exits ... SP integral derivatives will be done elsewhere.
 Leave Link  702 at Thu Apr  2 13:29:21 2026, MaxMem=  2147483648 cpu:               0.1 elap:               0.0
 (Enter /Users/yarger/Applications/g16/l703.exe)
 Integral derivatives from FoFJK, PRISM(SPDF).
 Compute integral first derivatives, UseDBF=F ICtDFT=           0.
 Calling FoFJK, ICntrl=      2127 FMM=F ISym2X=0 I1Cent= 0 IOpClX= 0 NMat=1 NMatS=1 NMatT=0.
 FoFJK:  IHMeth= 1 ICntrl=    2127 DoSepK=F KAlg= 0 I1Cent=           0 FoldK=F
 IRaf=         0 NMat=       1 IRICut=       1 DoRegI=T DoRafI=F ISym2E= 0 IDoP0=0 IntGTp=1.
 FoFCou: FMM=F IPFlag=           0 FMFlag=      100000 FMFlg1=         800
         NFxFlg=           0 DoJE=F BraDBF=F KetDBF=F FulRan=T
         wScrn=  0.000000 ICntrl=      2127 IOpCl=  0 I1Cent=           0 NGrid=           0
         NMat0=    1 NMatS0=      1 NMatT0=    0 NMatD0=    1 NMtDS0=    0 NMtDT0=    0
 Symmetry not used in FoFCou.
 Leave Link  703 at Thu Apr  2 13:29:22 2026, MaxMem=  2147483648 cpu:               3.4 elap:               0.5
 (Enter /Users/yarger/Applications/g16/l716.exe)
 Dipole        = 6.94691263D-01-7.21590062D-01 3.59068365D-03
 ***** Axes restored to original set *****
 -------------------------------------------------------------------
 Center     Atomic                   Forces (Hartrees/Bohr)
 Number     Number              X              Y              Z
 -------------------------------------------------------------------
      1        6           0.001316293    0.002190975   -0.000337748
      2        1           0.000036714   -0.000150420    0.001064388
      3        1          -0.000207464    0.000442556   -0.000127468
      4        6          -0.001097336   -0.003129959    0.000668317
      5        6           0.000372260   -0.000168714   -0.000188354
      6        9          -0.000029706    0.000845439   -0.001433939
      7        9           0.000589879    0.000111737   -0.001088221
      8        9          -0.001057597   -0.000360150    0.001477136
      9        9           0.000076956    0.000218537   -0.000034112
 -------------------------------------------------------------------
 Cartesian Forces:  Max     0.003129959 RMS     0.001009411
 Leave Link  716 at Thu Apr  2 13:29:22 2026, MaxMem=  2147483648 cpu:               0.1 elap:               0.0
 (Enter /Users/yarger/Applications/g16/l103.exe)

 GradGradGradGradGradGradGradGradGradGradGradGradGradGradGradGradGradGrad
 Berny optimization.
 Using GEDIIS/GDIIS optimizer.
 FormGI is forming the generalized inverse of G from B-inverse, IUseBI=4.
 Internal  Forces:  Max     0.002694613 RMS     0.000997240
 Search for a local minimum.
 Step number  15 out of a maximum of   40
 All quantities printed in internal units (Hartrees-Bohrs-Radians)
 RMS Force = .99724D-03 SwitMx=.10000D-02 MixMth= 2
 Mixed Optimization -- En-DIIS/RFO-DIIS
 Update second derivatives using D2CorX and points   14   15
 DE= -8.96D-04 DEPred=-1.04D-03 R= 8.60D-01
 TightC=F SS=  1.41D+00  RLast= 3.08D-01 DXNew= 1.7954D+00 9.2491D-01
 Trust test= 8.60D-01 RLast= 3.08D-01 DXMaxT set to 1.07D+00
 ITU=  1  1  1  1 -1  0  0  0  0  0  1  1  1  1  0
 Use linear search instead of GDIIS.
     Eigenvalues ---    0.00235   0.01775   0.03069   0.03130   0.11307
     Eigenvalues ---    0.12450   0.13862   0.17860   0.21133   0.25464
     Eigenvalues ---    0.25882   0.26964   0.30133   0.35441   0.37009
     Eigenvalues ---    0.46678   0.53695   0.56913   0.60723   0.62407
     Eigenvalues ---    0.78475
 RFO step:  Lambda=-2.28704857D-04 EMin= 2.35331278D-03
 Quartic linear search produced a step of -0.09476.
 Iteration  1 RMS(Cart)=  0.05009273 RMS(Int)=  0.00113114
 Iteration  2 RMS(Cart)=  0.00120391 RMS(Int)=  0.00001550
 Iteration  3 RMS(Cart)=  0.00000045 RMS(Int)=  0.00001550
 ITry= 1 IFail=0 DXMaxC= 1.22D-01 DCOld= 1.00D+10 DXMaxT= 1.07D+00 DXLimC= 3.00D+00 Rises=F
 Variable       Old X    -DE/DX   Delta X   Delta X   Delta X     New X
                                 (Linear)    (Quad)   (Total)
    R1        2.02349   0.00028   0.00012   0.00048   0.00060   2.02410
    R2        2.02875  -0.00024  -0.00039  -0.00028  -0.00067   2.02808
    R3        2.46776   0.00269   0.00200   0.00223   0.00424   2.47199
    R4        2.84012   0.00002  -0.00100  -0.00125  -0.00225   2.83787
    R5        2.50749  -0.00015  -0.00225   0.00108  -0.00118   2.50631
    R6        2.49657  -0.00142   0.00006  -0.00019  -0.00013   2.49643
    R7        2.49230  -0.00060  -0.00111  -0.00100  -0.00210   2.49020
    R8        2.49724  -0.00086  -0.00098  -0.00090  -0.00188   2.49536
    A1        2.08035  -0.00027  -0.00260   0.00052  -0.00211   2.07824
    A2        2.10461  -0.00010   0.00026  -0.00086  -0.00063   2.10399
    A3        2.09814   0.00038   0.00234   0.00050   0.00282   2.10096
    A4        2.21686  -0.00151  -0.00367  -0.00055  -0.00422   2.21263
    A5        2.14069   0.00057   0.00396   0.00076   0.00471   2.14540
    A6        1.92560   0.00094  -0.00035  -0.00012  -0.00047   1.92513
    A7        1.93399   0.00058  -0.00043  -0.00013  -0.00056   1.93343
    A8        1.94619  -0.00134   0.00062  -0.00523  -0.00460   1.94159
    A9        1.93077   0.00258   0.00142   0.00638   0.00780   1.93858
   A10        1.88309   0.00071   0.00041   0.00364   0.00406   1.88715
   A11        1.87984  -0.00171  -0.00080  -0.00504  -0.00584   1.87400
   A12        1.88768  -0.00092  -0.00131   0.00030  -0.00100   1.88668
    D1       -0.02520   0.00107   0.00730   0.02642   0.03370   0.00849
    D2        3.12643   0.00073   0.00231   0.01417   0.01650  -3.14025
    D3        3.13017   0.00044   0.00462   0.01232   0.01692  -3.13609
    D4       -0.00137   0.00010  -0.00037   0.00007  -0.00027  -0.00165
    D5       -2.14343  -0.00007  -0.01321   0.08705   0.07382  -2.06961
    D6       -0.04550   0.00033  -0.01257   0.08808   0.07550   0.03000
    D7        2.05606   0.00002  -0.01284   0.08929   0.07643   2.13249
    D8        0.98914   0.00024  -0.00884   0.09806   0.08924   1.07838
    D9        3.08708   0.00063  -0.00819   0.09909   0.09092  -3.10519
   D10       -1.09455   0.00033  -0.00847   0.10030   0.09185  -1.00270
         Item               Value     Threshold  Converged?
 Maximum Force            0.002695     0.000015     NO 
 RMS     Force            0.000997     0.000010     NO 
 Maximum Displacement     0.122219     0.000060     NO 
 RMS     Displacement     0.050089     0.000040     NO 
 Predicted change in Energy=-1.308405D-04
 Lowest energy point so far.  Saving SCF results.
 GradGradGradGradGradGradGradGradGradGradGradGradGradGradGradGradGradGrad

 Leave Link  103 at Thu Apr  2 13:29:22 2026, MaxMem=  2147483648 cpu:               0.1 elap:               0.0
 (Enter /Users/yarger/Applications/g16/l202.exe)
                          Input orientation:                          
 ---------------------------------------------------------------------
 Center     Atomic      Atomic             Coordinates (Angstroms)
 Number     Number       Type             X           Y           Z
 ---------------------------------------------------------------------
      1          6           0        1.737748    1.020433    0.221585
      2          1           0        1.357876    1.900581    0.699396
      3          1           0        2.796126    0.923495    0.072500
      4          6           0        0.924839    0.074323   -0.172418
      5          6           0       -0.571274    0.062890   -0.043072
      6          9           0       -0.969139   -0.949648    0.706365
      7          9           0       -1.011624    1.177039    0.505790
      8          9           0       -1.148849   -0.069219   -1.223175
      9          9           0        1.343815   -1.034728   -0.766974
 ---------------------------------------------------------------------
                    Distance matrix (angstroms):
                    1          2          3          4          5
     1  C    0.000000
     2  H    1.071105   0.000000
     3  H    1.073214   1.848312   0.000000
     4  C    1.308122   2.069493   2.069491   0.000000
     5  C    2.513665   2.765861   3.477553   1.501737   0.000000
     6  F    3.382819   3.679518   4.252960   2.325495   1.321055
     7  F    2.768454   2.485061   3.840700   2.329342   1.317757
     8  F    3.406921   3.722910   4.269318   2.329136   1.320488
     9  F    2.314329   3.281231   2.578480   1.326285   2.323008
                    6          7          8          9
     6  F    0.000000
     7  F    2.136547   0.000000
     8  F    2.128515   2.135722   0.000000
     9  F    2.743670   3.472741   2.711771   0.000000
 Stoichiometry    C3H2F4
 Framework group  C1[X(C3H2F4)]
 Deg. of freedom    21
 Full point group                 C1      NOp   1
 RotChk:  IX=1 Diff= 4.72D-02
 Largest Abelian subgroup         C1      NOp   1
 Largest concise Abelian subgroup C1      NOp   1
                         Standard orientation:                         
 ---------------------------------------------------------------------
 Center     Atomic      Atomic             Coordinates (Angstroms)
 Number     Number       Type             X           Y           Z
 ---------------------------------------------------------------------
      1          6           0        1.716842   -1.057106    0.000621
      2          1           0        1.320503   -2.052177   -0.003317
      3          1           0        2.781217   -0.919693    0.003725
      4          6           0        0.916310   -0.022540   -0.001684
      5          6           0       -0.585216   -0.047630    0.000563
      6          9           0       -1.065221    0.531703   -1.085326
      7          9           0       -1.042071   -1.282957    0.042196
      8          9           0       -1.069388    0.604116    1.041953
      9          9           0        1.355643    1.228863    0.001465
 ---------------------------------------------------------------------
 Rotational constants (GHZ):           3.8018060           2.5088001           2.0353856
 Leave Link  202 at Thu Apr  2 13:29:22 2026, MaxMem=  2147483648 cpu:               0.0 elap:               0.0
 (Enter /Users/yarger/Applications/g16/l301.exe)
 Standard basis: 6-31+G(d) (6D, 7F)
 Ernie: Thresh=  0.10000D-02 Tol=  0.10000D-05 Strict=F.
 There are   137 symmetry adapted cartesian basis functions of A   symmetry.
 There are   137 symmetry adapted basis functions of A   symmetry.
   137 basis functions,   232 primitive gaussians,   137 cartesian basis functions
    28 alpha electrons       28 beta electrons
       nuclear repulsion energy       336.6020906830 Hartrees.
 IExCor=    0 DFT=F Ex=HF Corr=None ExCW=0 ScaHFX=  1.000000
 ScaDFX=  1.000000  1.000000  1.000000  1.000000 ScalE2=  1.000000  1.000000
 IRadAn=      5 IRanWt=     -1 IRanGd=            0 ICorTp=0 IEmpDi=  4
 NAtoms=    9 NActive=    9 NUniq=    9 SFac= 1.00D+00 NAtFMM=   60 NAOKFM=F Big=F
 Integral buffers will be    131072 words long.
 Raffenetti 1 integral format.
 Two-electron integral symmetry is turned on.
 Leave Link  301 at Thu Apr  2 13:29:22 2026, MaxMem=  2147483648 cpu:               0.1 elap:               0.0
 (Enter /Users/yarger/Applications/g16/l302.exe)
 NPDir=0 NMtPBC=     1 NCelOv=     1 NCel=       1 NClECP=     1 NCelD=      1
         NCelK=      1 NCelE2=     1 NClLst=     1 CellRange=     0.0.
 One-electron integrals computed using PRISM.
 One-electron integral symmetry used in STVInt
 NBasis=   137 RedAO= T EigKep=  6.43D-05  NBF=   137
 NBsUse=   137 1.00D-06 EigRej= -1.00D+00 NBFU=   137
 Leave Link  302 at Thu Apr  2 13:29:22 2026, MaxMem=  2147483648 cpu:               1.3 elap:               0.2
 (Enter /Users/yarger/Applications/g16/l303.exe)
 DipDrv:  MaxL=1.
 Leave Link  303 at Thu Apr  2 13:29:22 2026, MaxMem=  2147483648 cpu:               0.2 elap:               0.0
 (Enter /Users/yarger/Applications/g16/l401.exe)
 Initial guess from the checkpoint file:  "2223Tetrafluoropropene_Opt_Freq_HF_631pd_Gaussian16.chk"
 B after Tr=    -0.000000   -0.000000   -0.000000
         Rot=    0.999679    0.025201    0.000563   -0.002496 Ang=   2.90 deg.
 Guess basis will be translated and rotated to current coordinates.
 JPrj=2 DoOrth=T DoCkMO=T.
 Generating alternative initial guess.
 ExpMin= 4.38D-02 ExpMax= 7.00D+03 ExpMxC= 1.05D+03 IAcc=2 IRadAn=         4 AccDes= 0.00D+00
 Harris functional with IExCor=  205 and IRadAn=       4 diagonalized for initial guess.
 HarFok:  IExCor=  205 AccDes= 0.00D+00 IRadAn=         4 IDoV= 1 UseB2=F ITyADJ=14
 ICtDFT=  3500011 ScaDFX=  1.000000  1.000000  1.000000  1.000000
 FoFCou: FMM=F IPFlag=           0 FMFlag=      100000 FMFlg1=           0
         NFxFlg=           0 DoJE=T BraDBF=F KetDBF=T FulRan=T
         wScrn=  0.000000 ICntrl=       500 IOpCl=  0 I1Cent=   200000004 NGrid=           0
         NMat0=    1 NMatS0=      1 NMatT0=    0 NMatD0=    1 NMtDS0=    0 NMtDT0=    0
 Petite list used in FoFCou.
 Harris En= -512.529144293661    
 Leave Link  401 at Thu Apr  2 13:29:23 2026, MaxMem=  2147483648 cpu:               1.9 elap:               0.3
 (Enter /Users/yarger/Applications/g16/l502.exe)
 Keep R1 ints in memory in canonical form, NReq=46403262.
 FoFCou: FMM=F IPFlag=           0 FMFlag=           0 FMFlg1=           0
         NFxFlg=           0 DoJE=F BraDBF=F KetDBF=F FulRan=T
         wScrn=  0.000000 ICntrl=       600 IOpCl=  0 I1Cent=           0 NGrid=           0
         NMat0=    1 NMatS0=   9453 NMatT0=    0 NMatD0=    1 NMtDS0=    0 NMtDT0=    0
 Symmetry not used in FoFCou.
 Two-electron integral symmetry not used.
 Closed shell SCF:
 Using DIIS extrapolation, IDIIS=  1040.
 NGot=  2147483648 LenX=  2102759234 LenY=  2102740024
 Requested convergence on RMS density matrix=1.00D-08 within 128 cycles.
 Requested convergence on MAX density matrix=1.00D-06.
 Requested convergence on             energy=1.00D-06.
 No special actions if energy rises.

 Cycle   1  Pass 1  IDiag  1:
 E= -512.516023558283    
 DIIS: error= 2.88D-03 at cycle   1 NSaved=   1.
 NSaved= 1 IEnMin= 1 EnMin= -512.516023558283     IErMin= 1 ErrMin= 2.88D-03
 ErrMax= 2.88D-03  0.00D+00 EMaxC= 1.00D-01 BMatC= 2.46D-03 BMatP= 2.46D-03
 IDIUse=3 WtCom= 9.71D-01 WtEn= 2.88D-02
 Coeff-Com:  0.100D+01
 Coeff-En:   0.100D+01
 Coeff:      0.100D+01
 Gap=     0.997 Goal=   None    Shift=    0.000
 GapD=    0.997 DampG=2.000 DampE=1.000 DampFc=2.0000 IDamp=-1.
 RMSDP=5.47D-04 MaxDP=1.12D-02              OVMax= 1.33D-02

 Cycle   2  Pass 1  IDiag  1:
 E= -512.519592257633     Delta-E=       -0.003568699350 Rises=F Damp=F
 DIIS: error= 8.90D-04 at cycle   2 NSaved=   2.
 NSaved= 2 IEnMin= 2 EnMin= -512.519592257633     IErMin= 2 ErrMin= 8.90D-04
 ErrMax= 8.90D-04  0.00D+00 EMaxC= 1.00D-01 BMatC= 1.92D-04 BMatP= 2.46D-03
 IDIUse=3 WtCom= 9.91D-01 WtEn= 8.90D-03
 Coeff-Com: -0.293D+00 0.129D+01
 Coeff-En:   0.000D+00 0.100D+01
 Coeff:     -0.290D+00 0.129D+01
 Gap=     0.492 Goal=   None    Shift=    0.000
 RMSDP=2.08D-04 MaxDP=4.47D-03 DE=-3.57D-03 OVMax= 7.39D-03

 Cycle   3  Pass 1  IDiag  1:
 E= -512.520049014913     Delta-E=       -0.000456757280 Rises=F Damp=F
 DIIS: error= 3.03D-04 at cycle   3 NSaved=   3.
 NSaved= 3 IEnMin= 3 EnMin= -512.520049014913     IErMin= 3 ErrMin= 3.03D-04
 ErrMax= 3.03D-04  0.00D+00 EMaxC= 1.00D-01 BMatC= 9.05D-06 BMatP= 1.92D-04
 IDIUse=3 WtCom= 9.97D-01 WtEn= 3.03D-03
 Coeff-Com:  0.360D-01-0.292D+00 0.126D+01
 Coeff-En:   0.000D+00 0.000D+00 0.100D+01
 Coeff:      0.359D-01-0.291D+00 0.126D+01
 Gap=     0.492 Goal=   None    Shift=    0.000
 RMSDP=7.48D-05 MaxDP=2.23D-03 DE=-4.57D-04 OVMax= 2.63D-03

 Cycle   4  Pass 1  IDiag  1:
 E= -512.520078280094     Delta-E=       -0.000029265181 Rises=F Damp=F
 DIIS: error= 7.52D-05 at cycle   4 NSaved=   4.
 NSaved= 4 IEnMin= 4 EnMin= -512.520078280094     IErMin= 4 ErrMin= 7.52D-05
 ErrMax= 7.52D-05  0.00D+00 EMaxC= 1.00D-01 BMatC= 9.87D-07 BMatP= 9.05D-06
 IDIUse=1 WtCom= 1.00D+00 WtEn= 0.00D+00
 Coeff-Com:  0.243D-01-0.116D+00 0.900D-01 0.100D+01
 Coeff:      0.243D-01-0.116D+00 0.900D-01 0.100D+01
 Gap=     0.492 Goal=   None    Shift=    0.000
 RMSDP=2.17D-05 MaxDP=5.82D-04 DE=-2.93D-05 OVMax= 7.68D-04

 Cycle   5  Pass 1  IDiag  1:
 E= -512.520080694586     Delta-E=       -0.000002414492 Rises=F Damp=F
 DIIS: error= 2.61D-05 at cycle   5 NSaved=   5.
 NSaved= 5 IEnMin= 5 EnMin= -512.520080694586     IErMin= 5 ErrMin= 2.61D-05
 ErrMax= 2.61D-05  0.00D+00 EMaxC= 1.00D-01 BMatC= 1.53D-07 BMatP= 9.87D-07
 IDIUse=1 WtCom= 1.00D+00 WtEn= 0.00D+00
 Coeff-Com: -0.779D-03 0.192D-01-0.141D+00 0.135D+00 0.988D+00
 Coeff:     -0.779D-03 0.192D-01-0.141D+00 0.135D+00 0.988D+00
 Gap=     0.492 Goal=   None    Shift=    0.000
 RMSDP=7.86D-06 MaxDP=1.96D-04 DE=-2.41D-06 OVMax= 2.75D-04

 Cycle   6  Pass 1  IDiag  1:
 E= -512.520081021410     Delta-E=       -0.000000326824 Rises=F Damp=F
 DIIS: error= 8.16D-06 at cycle   6 NSaved=   6.
 NSaved= 6 IEnMin= 6 EnMin= -512.520081021410     IErMin= 6 ErrMin= 8.16D-06
 ErrMax= 8.16D-06  0.00D+00 EMaxC= 1.00D-01 BMatC= 1.51D-08 BMatP= 1.53D-07
 IDIUse=1 WtCom= 1.00D+00 WtEn= 0.00D+00
 Coeff-Com: -0.323D-02 0.171D-01-0.224D-01-0.128D+00 0.961D-01 0.104D+01
 Coeff:     -0.323D-02 0.171D-01-0.224D-01-0.128D+00 0.961D-01 0.104D+01
 Gap=     0.492 Goal=   None    Shift=    0.000
 RMSDP=2.70D-06 MaxDP=5.80D-05 DE=-3.27D-07 OVMax= 9.10D-05

 Cycle   7  Pass 1  IDiag  1:
 E= -512.520081055271     Delta-E=       -0.000000033860 Rises=F Damp=F
 DIIS: error= 2.30D-06 at cycle   7 NSaved=   7.
 NSaved= 7 IEnMin= 7 EnMin= -512.520081055271     IErMin= 7 ErrMin= 2.30D-06
 ErrMax= 2.30D-06  0.00D+00 EMaxC= 1.00D-01 BMatC= 8.09D-10 BMatP= 1.51D-08
 IDIUse=1 WtCom= 1.00D+00 WtEn= 0.00D+00
 Coeff-Com:  0.376D-03-0.293D-02 0.113D-01 0.257D-02-0.684D-01-0.920D-01
 Coeff-Com:  0.115D+01
 Coeff:      0.376D-03-0.293D-02 0.113D-01 0.257D-02-0.684D-01-0.920D-01
 Coeff:      0.115D+01
 Gap=     0.492 Goal=   None    Shift=    0.000
 RMSDP=9.14D-07 MaxDP=3.02D-05 DE=-3.39D-08 OVMax= 1.90D-05

 Cycle   8  Pass 1  IDiag  1:
 E= -512.520081057321     Delta-E=       -0.000000002050 Rises=F Damp=F
 DIIS: error= 7.10D-07 at cycle   8 NSaved=   8.
 NSaved= 8 IEnMin= 8 EnMin= -512.520081057321     IErMin= 8 ErrMin= 7.10D-07
 ErrMax= 7.10D-07  0.00D+00 EMaxC= 1.00D-01 BMatC= 9.37D-11 BMatP= 8.09D-10
 IDIUse=1 WtCom= 1.00D+00 WtEn= 0.00D+00
 Coeff-Com:  0.342D-03-0.186D-02 0.297D-02 0.123D-01-0.135D-01-0.104D+00
 Coeff-Com:  0.360D-01 0.107D+01
 Coeff:      0.342D-03-0.186D-02 0.297D-02 0.123D-01-0.135D-01-0.104D+00
 Coeff:      0.360D-01 0.107D+01
 Gap=     0.492 Goal=   None    Shift=    0.000
 RMSDP=3.99D-07 MaxDP=1.33D-05 DE=-2.05D-09 OVMax= 5.16D-06

 Cycle   9  Pass 1  IDiag  1:
 E= -512.520081057530     Delta-E=       -0.000000000210 Rises=F Damp=F
 DIIS: error= 2.27D-07 at cycle   9 NSaved=   9.
 NSaved= 9 IEnMin= 9 EnMin= -512.520081057530     IErMin= 9 ErrMin= 2.27D-07
 ErrMax= 2.27D-07  0.00D+00 EMaxC= 1.00D-01 BMatC= 8.13D-12 BMatP= 9.37D-11
 IDIUse=1 WtCom= 1.00D+00 WtEn= 0.00D+00
 Coeff-Com: -0.347D-04 0.275D-03-0.104D-02-0.309D-03 0.663D-02 0.101D-01
 Coeff-Com: -0.117D+00-0.228D-02 0.110D+01
 Coeff:     -0.347D-04 0.275D-03-0.104D-02-0.309D-03 0.663D-02 0.101D-01
 Coeff:     -0.117D+00-0.228D-02 0.110D+01
 Gap=     0.492 Goal=   None    Shift=    0.000
 RMSDP=1.30D-07 MaxDP=4.77D-06 DE=-2.10D-10 OVMax= 1.49D-06

 Cycle  10  Pass 1  IDiag  1:
 E= -512.520081057554     Delta-E=       -0.000000000023 Rises=F Damp=F
 DIIS: error= 4.64D-08 at cycle  10 NSaved=  10.
 NSaved=10 IEnMin=10 EnMin= -512.520081057554     IErMin=10 ErrMin= 4.64D-08
 ErrMax= 4.64D-08  0.00D+00 EMaxC= 1.00D-01 BMatC= 8.15D-13 BMatP= 8.13D-12
 IDIUse=1 WtCom= 1.00D+00 WtEn= 0.00D+00
 Coeff-Com: -0.311D-04 0.184D-03-0.406D-03-0.968D-03 0.228D-02 0.969D-02
 Coeff-Com: -0.263D-01-0.760D-01 0.226D+00 0.865D+00
 Coeff:     -0.311D-04 0.184D-03-0.406D-03-0.968D-03 0.228D-02 0.969D-02
 Coeff:     -0.263D-01-0.760D-01 0.226D+00 0.865D+00
 Gap=     0.492 Goal=   None    Shift=    0.000
 RMSDP=1.43D-08 MaxDP=3.77D-07 DE=-2.32D-11 OVMax= 3.35D-07

 Cycle  11  Pass 1  IDiag  1:
 E= -512.520081057547     Delta-E=        0.000000000006 Rises=F Damp=F
 DIIS: error= 1.33D-08 at cycle  11 NSaved=  11.
 NSaved=11 IEnMin=10 EnMin= -512.520081057554     IErMin=11 ErrMin= 1.33D-08
 ErrMax= 1.33D-08  0.00D+00 EMaxC= 1.00D-01 BMatC= 6.33D-14 BMatP= 8.15D-13
 IDIUse=1 WtCom= 1.00D+00 WtEn= 0.00D+00
 Coeff-Com:  0.163D-05-0.186D-04 0.933D-04-0.578D-04-0.611D-03-0.325D-03
 Coeff-Com:  0.121D-01-0.721D-02-0.110D+00 0.682D-01 0.104D+01
 Coeff:      0.163D-05-0.186D-04 0.933D-04-0.578D-04-0.611D-03-0.325D-03
 Coeff:      0.121D-01-0.721D-02-0.110D+00 0.682D-01 0.104D+01
 Gap=     0.492 Goal=   None    Shift=    0.000
 RMSDP=6.72D-09 MaxDP=1.73D-07 DE= 6.37D-12 OVMax= 1.25D-07

 SCF Done:  E(RHF) =  -512.520081058     A.U. after   11 cycles
            NFock= 11  Conv=0.67D-08     -V/T= 2.0023
 KE= 5.113282732807D+02 PE=-1.891162435778D+03 EE= 5.307119907570D+02
 Leave Link  502 at Thu Apr  2 13:29:23 2026, MaxMem=  2147483648 cpu:               3.7 elap:               0.8
 (Enter /Users/yarger/Applications/g16/l701.exe)
 ... and contract with generalized density number  0.
 Compute integral first derivatives.
 Leave Link  701 at Thu Apr  2 13:29:24 2026, MaxMem=  2147483648 cpu:               0.9 elap:               0.2
 (Enter /Users/yarger/Applications/g16/l702.exe)
 L702 exits ... SP integral derivatives will be done elsewhere.
 Leave Link  702 at Thu Apr  2 13:29:24 2026, MaxMem=  2147483648 cpu:               0.1 elap:               0.0
 (Enter /Users/yarger/Applications/g16/l703.exe)
 Integral derivatives from FoFJK, PRISM(SPDF).
 Compute integral first derivatives, UseDBF=F ICtDFT=           0.
 Calling FoFJK, ICntrl=      2127 FMM=F ISym2X=0 I1Cent= 0 IOpClX= 0 NMat=1 NMatS=1 NMatT=0.
 FoFJK:  IHMeth= 1 ICntrl=    2127 DoSepK=F KAlg= 0 I1Cent=           0 FoldK=F
 IRaf=         0 NMat=       1 IRICut=       1 DoRegI=T DoRafI=F ISym2E= 0 IDoP0=0 IntGTp=1.
 FoFCou: FMM=F IPFlag=           0 FMFlag=      100000 FMFlg1=         800
         NFxFlg=           0 DoJE=F BraDBF=F KetDBF=F FulRan=T
         wScrn=  0.000000 ICntrl=      2127 IOpCl=  0 I1Cent=           0 NGrid=           0
         NMat0=    1 NMatS0=      1 NMatT0=    0 NMatD0=    1 NMtDS0=    0 NMtDT0=    0
 Symmetry not used in FoFCou.
 Leave Link  703 at Thu Apr  2 13:29:24 2026, MaxMem=  2147483648 cpu:               3.3 elap:               0.5
 (Enter /Users/yarger/Applications/g16/l716.exe)
 Dipole        = 7.01284401D-01-7.20331902D-01 2.07889405D-03
 ***** Axes restored to original set *****
 -------------------------------------------------------------------
 Center     Atomic                   Forces (Hartrees/Bohr)
 Number     Number              X              Y              Z
 -------------------------------------------------------------------
      1        6          -0.000252233   -0.000485025    0.000118854
      2        1          -0.000084537    0.000055121   -0.000273485
      3        1           0.000059255   -0.000084042    0.000158156
      4        6           0.000297907    0.000347713   -0.001614981
      5        6          -0.000223926   -0.000973896    0.000292121
      6        9          -0.000613288    0.000285280    0.000052133
      7        9          -0.000458171    0.000452373    0.000541301
      8        9           0.000401262    0.000371364    0.000390195
      9        9           0.000873731    0.000031112    0.000335707
 -------------------------------------------------------------------
 Cartesian Forces:  Max     0.001614981 RMS     0.000503005
 Leave Link  716 at Thu Apr  2 13:29:24 2026, MaxMem=  2147483648 cpu:               0.1 elap:               0.0
 (Enter /Users/yarger/Applications/g16/l103.exe)

 GradGradGradGradGradGradGradGradGradGradGradGradGradGradGradGradGradGrad
 Berny optimization.
 Using GEDIIS/GDIIS optimizer.
 FormGI is forming the generalized inverse of G from B-inverse, IUseBI=4.
 Internal  Forces:  Max     0.001450638 RMS     0.000528982
 Search for a local minimum.
 Step number  16 out of a maximum of   40
 All quantities printed in internal units (Hartrees-Bohrs-Radians)
 RMS Force = .52898D-03 SwitMx=.10000D-02 MixMth= 2
 Mixed Optimization -- En-DIIS/RFO-DIIS
 Swapping is turned off.
 Update second derivatives using D2CorX and points   14   15   16
 DE= -6.40D-05 DEPred=-1.31D-04 R= 4.89D-01
 Trust test= 4.89D-01 RLast= 2.09D-01 DXMaxT set to 1.07D+00
 ITU=  0  1  1  1  1 -1  0  0  0  0  0  1  1  1  1  0
     Eigenvalues ---    0.00374   0.01894   0.03060   0.03248   0.11323
     Eigenvalues ---    0.12427   0.13865   0.17767   0.21281   0.23832
     Eigenvalues ---    0.25497   0.27280   0.30163   0.35447   0.37007
     Eigenvalues ---    0.46028   0.53166   0.57194   0.60665   0.62230
     Eigenvalues ---    0.78597
 En-DIIS/RFO-DIIS/Sim-DIIS IScMMF=       -3 using points:    16   15
 RFO step:  Lambda=-6.62777026D-05.
 NNeg= 0 NGDIIS= 2 SimSw=  2.50D-01 Rises=F DC= -6.40D-05 SmlDif=  1.00D-05
 NRisDI= 0 DoIntr=F SqrtH=F CThrHd= 10.0 CDAdj=  3.0
 RMS Error=  0.1596467791D-01 NUsed= 2 OKEnD=T EnDIS=F
 InvSVX:  RCond= 4.64D-02 Info=           0 Equed=N FErr=  1.36D-15 BErr=  7.10D-17
 DidBck=T Rises=F RFO-DIIS coefs:    0.58267    0.41733
 Iteration  1 RMS(Cart)=  0.02020731 RMS(Int)=  0.00018353
 Iteration  2 RMS(Cart)=  0.00019355 RMS(Int)=  0.00000580
 Iteration  3 RMS(Cart)=  0.00000001 RMS(Int)=  0.00000580
 ITry= 1 IFail=0 DXMaxC= 4.97D-02 DCOld= 1.00D+10 DXMaxT= 1.07D+00 DXLimC= 3.00D+00 Rises=F
 Variable       Old X    -DE/DX   Delta X   Delta X   Delta X     New X
                                 (Linear)    (Quad)   (Total)
    R1        2.02410  -0.00005  -0.00025   0.00024  -0.00001   2.02408
    R2        2.02808   0.00004   0.00028  -0.00028  -0.00000   2.02808
    R3        2.47199  -0.00054  -0.00177   0.00111  -0.00066   2.47133
    R4        2.83787   0.00100   0.00094   0.00161   0.00255   2.84042
    R5        2.50631   0.00010   0.00049  -0.00011   0.00038   2.50670
    R6        2.49643  -0.00000   0.00006  -0.00088  -0.00083   2.49560
    R7        2.49020   0.00076   0.00088   0.00078   0.00166   2.49186
    R8        2.49536  -0.00056   0.00079  -0.00100  -0.00021   2.49515
    A1        2.07824   0.00005   0.00088  -0.00054   0.00036   2.07859
    A2        2.10399  -0.00011   0.00026  -0.00099  -0.00072   2.10327
    A3        2.10096   0.00006  -0.00117   0.00151   0.00035   2.10131
    A4        2.21263  -0.00074   0.00176  -0.00505  -0.00328   2.20935
    A5        2.14540  -0.00071  -0.00197  -0.00042  -0.00239   2.14302
    A6        1.92513   0.00145   0.00020   0.00549   0.00569   1.93082
    A7        1.93343   0.00121   0.00023   0.00305   0.00329   1.93672
    A8        1.94159   0.00018   0.00192  -0.00295  -0.00103   1.94055
    A9        1.93858  -0.00053  -0.00326   0.00220  -0.00106   1.93751
   A10        1.88715  -0.00073  -0.00169   0.00097  -0.00073   1.88642
   A11        1.87400  -0.00009   0.00244  -0.00221   0.00023   1.87422
   A12        1.88668  -0.00007   0.00042  -0.00115  -0.00073   1.88595
    D1        0.00849  -0.00040  -0.01406   0.00710  -0.00696   0.00154
    D2       -3.14025  -0.00008  -0.00689   0.01078   0.00389  -3.13636
    D3       -3.13609  -0.00032  -0.00706  -0.00138  -0.00844   3.13866
    D4       -0.00165   0.00000   0.00011   0.00230   0.00241   0.00076
    D5       -2.06961   0.00009  -0.03081   0.00063  -0.03017  -2.09979
    D6        0.03000   0.00009  -0.03151   0.00193  -0.02957   0.00043
    D7        2.13249  -0.00024  -0.03190  -0.00002  -0.03192   2.10058
    D8        1.07838  -0.00020  -0.03724  -0.00265  -0.03990   1.03849
    D9       -3.10519  -0.00019  -0.03794  -0.00135  -0.03929   3.13870
   D10       -1.00270  -0.00053  -0.03833  -0.00331  -0.04164  -1.04434
         Item               Value     Threshold  Converged?
 Maximum Force            0.001451     0.000015     NO 
 RMS     Force            0.000529     0.000010     NO 
 Maximum Displacement     0.049651     0.000060     NO 
 RMS     Displacement     0.020210     0.000040     NO 
 Predicted change in Energy=-3.340020D-05
 Lowest energy point so far.  Saving SCF results.
 GradGradGradGradGradGradGradGradGradGradGradGradGradGradGradGradGradGrad

 Leave Link  103 at Thu Apr  2 13:29:24 2026, MaxMem=  2147483648 cpu:               0.1 elap:               0.0
 (Enter /Users/yarger/Applications/g16/l202.exe)
                          Input orientation:                          
 ---------------------------------------------------------------------
 Center     Atomic      Atomic             Coordinates (Angstroms)
 Number     Number       Type             X           Y           Z
 ---------------------------------------------------------------------
      1          6           0        1.736074    1.022964    0.213685
      2          1           0        1.352317    1.909473    0.676377
      3          1           0        2.795535    0.924038    0.073891
      4          6           0        0.926085    0.071231   -0.171535
      5          6           0       -0.571329    0.061936   -0.041437
      6          9           0       -0.975975   -0.962337    0.687368
      7          9           0       -1.006947    1.167927    0.529371
      8          9           0       -1.148660   -0.042945   -1.224264
      9          9           0        1.352419   -1.047122   -0.743459
 ---------------------------------------------------------------------
                    Distance matrix (angstroms):
                    1          2          3          4          5
     1  C    0.000000
     2  H    1.071099   0.000000
     3  H    1.073213   1.848500   0.000000
     4  C    1.307774   2.068759   2.069386   0.000000
     5  C    2.512523   2.762076   3.477398   1.503084   0.000000
     6  F    3.394260   3.697074   4.261344   2.328907   1.320617
     7  F    2.764930   2.477424   3.837424   2.330370   1.318636
     8  F    3.394930   3.698548   4.263442   2.329343   1.320375
     9  F    2.312698   3.279846   2.576066   1.326488   2.328874
                    6          7          8          9
     6  F    0.000000
     7  F    2.136340   0.000000
     8  F    2.128248   2.135774   0.000000
     9  F    2.734204   3.477521   2.737689   0.000000
 Stoichiometry    C3H2F4
 Framework group  C1[X(C3H2F4)]
 Deg. of freedom    21
 Full point group                 C1      NOp   1
 RotChk:  IX=3 Diff= 2.26D-02
 Largest Abelian subgroup         C1      NOp   1
 Largest concise Abelian subgroup C1      NOp   1
                         Standard orientation:                         
 ---------------------------------------------------------------------
 Center     Atomic      Atomic             Coordinates (Angstroms)
 Number     Number       Type             X           Y           Z
 ---------------------------------------------------------------------
      1          6           0        1.711671   -1.061344    0.000694
      2          1           0        1.309450   -2.054046   -0.002939
      3          1           0        2.776796   -0.929839   -0.000668
      4          6           0        0.916734   -0.022909    0.001735
      5          6           0       -0.586185   -0.045159    0.000116
      6          9           0       -1.066763    0.572039   -1.063904
      7          9           0       -1.044472   -1.281593   -0.002068
      8          9           0       -1.069893    0.568721    1.064338
      9          9           0        1.365620    1.225318    0.000339
 ---------------------------------------------------------------------
 Rotational constants (GHZ):           3.8033044           2.5033893           2.0320430
 Leave Link  202 at Thu Apr  2 13:29:24 2026, MaxMem=  2147483648 cpu:               0.0 elap:               0.0
 (Enter /Users/yarger/Applications/g16/l301.exe)
 Standard basis: 6-31+G(d) (6D, 7F)
 Ernie: Thresh=  0.10000D-02 Tol=  0.10000D-05 Strict=F.
 There are   137 symmetry adapted cartesian basis functions of A   symmetry.
 There are   137 symmetry adapted basis functions of A   symmetry.
   137 basis functions,   232 primitive gaussians,   137 cartesian basis functions
    28 alpha electrons       28 beta electrons
       nuclear repulsion energy       336.4614433848 Hartrees.
 IExCor=    0 DFT=F Ex=HF Corr=None ExCW=0 ScaHFX=  1.000000
 ScaDFX=  1.000000  1.000000  1.000000  1.000000 ScalE2=  1.000000  1.000000
 IRadAn=      5 IRanWt=     -1 IRanGd=            0 ICorTp=0 IEmpDi=  4
 NAtoms=    9 NActive=    9 NUniq=    9 SFac= 1.00D+00 NAtFMM=   60 NAOKFM=F Big=F
 Integral buffers will be    131072 words long.
 Raffenetti 1 integral format.
 Two-electron integral symmetry is turned on.
 Leave Link  301 at Thu Apr  2 13:29:24 2026, MaxMem=  2147483648 cpu:               0.2 elap:               0.0
 (Enter /Users/yarger/Applications/g16/l302.exe)
 NPDir=0 NMtPBC=     1 NCelOv=     1 NCel=       1 NClECP=     1 NCelD=      1
         NCelK=      1 NCelE2=     1 NClLst=     1 CellRange=     0.0.
 One-electron integrals computed using PRISM.
 One-electron integral symmetry used in STVInt
 NBasis=   137 RedAO= T EigKep=  6.47D-05  NBF=   137
 NBsUse=   137 1.00D-06 EigRej= -1.00D+00 NBFU=   137
 Leave Link  302 at Thu Apr  2 13:29:25 2026, MaxMem=  2147483648 cpu:               0.7 elap:               0.1
 (Enter /Users/yarger/Applications/g16/l303.exe)
 DipDrv:  MaxL=1.
 Leave Link  303 at Thu Apr  2 13:29:25 2026, MaxMem=  2147483648 cpu:               0.1 elap:               0.0
 (Enter /Users/yarger/Applications/g16/l401.exe)
 Initial guess from the checkpoint file:  "2223Tetrafluoropropene_Opt_Freq_HF_631pd_Gaussian16.chk"
 B after Tr=     0.000000   -0.000000    0.000000
         Rot=    0.999939   -0.010928   -0.000096    0.001474 Ang=  -1.26 deg.
 Guess basis will be translated and rotated to current coordinates.
 JPrj=2 DoOrth=T DoCkMO=T.
 Generating alternative initial guess.
 ExpMin= 4.38D-02 ExpMax= 7.00D+03 ExpMxC= 1.05D+03 IAcc=2 IRadAn=         4 AccDes= 0.00D+00
 Harris functional with IExCor=  205 and IRadAn=       4 diagonalized for initial guess.
 HarFok:  IExCor=  205 AccDes= 0.00D+00 IRadAn=         4 IDoV= 1 UseB2=F ITyADJ=14
 ICtDFT=  3500011 ScaDFX=  1.000000  1.000000  1.000000  1.000000
 FoFCou: FMM=F IPFlag=           0 FMFlag=      100000 FMFlg1=           0
         NFxFlg=           0 DoJE=T BraDBF=F KetDBF=T FulRan=T
         wScrn=  0.000000 ICntrl=       500 IOpCl=  0 I1Cent=   200000004 NGrid=           0
         NMat0=    1 NMatS0=      1 NMatT0=    0 NMatD0=    1 NMtDS0=    0 NMtDT0=    0
 Petite list used in FoFCou.
 Harris En= -512.529311899197    
 Leave Link  401 at Thu Apr  2 13:29:25 2026, MaxMem=  2147483648 cpu:               1.4 elap:               0.2
 (Enter /Users/yarger/Applications/g16/l502.exe)
 Keep R1 ints in memory in canonical form, NReq=46403228.
 FoFCou: FMM=F IPFlag=           0 FMFlag=           0 FMFlg1=           0
         NFxFlg=           0 DoJE=F BraDBF=F KetDBF=F FulRan=T
         wScrn=  0.000000 ICntrl=       600 IOpCl=  0 I1Cent=           0 NGrid=           0
         NMat0=    1 NMatS0=   9453 NMatT0=    0 NMatD0=    1 NMtDS0=    0 NMtDT0=    0
 Symmetry not used in FoFCou.
 Two-electron integral symmetry not used.
 Closed shell SCF:
 Using DIIS extrapolation, IDIIS=  1040.
 NGot=  2147483648 LenX=  2102759234 LenY=  2102740024
 Requested convergence on RMS density matrix=1.00D-08 within 128 cycles.
 Requested convergence on MAX density matrix=1.00D-06.
 Requested convergence on             energy=1.00D-06.
 No special actions if energy rises.

 Cycle   1  Pass 1  IDiag  1:
 E= -512.519396965247    
 DIIS: error= 1.17D-03 at cycle   1 NSaved=   1.
 NSaved= 1 IEnMin= 1 EnMin= -512.519396965247     IErMin= 1 ErrMin= 1.17D-03
 ErrMax= 1.17D-03  0.00D+00 EMaxC= 1.00D-01 BMatC= 4.48D-04 BMatP= 4.48D-04
 IDIUse=3 WtCom= 9.88D-01 WtEn= 1.17D-02
 Coeff-Com:  0.100D+01
 Coeff-En:   0.100D+01
 Coeff:      0.100D+01
 Gap=     0.996 Goal=   None    Shift=    0.000
 GapD=    0.996 DampG=2.000 DampE=1.000 DampFc=2.0000 IDamp=-1.
 RMSDP=2.26D-04 MaxDP=4.51D-03              OVMax= 5.33D-03

 Cycle   2  Pass 1  IDiag  1:
 E= -512.520029556397     Delta-E=       -0.000632591150 Rises=F Damp=F
 DIIS: error= 3.73D-04 at cycle   2 NSaved=   2.
 NSaved= 2 IEnMin= 2 EnMin= -512.520029556397     IErMin= 2 ErrMin= 3.73D-04
 ErrMax= 3.73D-04  0.00D+00 EMaxC= 1.00D-01 BMatC= 3.37D-05 BMatP= 4.48D-04
 IDIUse=3 WtCom= 9.96D-01 WtEn= 3.73D-03
 Coeff-Com: -0.291D+00 0.129D+01
 Coeff-En:   0.000D+00 0.100D+01
 Coeff:     -0.290D+00 0.129D+01
 Gap=     0.492 Goal=   None    Shift=    0.000
 RMSDP=8.24D-05 MaxDP=1.60D-03 DE=-6.33D-04 OVMax= 2.73D-03

 Cycle   3  Pass 1  IDiag  1:
 E= -512.520107205049     Delta-E=       -0.000077648652 Rises=F Damp=F
 DIIS: error= 1.08D-04 at cycle   3 NSaved=   3.
 NSaved= 3 IEnMin= 3 EnMin= -512.520107205049     IErMin= 3 ErrMin= 1.08D-04
 ErrMax= 1.08D-04  0.00D+00 EMaxC= 1.00D-01 BMatC= 1.43D-06 BMatP= 3.37D-05
 IDIUse=3 WtCom= 9.99D-01 WtEn= 1.08D-03
 Coeff-Com:  0.449D-01-0.325D+00 0.128D+01
 Coeff-En:   0.000D+00 0.000D+00 0.100D+01
 Coeff:      0.448D-01-0.324D+00 0.128D+01
 Gap=     0.492 Goal=   None    Shift=    0.000
 RMSDP=2.90D-05 MaxDP=8.35D-04 DE=-7.76D-05 OVMax= 9.81D-04

 Cycle   4  Pass 1  IDiag  1:
 E= -512.520111762827     Delta-E=       -0.000004557778 Rises=F Damp=F
 DIIS: error= 2.76D-05 at cycle   4 NSaved=   4.
 NSaved= 4 IEnMin= 4 EnMin= -512.520111762827     IErMin= 4 ErrMin= 2.76D-05
 ErrMax= 2.76D-05  0.00D+00 EMaxC= 1.00D-01 BMatC= 1.28D-07 BMatP= 1.43D-06
 IDIUse=1 WtCom= 1.00D+00 WtEn= 0.00D+00
 Coeff-Com:  0.189D-01-0.863D-01 0.294D-01 0.104D+01
 Coeff:      0.189D-01-0.863D-01 0.294D-01 0.104D+01
 Gap=     0.492 Goal=   None    Shift=    0.000
 RMSDP=7.88D-06 MaxDP=2.15D-04 DE=-4.56D-06 OVMax= 2.72D-04

 Cycle   5  Pass 1  IDiag  1:
 E= -512.520112084816     Delta-E=       -0.000000321988 Rises=F Damp=F
 DIIS: error= 9.84D-06 at cycle   5 NSaved=   5.
 NSaved= 5 IEnMin= 5 EnMin= -512.520112084816     IErMin= 5 ErrMin= 9.84D-06
 ErrMax= 9.84D-06  0.00D+00 EMaxC= 1.00D-01 BMatC= 2.07D-08 BMatP= 1.28D-07
 IDIUse=1 WtCom= 1.00D+00 WtEn= 0.00D+00
 Coeff-Com: -0.289D-02 0.287D-01-0.153D+00 0.128D+00 0.999D+00
 Coeff:     -0.289D-02 0.287D-01-0.153D+00 0.128D+00 0.999D+00
 Gap=     0.492 Goal=   None    Shift=    0.000
 RMSDP=2.90D-06 MaxDP=7.04D-05 DE=-3.22D-07 OVMax= 9.97D-05

 Cycle   6  Pass 1  IDiag  1:
 E= -512.520112128702     Delta-E=       -0.000000043887 Rises=F Damp=F
 DIIS: error= 3.00D-06 at cycle   6 NSaved=   6.
 NSaved= 6 IEnMin= 6 EnMin= -512.520112128702     IErMin= 6 ErrMin= 3.00D-06
 ErrMax= 3.00D-06  0.00D+00 EMaxC= 1.00D-01 BMatC= 2.04D-09 BMatP= 2.07D-08
 IDIUse=1 WtCom= 1.00D+00 WtEn= 0.00D+00
 Coeff-Com: -0.263D-02 0.137D-01-0.167D-01-0.127D+00 0.112D+00 0.102D+01
 Coeff:     -0.263D-02 0.137D-01-0.167D-01-0.127D+00 0.112D+00 0.102D+01
 Gap=     0.492 Goal=   None    Shift=    0.000
 RMSDP=9.80D-07 MaxDP=2.04D-05 DE=-4.39D-08 OVMax= 3.02D-05

 Cycle   7  Pass 1  IDiag  1:
 E= -512.520112133103     Delta-E=       -0.000000004400 Rises=F Damp=F
 DIIS: error= 8.39D-07 at cycle   7 NSaved=   7.
 NSaved= 7 IEnMin= 7 EnMin= -512.520112133103     IErMin= 7 ErrMin= 8.39D-07
 ErrMax= 8.39D-07  0.00D+00 EMaxC= 1.00D-01 BMatC= 1.05D-10 BMatP= 2.04D-09
 IDIUse=1 WtCom= 1.00D+00 WtEn= 0.00D+00
 Coeff-Com:  0.651D-03-0.426D-02 0.130D-01 0.121D-01-0.821D-01-0.166D+00
 Coeff-Com:  0.123D+01
 Coeff:      0.651D-03-0.426D-02 0.130D-01 0.121D-01-0.821D-01-0.166D+00
 Coeff:      0.123D+01
 Gap=     0.492 Goal=   None    Shift=    0.000
 RMSDP=3.42D-07 MaxDP=1.14D-05 DE=-4.40D-09 OVMax= 7.01D-06

 Cycle   8  Pass 1  IDiag  1:
 E= -512.520112133395     Delta-E=       -0.000000000292 Rises=F Damp=F
 DIIS: error= 2.60D-07 at cycle   8 NSaved=   8.
 NSaved= 8 IEnMin= 8 EnMin= -512.520112133395     IErMin= 8 ErrMin= 2.60D-07
 ErrMax= 2.60D-07  0.00D+00 EMaxC= 1.00D-01 BMatC= 1.03D-11 BMatP= 1.05D-10
 IDIUse=1 WtCom= 1.00D+00 WtEn= 0.00D+00
 Coeff-Com:  0.194D-03-0.100D-02 0.142D-02 0.869D-02-0.808D-02-0.719D-01
 Coeff-Com: -0.143D-01 0.109D+01
 Coeff:      0.194D-03-0.100D-02 0.142D-02 0.869D-02-0.808D-02-0.719D-01
 Coeff:     -0.143D-01 0.109D+01
 Gap=     0.492 Goal=   None    Shift=    0.000
 RMSDP=1.23D-07 MaxDP=3.94D-06 DE=-2.92D-10 OVMax= 1.74D-06

 Cycle   9  Pass 1  IDiag  1:
 E= -512.520112133421     Delta-E=       -0.000000000026 Rises=F Damp=F
 DIIS: error= 8.28D-08 at cycle   9 NSaved=   9.
 NSaved= 9 IEnMin= 9 EnMin= -512.520112133421     IErMin= 9 ErrMin= 8.28D-08
 ErrMax= 8.28D-08  0.00D+00 EMaxC= 1.00D-01 BMatC= 1.51D-12 BMatP= 1.03D-11
 IDIUse=1 WtCom= 1.00D+00 WtEn= 0.00D+00
 Coeff-Com: -0.521D-04 0.387D-03-0.142D-02-0.161D-03 0.954D-02 0.103D-01
 Coeff-Com: -0.171D+00 0.198D+00 0.954D+00
 Coeff:     -0.521D-04 0.387D-03-0.142D-02-0.161D-03 0.954D-02 0.103D-01
 Coeff:     -0.171D+00 0.198D+00 0.954D+00
 Gap=     0.492 Goal=   None    Shift=    0.000
 RMSDP=4.15D-08 MaxDP=1.48D-06 DE=-2.59D-11 OVMax= 6.02D-07

 Cycle  10  Pass 1  IDiag  1:
 E= -512.520112133418     Delta-E=        0.000000000002 Rises=F Damp=F
 DIIS: error= 1.91D-08 at cycle  10 NSaved=  10.
 NSaved=10 IEnMin= 9 EnMin= -512.520112133421     IErMin=10 ErrMin= 1.91D-08
 ErrMax= 1.91D-08  0.00D+00 EMaxC= 1.00D-01 BMatC= 7.44D-14 BMatP= 1.51D-12
 IDIUse=1 WtCom= 1.00D+00 WtEn= 0.00D+00
 Coeff-Com: -0.132D-04 0.630D-04-0.661D-04-0.715D-03 0.467D-03 0.574D-02
 Coeff-Com:  0.377D-02-0.861D-01-0.924D-02 0.109D+01
 Coeff:     -0.132D-04 0.630D-04-0.661D-04-0.715D-03 0.467D-03 0.574D-02
 Coeff:      0.377D-02-0.861D-01-0.924D-02 0.109D+01
 Gap=     0.492 Goal=   None    Shift=    0.000
 RMSDP=6.43D-09 MaxDP=1.71D-07 DE= 2.27D-12 OVMax= 1.52D-07

 SCF Done:  E(RHF) =  -512.520112133     A.U. after   10 cycles
            NFock= 10  Conv=0.64D-08     -V/T= 2.0023
 KE= 5.113247910160D+02 PE=-1.890877587877D+03 EE= 5.305712413433D+02
 Leave Link  502 at Thu Apr  2 13:29:25 2026, MaxMem=  2147483648 cpu:               3.1 elap:               0.6
 (Enter /Users/yarger/Applications/g16/l701.exe)
 ... and contract with generalized density number  0.
 Compute integral first derivatives.
 Leave Link  701 at Thu Apr  2 13:29:26 2026, MaxMem=  2147483648 cpu:               0.6 elap:               0.1
 (Enter /Users/yarger/Applications/g16/l702.exe)
 L702 exits ... SP integral derivatives will be done elsewhere.
 Leave Link  702 at Thu Apr  2 13:29:26 2026, MaxMem=  2147483648 cpu:               0.1 elap:               0.0
 (Enter /Users/yarger/Applications/g16/l703.exe)
 Integral derivatives from FoFJK, PRISM(SPDF).
 Compute integral first derivatives, UseDBF=F ICtDFT=           0.
 Calling FoFJK, ICntrl=      2127 FMM=F ISym2X=0 I1Cent= 0 IOpClX= 0 NMat=1 NMatS=1 NMatT=0.
 FoFJK:  IHMeth= 1 ICntrl=    2127 DoSepK=F KAlg= 0 I1Cent=           0 FoldK=F
 IRaf=         0 NMat=       1 IRICut=       1 DoRegI=T DoRafI=F ISym2E= 0 IDoP0=0 IntGTp=1.
 FoFCou: FMM=F IPFlag=           0 FMFlag=      100000 FMFlg1=         800
         NFxFlg=           0 DoJE=F BraDBF=F KetDBF=F FulRan=T
         wScrn=  0.000000 ICntrl=      2127 IOpCl=  0 I1Cent=           0 NGrid=           0
         NMat0=    1 NMatS0=      1 NMatT0=    0 NMatD0=    1 NMtDS0=    0 NMtDT0=    0
 Symmetry not used in FoFCou.
 Leave Link  703 at Thu Apr  2 13:29:26 2026, MaxMem=  2147483648 cpu:               3.2 elap:               0.4
 (Enter /Users/yarger/Applications/g16/l716.exe)
 Dipole        = 6.96596190D-01-7.18629285D-01-6.49521673D-04
 ***** Axes restored to original set *****
 -------------------------------------------------------------------
 Center     Atomic                   Forces (Hartrees/Bohr)
 Number     Number              X              Y              Z
 -------------------------------------------------------------------
      1        6          -0.000019715    0.000071926    0.000340858
      2        1           0.000045441    0.000055989   -0.000217981
      3        1           0.000029185    0.000033588   -0.000074358
      4        6           0.000006843   -0.000470575    0.000078649
      5        6           0.000198766   -0.000397334   -0.000135831
      6        9          -0.000009498    0.000326001    0.000003735
      7        9          -0.000102597   -0.000051414    0.000046020
      8        9          -0.000023829    0.000110406    0.000021485
      9        9          -0.000124595    0.000321412   -0.000062577
 -------------------------------------------------------------------
 Cartesian Forces:  Max     0.000470575 RMS     0.000180853
 Leave Link  716 at Thu Apr  2 13:29:26 2026, MaxMem=  2147483648 cpu:               0.1 elap:               0.0
 (Enter /Users/yarger/Applications/g16/l103.exe)

 GradGradGradGradGradGradGradGradGradGradGradGradGradGradGradGradGradGrad
 Berny optimization.
 Using GEDIIS/GDIIS optimizer.
 FormGI is forming the generalized inverse of G from B-inverse, IUseBI=4.
 Internal  Forces:  Max     0.000284045 RMS     0.000121189
 Search for a local minimum.
 Step number  17 out of a maximum of   40
 All quantities printed in internal units (Hartrees-Bohrs-Radians)
 RMS Force = .12119D-03 SwitMx=.10000D-02 MixMth= 2
 Mixed Optimization -- En-DIIS/RFO-DIIS
 Swapping is turned off.
 Update second derivatives using D2CorX and points   14   15   16   17
 DE= -3.11D-05 DEPred=-3.34D-05 R= 9.30D-01
 TightC=F SS=  1.41D+00  RLast= 8.88D-02 DXNew= 1.7954D+00 2.6644D-01
 Trust test= 9.30D-01 RLast= 8.88D-02 DXMaxT set to 1.07D+00
 ITU=  1  0  1  1  1  1 -1  0  0  0  0  0  1  1  1  1  0
     Eigenvalues ---    0.00378   0.02158   0.03195   0.03309   0.11268
     Eigenvalues ---    0.12458   0.13886   0.17496   0.21003   0.23911
     Eigenvalues ---    0.25564   0.26875   0.30462   0.35454   0.37010
     Eigenvalues ---    0.45025   0.53930   0.56929   0.60848   0.61742
     Eigenvalues ---    0.78657
 En-DIIS/RFO-DIIS/Sim-DIIS IScMMF=       -3 using points:    17   16   15
 RFO step:  Lambda=-4.93933239D-06.
 NNeg= 0 NGDIIS= 3 SimSw=  2.50D-01 Rises=F DC= -3.11D-05 SmlDif=  1.00D-05
 NRisDI= 0 DoIntr=F SqrtH=F CThrHd= 10.0 CDAdj=  3.0
 RMS Error=  0.2153335567D-02 NUsed= 3 OKEnD=T EnDIS=F
 InvSVX:  RCond= 2.82D-04 Info=           0 Equed=N FErr=  1.39D-14 BErr=  7.55D-17
 DidBck=T Rises=F RFO-DIIS coefs:    0.54743    0.26282    0.18975
 Iteration  1 RMS(Cart)=  0.00153986 RMS(Int)=  0.00000390
 Iteration  2 RMS(Cart)=  0.00000358 RMS(Int)=  0.00000206
 Iteration  3 RMS(Cart)=  0.00000000 RMS(Int)=  0.00000206
 ITry= 1 IFail=0 DXMaxC= 4.01D-03 DCOld= 1.00D+10 DXMaxT= 1.07D+00 DXLimC= 3.00D+00 Rises=F
 Variable       Old X    -DE/DX   Delta X   Delta X   Delta X     New X
                                 (Linear)    (Quad)   (Total)
    R1        2.02408  -0.00006  -0.00011  -0.00004  -0.00015   2.02394
    R2        2.02808   0.00004   0.00013  -0.00006   0.00007   2.02814
    R3        2.47133   0.00017  -0.00051   0.00074   0.00023   2.47157
    R4        2.84042  -0.00007  -0.00073   0.00056  -0.00017   2.84025
    R5        2.50670  -0.00028   0.00005  -0.00050  -0.00045   2.50625
    R6        2.49560  -0.00025   0.00040  -0.00066  -0.00026   2.49534
    R7        2.49186   0.00001  -0.00035   0.00044   0.00009   2.49195
    R8        2.49515  -0.00002   0.00045  -0.00053  -0.00008   2.49507
    A1        2.07859  -0.00003   0.00024  -0.00051  -0.00026   2.07833
    A2        2.10327   0.00006   0.00044  -0.00020   0.00024   2.10351
    A3        2.10131  -0.00002  -0.00069   0.00072   0.00003   2.10134
    A4        2.20935  -0.00003   0.00229  -0.00268  -0.00039   2.20895
    A5        2.14302   0.00004   0.00019   0.00000   0.00019   2.14321
    A6        1.93082  -0.00001  -0.00248   0.00269   0.00021   1.93102
    A7        1.93672   0.00015  -0.00138   0.00191   0.00053   1.93725
    A8        1.94055   0.00009   0.00134  -0.00134   0.00000   1.94056
    A9        1.93751   0.00004  -0.00100   0.00108   0.00008   1.93760
   A10        1.88642  -0.00023  -0.00044  -0.00047  -0.00091   1.88551
   A11        1.87422   0.00004   0.00101  -0.00046   0.00055   1.87477
   A12        1.88595  -0.00011   0.00052  -0.00080  -0.00028   1.88567
    D1        0.00154  -0.00012  -0.00325   0.00117  -0.00208  -0.00054
    D2       -3.13636  -0.00025  -0.00489  -0.00183  -0.00672   3.14010
    D3        3.13866   0.00013   0.00061   0.00312   0.00373  -3.14080
    D4        0.00076   0.00000  -0.00104   0.00012  -0.00092  -0.00016
    D5       -2.09979   0.00005  -0.00035  -0.00102  -0.00138  -2.10116
    D6        0.00043  -0.00008  -0.00094  -0.00122  -0.00217  -0.00174
    D7        2.10058  -0.00013  -0.00006  -0.00241  -0.00247   2.09811
    D8        1.03849   0.00017   0.00112   0.00167   0.00279   1.04128
    D9        3.13870   0.00004   0.00053   0.00147   0.00200   3.14071
   D10       -1.04434  -0.00001   0.00142   0.00029   0.00171  -1.04263
         Item               Value     Threshold  Converged?
 Maximum Force            0.000284     0.000015     NO 
 RMS     Force            0.000121     0.000010     NO 
 Maximum Displacement     0.004014     0.000060     NO 
 RMS     Displacement     0.001540     0.000040     NO 
 Predicted change in Energy=-2.381586D-06
 Lowest energy point so far.  Saving SCF results.
 GradGradGradGradGradGradGradGradGradGradGradGradGradGradGradGradGradGrad

 Leave Link  103 at Thu Apr  2 13:29:26 2026, MaxMem=  2147483648 cpu:               0.1 elap:               0.0
 (Enter /Users/yarger/Applications/g16/l202.exe)
                          Input orientation:                          
 ---------------------------------------------------------------------
 Center     Atomic      Atomic             Coordinates (Angstroms)
 Number     Number       Type             X           Y           Z
 ---------------------------------------------------------------------
      1          6           0        1.736032    1.022330    0.214923
      2          1           0        1.351919    1.910340    0.674253
      3          1           0        2.795404    0.924698    0.073296
      4          6           0        0.926354    0.069996   -0.169882
      5          6           0       -0.571091    0.061448   -0.041113
      6          9           0       -0.977510   -0.962285    0.687211
      7          9           0       -1.006608    1.167294    0.530164
      8          9           0       -1.147526   -0.041847   -1.224469
      9          9           0        1.352546   -1.046807   -0.744385
 ---------------------------------------------------------------------
                    Distance matrix (angstroms):
                    1          2          3          4          5
     1  C    0.000000
     2  H    1.071022   0.000000
     3  H    1.073248   1.848321   0.000000
     4  C    1.307896   2.068945   2.069541   0.000000
     5  C    2.512303   2.761905   3.477295   1.502995   0.000000
     6  F    3.394858   3.698429   4.262919   2.329143   1.320478
     7  F    2.764500   2.477000   3.837040   2.330336   1.318684
     8  F    3.393998   3.696404   4.262054   2.329300   1.320333
     9  F    2.312718   3.279825   2.576291   1.326252   2.328776
                    6          7          8          9
     6  F    0.000000
     7  F    2.135560   0.000000
     8  F    2.128528   2.135560   0.000000
     9  F    2.736013   3.477402   2.736930   0.000000
 Stoichiometry    C3H2F4
 Framework group  C1[X(C3H2F4)]
 Deg. of freedom    21
 Full point group                 C1      NOp   1
 RotChk:  IX=3 Diff= 1.29D-03
 Largest Abelian subgroup         C1      NOp   1
 Largest concise Abelian subgroup C1      NOp   1
                         Standard orientation:                         
 ---------------------------------------------------------------------
 Center     Atomic      Atomic             Coordinates (Angstroms)
 Number     Number       Type             X           Y           Z
 ---------------------------------------------------------------------
      1          6           0        1.711267   -1.061647   -0.000157
      2          1           0        1.308781   -2.054166    0.000857
      3          1           0        2.776501   -0.930739    0.000226
      4          6           0        0.916811   -0.022690   -0.000358
      5          6           0       -0.586023   -0.044730    0.000069
      6          9           0       -1.068551    0.571446   -1.063490
      7          9           0       -1.044506   -1.281143   -0.001439
      8          9           0       -1.068281    0.568905    1.065037
      9          9           0        1.366048    1.225160    0.000068
 ---------------------------------------------------------------------
 Rotational constants (GHZ):           3.8037992           2.5031247           2.0321965
 Leave Link  202 at Thu Apr  2 13:29:26 2026, MaxMem=  2147483648 cpu:               0.0 elap:               0.0
 (Enter /Users/yarger/Applications/g16/l301.exe)
 Standard basis: 6-31+G(d) (6D, 7F)
 Ernie: Thresh=  0.10000D-02 Tol=  0.10000D-05 Strict=F.
 There are   137 symmetry adapted cartesian basis functions of A   symmetry.
 There are   137 symmetry adapted basis functions of A   symmetry.
   137 basis functions,   232 primitive gaussians,   137 cartesian basis functions
    28 alpha electrons       28 beta electrons
       nuclear repulsion energy       336.4711322040 Hartrees.
 IExCor=    0 DFT=F Ex=HF Corr=None ExCW=0 ScaHFX=  1.000000
 ScaDFX=  1.000000  1.000000  1.000000  1.000000 ScalE2=  1.000000  1.000000
 IRadAn=      5 IRanWt=     -1 IRanGd=            0 ICorTp=0 IEmpDi=  4
 NAtoms=    9 NActive=    9 NUniq=    9 SFac= 1.00D+00 NAtFMM=   60 NAOKFM=F Big=F
 Integral buffers will be    131072 words long.
 Raffenetti 1 integral format.
 Two-electron integral symmetry is turned on.
 Leave Link  301 at Thu Apr  2 13:29:26 2026, MaxMem=  2147483648 cpu:               0.2 elap:               0.0
 (Enter /Users/yarger/Applications/g16/l302.exe)
 NPDir=0 NMtPBC=     1 NCelOv=     1 NCel=       1 NClECP=     1 NCelD=      1
         NCelK=      1 NCelE2=     1 NClLst=     1 CellRange=     0.0.
 One-electron integrals computed using PRISM.
 One-electron integral symmetry used in STVInt
 NBasis=   137 RedAO= T EigKep=  6.48D-05  NBF=   137
 NBsUse=   137 1.00D-06 EigRej= -1.00D+00 NBFU=   137
 Leave Link  302 at Thu Apr  2 13:29:26 2026, MaxMem=  2147483648 cpu:               0.7 elap:               0.1
 (Enter /Users/yarger/Applications/g16/l303.exe)
 DipDrv:  MaxL=1.
 Leave Link  303 at Thu Apr  2 13:29:27 2026, MaxMem=  2147483648 cpu:               0.1 elap:               0.0
 (Enter /Users/yarger/Applications/g16/l401.exe)
 Initial guess from the checkpoint file:  "2223Tetrafluoropropene_Opt_Freq_HF_631pd_Gaussian16.chk"
 B after Tr=    -0.000000   -0.000000    0.000000
         Rot=    1.000000    0.000112   -0.000320    0.000065 Ang=   0.04 deg.
 Guess basis will be translated and rotated to current coordinates.
 JPrj=2 DoOrth=T DoCkMO=T.
 Leave Link  401 at Thu Apr  2 13:29:27 2026, MaxMem=  2147483648 cpu:               0.5 elap:               0.1
 (Enter /Users/yarger/Applications/g16/l502.exe)
 Keep R1 ints in memory in canonical form, NReq=46403228.
 FoFCou: FMM=F IPFlag=           0 FMFlag=           0 FMFlg1=           0
         NFxFlg=           0 DoJE=F BraDBF=F KetDBF=F FulRan=T
         wScrn=  0.000000 ICntrl=       600 IOpCl=  0 I1Cent=           0 NGrid=           0
         NMat0=    1 NMatS0=   9453 NMatT0=    0 NMatD0=    1 NMtDS0=    0 NMtDT0=    0
 Symmetry not used in FoFCou.
 Two-electron integral symmetry not used.
 Closed shell SCF:
 Using DIIS extrapolation, IDIIS=  1040.
 NGot=  2147483648 LenX=  2102759234 LenY=  2102740024
 Requested convergence on RMS density matrix=1.00D-08 within 128 cycles.
 Requested convergence on MAX density matrix=1.00D-06.
 Requested convergence on             energy=1.00D-06.
 No special actions if energy rises.

 Cycle   1  Pass 1  IDiag  1:
 E= -512.520108630403    
 DIIS: error= 1.29D-04 at cycle   1 NSaved=   1.
 NSaved= 1 IEnMin= 1 EnMin= -512.520108630403     IErMin= 1 ErrMin= 1.29D-04
 ErrMax= 1.29D-04  0.00D+00 EMaxC= 1.00D-01 BMatC= 3.27D-06 BMatP= 3.27D-06
 IDIUse=3 WtCom= 9.99D-01 WtEn= 1.29D-03
 Coeff-Com:  0.100D+01
 Coeff-En:   0.100D+01
 Coeff:      0.100D+01
 Gap=     0.996 Goal=   None    Shift=    0.000
 RMSDP=3.84D-05 MaxDP=1.14D-03              OVMax= 5.22D-04

 Cycle   2  Pass 1  IDiag  1:
 E= -512.520113209091     Delta-E=       -0.000004578688 Rises=F Damp=F
 DIIS: error= 3.01D-05 at cycle   2 NSaved=   2.
 NSaved= 2 IEnMin= 2 EnMin= -512.520113209091     IErMin= 2 ErrMin= 3.01D-05
 ErrMax= 3.01D-05  0.00D+00 EMaxC= 1.00D-01 BMatC= 2.29D-07 BMatP= 3.27D-06
 IDIUse=1 WtCom= 1.00D+00 WtEn= 0.00D+00
 Coeff-Com: -0.241D+00 0.124D+01
 Coeff:     -0.241D+00 0.124D+01
 Gap=     0.492 Goal=   None    Shift=    0.000
 RMSDP=8.97D-06 MaxDP=2.39D-04 DE=-4.58D-06 OVMax= 2.35D-04

 Cycle   3  Pass 1  IDiag  1:
 E= -512.520113713669     Delta-E=       -0.000000504579 Rises=F Damp=F
 DIIS: error= 1.02D-05 at cycle   3 NSaved=   3.
 NSaved= 3 IEnMin= 3 EnMin= -512.520113713669     IErMin= 3 ErrMin= 1.02D-05
 ErrMax= 1.02D-05  0.00D+00 EMaxC= 1.00D-01 BMatC= 1.42D-08 BMatP= 2.29D-07
 IDIUse=1 WtCom= 1.00D+00 WtEn= 0.00D+00
 Coeff-Com: -0.187D-01-0.804D-01 0.110D+01
 Coeff:     -0.187D-01-0.804D-01 0.110D+01
 Gap=     0.492 Goal=   None    Shift=    0.000
 RMSDP=3.10D-06 MaxDP=9.90D-05 DE=-5.05D-07 OVMax= 5.02D-05

 Cycle   4  Pass 1  IDiag  1:
 E= -512.520113747572     Delta-E=       -0.000000033903 Rises=F Damp=F
 DIIS: error= 3.87D-06 at cycle   4 NSaved=   4.
 NSaved= 4 IEnMin= 4 EnMin= -512.520113747572     IErMin= 4 ErrMin= 3.87D-06
 ErrMax= 3.87D-06  0.00D+00 EMaxC= 1.00D-01 BMatC= 2.68D-09 BMatP= 1.42D-08
 IDIUse=1 WtCom= 1.00D+00 WtEn= 0.00D+00
 Coeff-Com:  0.184D-01-0.129D+00 0.209D+00 0.901D+00
 Coeff:      0.184D-01-0.129D+00 0.209D+00 0.901D+00
 Gap=     0.492 Goal=   None    Shift=    0.000
 RMSDP=1.10D-06 MaxDP=3.41D-05 DE=-3.39D-08 OVMax= 1.86D-05

 Cycle   5  Pass 1  IDiag  1:
 E= -512.520113752340     Delta-E=       -0.000000004768 Rises=F Damp=F
 DIIS: error= 1.72D-06 at cycle   5 NSaved=   5.
 NSaved= 5 IEnMin= 5 EnMin= -512.520113752340     IErMin= 5 ErrMin= 1.72D-06
 ErrMax= 1.72D-06  0.00D+00 EMaxC= 1.00D-01 BMatC= 3.54D-10 BMatP= 2.68D-09
 IDIUse=1 WtCom= 1.00D+00 WtEn= 0.00D+00
 Coeff-Com:  0.382D-02 0.733D-02-0.166D+00 0.387D-01 0.112D+01
 Coeff:      0.382D-02 0.733D-02-0.166D+00 0.387D-01 0.112D+01
 Gap=     0.492 Goal=   None    Shift=    0.000
 RMSDP=5.10D-07 MaxDP=1.50D-05 DE=-4.77D-09 OVMax= 9.86D-06

 Cycle   6  Pass 1  IDiag  1:
 E= -512.520113753235     Delta-E=       -0.000000000895 Rises=F Damp=F
 DIIS: error= 5.12D-07 at cycle   6 NSaved=   6.
 NSaved= 6 IEnMin= 6 EnMin= -512.520113753235     IErMin= 6 ErrMin= 5.12D-07
 ErrMax= 5.12D-07  0.00D+00 EMaxC= 1.00D-01 BMatC= 2.32D-11 BMatP= 3.54D-10
 IDIUse=1 WtCom= 1.00D+00 WtEn= 0.00D+00
 Coeff-Com: -0.204D-02 0.115D-01-0.362D-02-0.938D-01-0.120D+00 0.121D+01
 Coeff:     -0.204D-02 0.115D-01-0.362D-02-0.938D-01-0.120D+00 0.121D+01
 Gap=     0.492 Goal=   None    Shift=    0.000
 RMSDP=1.30D-07 MaxDP=4.41D-06 DE=-8.95D-10 OVMax= 3.98D-06

 Cycle   7  Pass 1  IDiag  1:
 E= -512.520113753316     Delta-E=       -0.000000000080 Rises=F Damp=F
 DIIS: error= 7.32D-08 at cycle   7 NSaved=   7.
 NSaved= 7 IEnMin= 7 EnMin= -512.520113753316     IErMin= 7 ErrMin= 7.32D-08
 ErrMax= 7.32D-08  0.00D+00 EMaxC= 1.00D-01 BMatC= 1.11D-12 BMatP= 2.32D-11
 IDIUse=1 WtCom= 1.00D+00 WtEn= 0.00D+00
 Coeff-Com: -0.245D-03-0.237D-03 0.978D-02-0.378D-02-0.668D-01 0.148D-01
 Coeff-Com:  0.105D+01
 Coeff:     -0.245D-03-0.237D-03 0.978D-02-0.378D-02-0.668D-01 0.148D-01
 Coeff:      0.105D+01
 Gap=     0.492 Goal=   None    Shift=    0.000
 RMSDP=6.29D-08 MaxDP=2.42D-06 DE=-8.03D-11 OVMax= 8.49D-07

 Cycle   8  Pass 1  IDiag  1:
 E= -512.520113753310     Delta-E=        0.000000000005 Rises=F Damp=F
 DIIS: error= 1.66D-08 at cycle   8 NSaved=   8.
 NSaved= 8 IEnMin= 7 EnMin= -512.520113753316     IErMin= 8 ErrMin= 1.66D-08
 ErrMax= 1.66D-08  0.00D+00 EMaxC= 1.00D-01 BMatC= 1.03D-13 BMatP= 1.11D-12
 IDIUse=1 WtCom= 1.00D+00 WtEn= 0.00D+00
 Coeff-Com:  0.128D-03-0.759D-03 0.552D-03 0.593D-02 0.558D-02-0.766D-01
 Coeff-Com:  0.152D-01 0.105D+01
 Coeff:      0.128D-03-0.759D-03 0.552D-03 0.593D-02 0.558D-02-0.766D-01
 Coeff:      0.152D-01 0.105D+01
 Gap=     0.492 Goal=   None    Shift=    0.000
 RMSDP=2.70D-08 MaxDP=1.10D-06 DE= 5.46D-12 OVMax= 2.19D-07

 Cycle   9  Pass 1  IDiag  1:
 E= -512.520113753318     Delta-E=       -0.000000000008 Rises=F Damp=F
 DIIS: error= 6.49D-09 at cycle   9 NSaved=   9.
 NSaved= 9 IEnMin= 9 EnMin= -512.520113753318     IErMin= 9 ErrMin= 6.49D-09
 ErrMax= 6.49D-09  0.00D+00 EMaxC= 1.00D-01 BMatC= 1.34D-14 BMatP= 1.03D-13
 IDIUse=1 WtCom= 1.00D+00 WtEn= 0.00D+00
 Coeff-Com:  0.459D-04-0.840D-04-0.101D-02 0.113D-02 0.826D-02-0.986D-02
 Coeff-Com: -0.119D+00 0.107D+00 0.101D+01
 Coeff:      0.459D-04-0.840D-04-0.101D-02 0.113D-02 0.826D-02-0.986D-02
 Coeff:     -0.119D+00 0.107D+00 0.101D+01
 Gap=     0.492 Goal=   None    Shift=    0.000
 RMSDP=7.77D-09 MaxDP=3.10D-07 DE=-8.19D-12 OVMax= 6.91D-08

 SCF Done:  E(RHF) =  -512.520113753     A.U. after    9 cycles
            NFock=  9  Conv=0.78D-08     -V/T= 2.0023
 KE= 5.113257518627D+02 PE=-1.890897331454D+03 EE= 5.305803336339D+02
 Leave Link  502 at Thu Apr  2 13:29:27 2026, MaxMem=  2147483648 cpu:               3.0 elap:               0.6
 (Enter /Users/yarger/Applications/g16/l701.exe)
 ... and contract with generalized density number  0.
 Compute integral first derivatives.
 Leave Link  701 at Thu Apr  2 13:29:27 2026, MaxMem=  2147483648 cpu:               0.5 elap:               0.1
 (Enter /Users/yarger/Applications/g16/l702.exe)
 L702 exits ... SP integral derivatives will be done elsewhere.
 Leave Link  702 at Thu Apr  2 13:29:27 2026, MaxMem=  2147483648 cpu:               0.1 elap:               0.0
 (Enter /Users/yarger/Applications/g16/l703.exe)
 Integral derivatives from FoFJK, PRISM(SPDF).
 Compute integral first derivatives, UseDBF=F ICtDFT=           0.
 Calling FoFJK, ICntrl=      2127 FMM=F ISym2X=0 I1Cent= 0 IOpClX= 0 NMat=1 NMatS=1 NMatT=0.
 FoFJK:  IHMeth= 1 ICntrl=    2127 DoSepK=F KAlg= 0 I1Cent=           0 FoldK=F
 IRaf=         0 NMat=       1 IRICut=       1 DoRegI=T DoRafI=F ISym2E= 0 IDoP0=0 IntGTp=1.
 FoFCou: FMM=F IPFlag=           0 FMFlag=      100000 FMFlg1=         800
         NFxFlg=           0 DoJE=F BraDBF=F KetDBF=F FulRan=T
         wScrn=  0.000000 ICntrl=      2127 IOpCl=  0 I1Cent=           0 NGrid=           0
         NMat0=    1 NMatS0=      1 NMatT0=    0 NMatD0=    1 NMtDS0=    0 NMtDT0=    0
 Symmetry not used in FoFCou.
 Leave Link  703 at Thu Apr  2 13:29:28 2026, MaxMem=  2147483648 cpu:               3.3 elap:               0.4
 (Enter /Users/yarger/Applications/g16/l716.exe)
 Dipole        = 6.96996229D-01-7.17320589D-01 6.89207197D-04
 ***** Axes restored to original set *****
 -------------------------------------------------------------------
 Center     Atomic                   Forces (Hartrees/Bohr)
 Number     Number              X              Y              Z
 -------------------------------------------------------------------
      1        6          -0.000041642    0.000065731   -0.000057937
      2        1           0.000017978   -0.000033619    0.000055714
      3        1           0.000013450   -0.000026296    0.000011499
      4        6           0.000035810   -0.000025337   -0.000113896
      5        6           0.000044979   -0.000185368    0.000071176
      6        9           0.000006459    0.000070537   -0.000067651
      7        9          -0.000040902    0.000082655    0.000014370
      8        9           0.000000970    0.000000400    0.000009710
      9        9          -0.000037103    0.000051297    0.000077016
 -------------------------------------------------------------------
 Cartesian Forces:  Max     0.000185368 RMS     0.000060755
 Leave Link  716 at Thu Apr  2 13:29:28 2026, MaxMem=  2147483648 cpu:               0.1 elap:               0.0
 (Enter /Users/yarger/Applications/g16/l103.exe)

 GradGradGradGradGradGradGradGradGradGradGradGradGradGradGradGradGradGrad
 Berny optimization.
 Using GEDIIS/GDIIS optimizer.
 FormGI is forming the generalized inverse of G from B-inverse, IUseBI=4.
 Internal  Forces:  Max     0.000093987 RMS     0.000037311
 Search for a local minimum.
 Step number  18 out of a maximum of   40
 All quantities printed in internal units (Hartrees-Bohrs-Radians)
 RMS Force = .37311D-04 SwitMx=.10000D-02 MixMth= 2
 Mixed Optimization -- En-DIIS/RFO-DIIS
 Swapping is turned off.
 Update second derivatives using D2CorX and points   14   15   16   17   18
 DE= -1.62D-06 DEPred=-2.38D-06 R= 6.80D-01
 TightC=F SS=  1.41D+00  RLast= 9.69D-03 DXNew= 1.7954D+00 2.9068D-02
 Trust test= 6.80D-01 RLast= 9.69D-03 DXMaxT set to 1.07D+00
 ITU=  1  1  0  1  1  1  1 -1  0  0  0  0  0  1  1  1  1  0
     Eigenvalues ---    0.00381   0.02235   0.03192   0.04672   0.11764
     Eigenvalues ---    0.12496   0.13896   0.17254   0.20925   0.23688
     Eigenvalues ---    0.25550   0.26768   0.30440   0.35420   0.37009
     Eigenvalues ---    0.44439   0.53520   0.56381   0.59969   0.61760
     Eigenvalues ---    0.78696
 En-DIIS/RFO-DIIS/Sim-DIIS IScMMF=       -3 using points:    18   17   16   15
 RFO step:  Lambda=-2.93010177D-07.
 NNeg= 0 NGDIIS= 4 SimSw=  2.50D-01 Rises=F DC= -1.62D-06 SmlDif=  1.00D-05
 NRisDI= 0 DoIntr=F SqrtH=F CThrHd= 10.0 CDAdj=  3.0
 RMS Error=  0.6090113645D-03 NUsed= 4 OKEnD=F EnDIS=F
 InvSVX:  RCond= 6.71D-06 Info=           0 Equed=N FErr=  4.91D-15 BErr=  6.16D-17
 DidBck=T Rises=F RFO-DIIS coefs:    0.77273    0.20681    0.02418   -0.00372
 Iteration  1 RMS(Cart)=  0.00078728 RMS(Int)=  0.00000050
 Iteration  2 RMS(Cart)=  0.00000045 RMS(Int)=  0.00000028
 ITry= 1 IFail=0 DXMaxC= 2.21D-03 DCOld= 1.00D+10 DXMaxT= 1.07D+00 DXLimC= 3.00D+00 Rises=F
 Variable       Old X    -DE/DX   Delta X   Delta X   Delta X     New X
                                 (Linear)    (Quad)   (Total)
    R1        2.02394  -0.00001   0.00004  -0.00007  -0.00004   2.02390
    R2        2.02814   0.00001  -0.00002   0.00006   0.00004   2.02819
    R3        2.47157   0.00000  -0.00002   0.00003   0.00001   2.47157
    R4        2.84025  -0.00001  -0.00002  -0.00003  -0.00005   2.84020
    R5        2.50625  -0.00009   0.00009  -0.00021  -0.00012   2.50613
    R6        2.49534  -0.00009   0.00008  -0.00025  -0.00017   2.49517
    R7        2.49195   0.00009  -0.00006   0.00021   0.00015   2.49210
    R8        2.49507  -0.00001   0.00002  -0.00002  -0.00000   2.49506
    A1        2.07833   0.00000   0.00004   0.00002   0.00006   2.07839
    A2        2.10351   0.00002  -0.00004   0.00020   0.00015   2.10367
    A3        2.10134  -0.00003  -0.00000  -0.00021  -0.00021   2.10113
    A4        2.20895   0.00002   0.00014  -0.00002   0.00012   2.20907
    A5        2.14321   0.00000   0.00002  -0.00004  -0.00001   2.14319
    A6        1.93102  -0.00003  -0.00017   0.00006  -0.00011   1.93092
    A7        1.93725   0.00004  -0.00019   0.00039   0.00020   1.93745
    A8        1.94056   0.00001   0.00000   0.00001   0.00001   1.94057
    A9        1.93760  -0.00001   0.00003  -0.00011  -0.00008   1.93752
   A10        1.88551  -0.00000   0.00024  -0.00026  -0.00003   1.88549
   A11        1.87477  -0.00002  -0.00015   0.00014  -0.00001   1.87476
   A12        1.88567  -0.00002   0.00008  -0.00017  -0.00009   1.88557
    D1       -0.00054   0.00004   0.00074  -0.00018   0.00056   0.00002
    D2        3.14010   0.00007   0.00151  -0.00002   0.00149  -3.14159
    D3       -3.14080  -0.00003  -0.00061  -0.00022  -0.00083   3.14155
    D4       -0.00016  -0.00000   0.00016  -0.00006   0.00010  -0.00006
    D5       -2.10116   0.00000   0.00120   0.00025   0.00145  -2.09971
    D6       -0.00174   0.00004   0.00138   0.00018   0.00156  -0.00018
    D7        2.09811   0.00001   0.00150  -0.00010   0.00140   2.09951
    D8        1.04128  -0.00002   0.00051   0.00011   0.00062   1.04190
    D9        3.14071   0.00001   0.00069   0.00004   0.00073   3.14143
   D10       -1.04263  -0.00001   0.00081  -0.00024   0.00056  -1.04207
         Item               Value     Threshold  Converged?
 Maximum Force            0.000094     0.000015     NO 
 RMS     Force            0.000037     0.000010     NO 
 Maximum Displacement     0.002211     0.000060     NO 
 RMS     Displacement     0.000787     0.000040     NO 
 Predicted change in Energy=-1.464961D-07
 Lowest energy point so far.  Saving SCF results.
 GradGradGradGradGradGradGradGradGradGradGradGradGradGradGradGradGradGrad

 Leave Link  103 at Thu Apr  2 13:29:28 2026, MaxMem=  2147483648 cpu:               0.1 elap:               0.0
 (Enter /Users/yarger/Applications/g16/l202.exe)
                          Input orientation:                          
 ---------------------------------------------------------------------
 Center     Atomic      Atomic             Coordinates (Angstroms)
 Number     Number       Type             X           Y           Z
 ---------------------------------------------------------------------
      1          6           0        1.736027    1.022445    0.214839
      2          1           0        1.352204    1.909907    0.675424
      3          1           0        2.795411    0.924455    0.073374
      4          6           0        0.926288    0.070329   -0.170389
      5          6           0       -0.571089    0.061411   -0.041199
      6          9           0       -0.977206   -0.961786    0.687881
      7          9           0       -1.006836    1.167643    0.529333
      8          9           0       -1.147729   -0.042830   -1.224371
      9          9           0        1.352449   -1.046408   -0.744895
 ---------------------------------------------------------------------
                    Distance matrix (angstroms):
                    1          2          3          4          5
     1  C    0.000000
     2  H    1.071003   0.000000
     3  H    1.073270   1.848357   0.000000
     4  C    1.307900   2.069021   2.069438   0.000000
     5  C    2.512355   2.762162   3.477254   1.502967   0.000000
     6  F    3.394491   3.697692   4.262413   2.329201   1.320386
     7  F    2.764649   2.477371   3.837202   2.330381   1.318761
     8  F    3.394433   3.697575   4.262409   2.329212   1.320332
     9  F    2.312655   3.279802   2.576045   1.326187   2.328615
                    6          7          8          9
     6  F    0.000000
     7  F    2.135529   0.000000
     8  F    2.128442   2.135550   0.000000
     9  F    2.736293   3.477341   2.736412   0.000000
 Stoichiometry    C3H2F4
 Framework group  C1[X(C3H2F4)]
 Deg. of freedom    21
 Full point group                 C1      NOp   1
 RotChk:  IX=3 Diff= 5.26D-04
 Largest Abelian subgroup         C1      NOp   1
 Largest concise Abelian subgroup C1      NOp   1
                         Standard orientation:                         
 ---------------------------------------------------------------------
 Center     Atomic      Atomic             Coordinates (Angstroms)
 Number     Number       Type             X           Y           Z
 ---------------------------------------------------------------------
      1          6           0        1.711391   -1.061557    0.000020
      2          1           0        1.309173   -2.054163    0.000031
      3          1           0        2.776605   -0.930301   -0.000041
      4          6           0        0.916819   -0.022684    0.000008
      5          6           0       -0.585986   -0.044706    0.000036
      6          9           0       -1.068415    0.570239   -1.064165
      7          9           0       -1.044520   -1.281184   -0.000143
      8          9           0       -1.068437    0.570035    1.064277
      9          9           0        1.365915    1.225148   -0.000009
 ---------------------------------------------------------------------
 Rotational constants (GHZ):           3.8039929           2.5031588           2.0322173
 Leave Link  202 at Thu Apr  2 13:29:28 2026, MaxMem=  2147483648 cpu:               0.1 elap:               0.0
 (Enter /Users/yarger/Applications/g16/l301.exe)
 Standard basis: 6-31+G(d) (6D, 7F)
 Ernie: Thresh=  0.10000D-02 Tol=  0.10000D-05 Strict=F.
 There are   137 symmetry adapted cartesian basis functions of A   symmetry.
 There are   137 symmetry adapted basis functions of A   symmetry.
   137 basis functions,   232 primitive gaussians,   137 cartesian basis functions
    28 alpha electrons       28 beta electrons
       nuclear repulsion energy       336.4752862988 Hartrees.
 IExCor=    0 DFT=F Ex=HF Corr=None ExCW=0 ScaHFX=  1.000000
 ScaDFX=  1.000000  1.000000  1.000000  1.000000 ScalE2=  1.000000  1.000000
 IRadAn=      5 IRanWt=     -1 IRanGd=            0 ICorTp=0 IEmpDi=  4
 NAtoms=    9 NActive=    9 NUniq=    9 SFac= 1.00D+00 NAtFMM=   60 NAOKFM=F Big=F
 Integral buffers will be    131072 words long.
 Raffenetti 1 integral format.
 Two-electron integral symmetry is turned on.
 Leave Link  301 at Thu Apr  2 13:29:28 2026, MaxMem=  2147483648 cpu:               0.1 elap:               0.0
 (Enter /Users/yarger/Applications/g16/l302.exe)
 NPDir=0 NMtPBC=     1 NCelOv=     1 NCel=       1 NClECP=     1 NCelD=      1
         NCelK=      1 NCelE2=     1 NClLst=     1 CellRange=     0.0.
 One-electron integrals computed using PRISM.
 One-electron integral symmetry used in STVInt
 NBasis=   137 RedAO= T EigKep=  6.48D-05  NBF=   137
 NBsUse=   137 1.00D-06 EigRej= -1.00D+00 NBFU=   137
 Leave Link  302 at Thu Apr  2 13:29:28 2026, MaxMem=  2147483648 cpu:               0.7 elap:               0.1
 (Enter /Users/yarger/Applications/g16/l303.exe)
 DipDrv:  MaxL=1.
 Leave Link  303 at Thu Apr  2 13:29:28 2026, MaxMem=  2147483648 cpu:               0.1 elap:               0.0
 (Enter /Users/yarger/Applications/g16/l401.exe)
 Initial guess from the checkpoint file:  "2223Tetrafluoropropene_Opt_Freq_HF_631pd_Gaussian16.chk"
 B after Tr=    -0.000000    0.000000   -0.000000
         Rot=    1.000000    0.000337    0.000028   -0.000024 Ang=   0.04 deg.
 Guess basis will be translated and rotated to current coordinates.
 JPrj=2 DoOrth=T DoCkMO=T.
 Leave Link  401 at Thu Apr  2 13:29:28 2026, MaxMem=  2147483648 cpu:               0.4 elap:               0.1
 (Enter /Users/yarger/Applications/g16/l502.exe)
 Keep R1 ints in memory in canonical form, NReq=46403228.
 FoFCou: FMM=F IPFlag=           0 FMFlag=           0 FMFlg1=           0
         NFxFlg=           0 DoJE=F BraDBF=F KetDBF=F FulRan=T
         wScrn=  0.000000 ICntrl=       600 IOpCl=  0 I1Cent=           0 NGrid=           0
         NMat0=    1 NMatS0=   9453 NMatT0=    0 NMatD0=    1 NMtDS0=    0 NMtDT0=    0
 Symmetry not used in FoFCou.
 Two-electron integral symmetry not used.
 Closed shell SCF:
 Using DIIS extrapolation, IDIIS=  1040.
 NGot=  2147483648 LenX=  2102759234 LenY=  2102740024
 Requested convergence on RMS density matrix=1.00D-08 within 128 cycles.
 Requested convergence on MAX density matrix=1.00D-06.
 Requested convergence on             energy=1.00D-06.
 No special actions if energy rises.

 Cycle   1  Pass 1  IDiag  1:
 E= -512.520113053508    
 DIIS: error= 6.24D-05 at cycle   1 NSaved=   1.
 NSaved= 1 IEnMin= 1 EnMin= -512.520113053508     IErMin= 1 ErrMin= 6.24D-05
 ErrMax= 6.24D-05  0.00D+00 EMaxC= 1.00D-01 BMatC= 4.89D-07 BMatP= 4.89D-07
 IDIUse=1 WtCom= 1.00D+00 WtEn= 0.00D+00
 Coeff-Com:  0.100D+01
 Coeff:      0.100D+01
 Gap=     0.996 Goal=   None    Shift=    0.000
 RMSDP=1.28D-05 MaxDP=2.67D-04              OVMax= 2.18D-04

 Cycle   2  Pass 1  IDiag  1:
 E= -512.520113804012     Delta-E=       -0.000000750504 Rises=F Damp=F
 DIIS: error= 1.53D-05 at cycle   2 NSaved=   2.
 NSaved= 2 IEnMin= 2 EnMin= -512.520113804012     IErMin= 2 ErrMin= 1.53D-05
 ErrMax= 1.53D-05  0.00D+00 EMaxC= 1.00D-01 BMatC= 3.89D-08 BMatP= 4.89D-07
 IDIUse=1 WtCom= 1.00D+00 WtEn= 0.00D+00
 Coeff-Com: -0.272D+00 0.127D+01
 Coeff:     -0.272D+00 0.127D+01
 Gap=     0.492 Goal=   None    Shift=    0.000
 RMSDP=3.84D-06 MaxDP=1.00D-04 DE=-7.51D-07 OVMax= 1.13D-04

 Cycle   3  Pass 1  IDiag  1:
 E= -512.520113899663     Delta-E=       -0.000000095652 Rises=F Damp=F
 DIIS: error= 5.50D-06 at cycle   3 NSaved=   3.
 NSaved= 3 IEnMin= 3 EnMin= -512.520113899663     IErMin= 3 ErrMin= 5.50D-06
 ErrMax= 5.50D-06  0.00D+00 EMaxC= 1.00D-01 BMatC= 2.45D-09 BMatP= 3.89D-08
 IDIUse=1 WtCom= 1.00D+00 WtEn= 0.00D+00
 Coeff-Com: -0.130D-01-0.967D-01 0.111D+01
 Coeff:     -0.130D-01-0.967D-01 0.111D+01
 Gap=     0.492 Goal=   None    Shift=    0.000
 RMSDP=1.33D-06 MaxDP=4.52D-05 DE=-9.57D-08 OVMax= 3.74D-05

 Cycle   4  Pass 1  IDiag  1:
 E= -512.520113906691     Delta-E=       -0.000000007027 Rises=F Damp=F
 DIIS: error= 1.50D-06 at cycle   4 NSaved=   4.
 NSaved= 4 IEnMin= 4 EnMin= -512.520113906691     IErMin= 4 ErrMin= 1.50D-06
 ErrMax= 1.50D-06  0.00D+00 EMaxC= 1.00D-01 BMatC= 4.72D-10 BMatP= 2.45D-09
 IDIUse=1 WtCom= 1.00D+00 WtEn= 0.00D+00
 Coeff-Com:  0.280D-01-0.152D+00 0.160D+00 0.965D+00
 Coeff:      0.280D-01-0.152D+00 0.160D+00 0.965D+00
 Gap=     0.492 Goal=   None    Shift=    0.000
 RMSDP=5.12D-07 MaxDP=1.52D-05 DE=-7.03D-09 OVMax= 1.49D-05

 Cycle   5  Pass 1  IDiag  1:
 E= -512.520113907736     Delta-E=       -0.000000001046 Rises=F Damp=F
 DIIS: error= 5.72D-07 at cycle   5 NSaved=   5.
 NSaved= 5 IEnMin= 5 EnMin= -512.520113907736     IErMin= 5 ErrMin= 5.72D-07
 ErrMax= 5.72D-07  0.00D+00 EMaxC= 1.00D-01 BMatC= 6.42D-11 BMatP= 4.72D-10
 IDIUse=1 WtCom= 1.00D+00 WtEn= 0.00D+00
 Coeff-Com:  0.585D-02-0.598D-02-0.148D+00 0.114D+00 0.103D+01
 Coeff:      0.585D-02-0.598D-02-0.148D+00 0.114D+00 0.103D+01
 Gap=     0.492 Goal=   None    Shift=    0.000
 RMSDP=1.97D-07 MaxDP=5.81D-06 DE=-1.05D-09 OVMax= 6.13D-06

 Cycle   6  Pass 1  IDiag  1:
 E= -512.520113907893     Delta-E=       -0.000000000157 Rises=F Damp=F
 DIIS: error= 1.92D-07 at cycle   6 NSaved=   6.
 NSaved= 6 IEnMin= 6 EnMin= -512.520113907893     IErMin= 6 ErrMin= 1.92D-07
 ErrMax= 1.92D-07  0.00D+00 EMaxC= 1.00D-01 BMatC= 3.90D-12 BMatP= 6.42D-11
 IDIUse=1 WtCom= 1.00D+00 WtEn= 0.00D+00
 Coeff-Com: -0.342D-02 0.165D-01-0.565D-03-0.112D+00-0.112D+00 0.121D+01
 Coeff:     -0.342D-02 0.165D-01-0.565D-03-0.112D+00-0.112D+00 0.121D+01
 Gap=     0.492 Goal=   None    Shift=    0.000
 RMSDP=5.76D-08 MaxDP=1.74D-06 DE=-1.57D-10 OVMax= 1.91D-06

 Cycle   7  Pass 1  IDiag  1:
 E= -512.520113907903     Delta-E=       -0.000000000010 Rises=F Damp=F
 DIIS: error= 3.01D-08 at cycle   7 NSaved=   7.
 NSaved= 7 IEnMin= 7 EnMin= -512.520113907903     IErMin= 7 ErrMin= 3.01D-08
 ErrMax= 3.01D-08  0.00D+00 EMaxC= 1.00D-01 BMatC= 1.71D-13 BMatP= 3.90D-12
 IDIUse=1 WtCom= 1.00D+00 WtEn= 0.00D+00
 Coeff-Com:  0.661D-04-0.122D-02 0.690D-02 0.477D-02-0.358D-01-0.113D+00
 Coeff-Com:  0.114D+01
 Coeff:      0.661D-04-0.122D-02 0.690D-02 0.477D-02-0.358D-01-0.113D+00
 Coeff:      0.114D+01
 Gap=     0.492 Goal=   None    Shift=    0.000
 RMSDP=2.42D-08 MaxDP=7.94D-07 DE=-9.55D-12 OVMax= 3.24D-07

 Cycle   8  Pass 1  IDiag  1:
 E= -512.520113907904     Delta-E=       -0.000000000001 Rises=F Damp=F
 DIIS: error= 9.06D-09 at cycle   8 NSaved=   8.
 NSaved= 8 IEnMin= 8 EnMin= -512.520113907904     IErMin= 8 ErrMin= 9.06D-09
 ErrMax= 9.06D-09  0.00D+00 EMaxC= 1.00D-01 BMatC= 2.36D-14 BMatP= 1.71D-13
 IDIUse=1 WtCom= 1.00D+00 WtEn= 0.00D+00
 Coeff-Com:  0.291D-03-0.154D-02 0.111D-02 0.970D-02 0.353D-02-0.112D+00
 Coeff-Com:  0.146D+00 0.953D+00
 Coeff:      0.291D-03-0.154D-02 0.111D-02 0.970D-02 0.353D-02-0.112D+00
 Coeff:      0.146D+00 0.953D+00
 Gap=     0.492 Goal=   None    Shift=    0.000
 RMSDP=9.27D-09 MaxDP=3.44D-07 DE=-1.14D-12 OVMax= 6.97D-08

 SCF Done:  E(RHF) =  -512.520113908     A.U. after    8 cycles
            NFock=  8  Conv=0.93D-08     -V/T= 2.0023
 KE= 5.113260564879D+02 PE=-1.890905874004D+03 EE= 5.305844173090D+02
 Leave Link  502 at Thu Apr  2 13:29:29 2026, MaxMem=  2147483648 cpu:               2.9 elap:               0.6
 (Enter /Users/yarger/Applications/g16/l701.exe)
 ... and contract with generalized density number  0.
 Compute integral first derivatives.
 Leave Link  701 at Thu Apr  2 13:29:29 2026, MaxMem=  2147483648 cpu:               0.5 elap:               0.1
 (Enter /Users/yarger/Applications/g16/l702.exe)
 L702 exits ... SP integral derivatives will be done elsewhere.
 Leave Link  702 at Thu Apr  2 13:29:29 2026, MaxMem=  2147483648 cpu:               0.1 elap:               0.0
 (Enter /Users/yarger/Applications/g16/l703.exe)
 Integral derivatives from FoFJK, PRISM(SPDF).
 Compute integral first derivatives, UseDBF=F ICtDFT=           0.
 Calling FoFJK, ICntrl=      2127 FMM=F ISym2X=0 I1Cent= 0 IOpClX= 0 NMat=1 NMatS=1 NMatT=0.
 FoFJK:  IHMeth= 1 ICntrl=    2127 DoSepK=F KAlg= 0 I1Cent=           0 FoldK=F
 IRaf=         0 NMat=       1 IRICut=       1 DoRegI=T DoRafI=F ISym2E= 0 IDoP0=0 IntGTp=1.
 FoFCou: FMM=F IPFlag=           0 FMFlag=      100000 FMFlg1=         800
         NFxFlg=           0 DoJE=F BraDBF=F KetDBF=F FulRan=T
         wScrn=  0.000000 ICntrl=      2127 IOpCl=  0 I1Cent=           0 NGrid=           0
         NMat0=    1 NMatS0=      1 NMatT0=    0 NMatD0=    1 NMtDS0=    0 NMtDT0=    0
 Symmetry not used in FoFCou.
 Leave Link  703 at Thu Apr  2 13:29:30 2026, MaxMem=  2147483648 cpu:               3.2 elap:               0.4
 (Enter /Users/yarger/Applications/g16/l716.exe)
 Dipole        = 6.97230531D-01-7.16926711D-01 1.25405513D-04
 ***** Axes restored to original set *****
 -------------------------------------------------------------------
 Center     Atomic                   Forces (Hartrees/Bohr)
 Number     Number              X              Y              Z
 -------------------------------------------------------------------
      1        6          -0.000008480   -0.000001837    0.000006067
      2        1           0.000001469    0.000003368    0.000000791
      3        1          -0.000000981   -0.000000357   -0.000003096
      4        6           0.000023391   -0.000017701   -0.000016697
      5        6          -0.000007904   -0.000046030    0.000028265
      6        9           0.000010205    0.000012036   -0.000024349
      7        9          -0.000007960    0.000039951    0.000008424
      8        9          -0.000001447   -0.000004585   -0.000007484
      9        9          -0.000008294    0.000015155    0.000008080
 -------------------------------------------------------------------
 Cartesian Forces:  Max     0.000046030 RMS     0.000016411
 Leave Link  716 at Thu Apr  2 13:29:30 2026, MaxMem=  2147483648 cpu:               0.1 elap:               0.0
 (Enter /Users/yarger/Applications/g16/l103.exe)

 GradGradGradGradGradGradGradGradGradGradGradGradGradGradGradGradGradGrad
 Berny optimization.
 Using GEDIIS/GDIIS optimizer.
 FormGI is forming the generalized inverse of G from B-inverse, IUseBI=4.
 Internal  Forces:  Max     0.000039787 RMS     0.000010646
 Search for a local minimum.
 Step number  19 out of a maximum of   40
 All quantities printed in internal units (Hartrees-Bohrs-Radians)
 RMS Force = .10646D-04 SwitMx=.10000D-02 MixMth= 2
 Mixed Optimization -- En-DIIS/RFO-DIIS
 Swapping is turned off.
 Update second derivatives using D2CorX and points   14   15   16   17   18
                                                     19
 DE= -1.55D-07 DEPred=-1.46D-07 R= 1.06D+00
 Trust test= 1.06D+00 RLast= 3.35D-03 DXMaxT set to 1.07D+00
 ITU=  0  1  1  0  1  1  1  1 -1  0  0  0  0  0  1  1  1  1  0
     Eigenvalues ---    0.00377   0.02234   0.03193   0.05014   0.11592
     Eigenvalues ---    0.12459   0.13588   0.16897   0.20867   0.23937
     Eigenvalues ---    0.25521   0.27131   0.30630   0.35482   0.37012
     Eigenvalues ---    0.43827   0.52272   0.54501   0.59245   0.62078
     Eigenvalues ---    0.78656
 En-DIIS/RFO-DIIS/Sim-DIIS IScMMF=       -3 using points:    19   18   17   16   15
 RFO step:  Lambda=-8.73255312D-09.
 NNeg= 0 NGDIIS= 5 SimSw=  2.50D-01 Rises=F DC= -1.55D-07 SmlDif=  1.00D-05
 NRisDI= 0 DoIntr=F SqrtH=F CThrHd= 10.0 CDAdj=  3.0
 RMS Error=  0.7762014768D-04 NUsed= 5 OKEnD=F EnDIS=F
 InvSVX:  RCond= 8.11D-08 Info=           0 Equed=N FErr=  5.73D-15 BErr=  7.45D-17
 DIIS inversion failure, remove point   5.
 InvSVX:  RCond= 1.04D-07 Info=           0 Equed=N FErr=  5.03D-15 BErr=  9.16D-17
 RFO-DIIS uses    4 points instead of    5
 DidBck=F Rises=F RFO-DIIS coefs:    1.03184   -0.03066   -0.00404    0.00286    0.00000
 Iteration  1 RMS(Cart)=  0.00008471 RMS(Int)=  0.00000001
 Iteration  2 RMS(Cart)=  0.00000001 RMS(Int)=  0.00000001
 ITry= 1 IFail=0 DXMaxC= 2.17D-04 DCOld= 1.00D+10 DXMaxT= 1.07D+00 DXLimC= 3.00D+00 Rises=F
 Variable       Old X    -DE/DX   Delta X   Delta X   Delta X     New X
                                 (Linear)    (Quad)   (Total)
    R1        2.02390   0.00000  -0.00000   0.00001   0.00000   2.02391
    R2        2.02819  -0.00000   0.00000  -0.00000  -0.00000   2.02819
    R3        2.47157  -0.00000   0.00000  -0.00000  -0.00000   2.47157
    R4        2.84020   0.00001  -0.00001   0.00004   0.00003   2.84023
    R5        2.50613  -0.00002  -0.00001  -0.00004  -0.00004   2.50609
    R6        2.49517  -0.00003  -0.00000  -0.00006  -0.00006   2.49511
    R7        2.49210   0.00004  -0.00000   0.00008   0.00008   2.49218
    R8        2.49506   0.00001   0.00000   0.00001   0.00001   2.49507
    A1        2.07839  -0.00000   0.00000   0.00000   0.00000   2.07839
    A2        2.10367   0.00000   0.00001   0.00003   0.00004   2.10370
    A3        2.10113  -0.00000  -0.00001  -0.00003  -0.00004   2.10109
    A4        2.20907  -0.00001   0.00001  -0.00004  -0.00003   2.20905
    A5        2.14319   0.00001   0.00001   0.00001   0.00002   2.14321
    A6        1.93092  -0.00000  -0.00002   0.00002   0.00001   1.93092
    A7        1.93745  -0.00000  -0.00000   0.00003   0.00003   1.93748
    A8        1.94057  -0.00001   0.00000  -0.00001  -0.00001   1.94056
    A9        1.93752  -0.00001   0.00000  -0.00004  -0.00004   1.93747
   A10        1.88549   0.00002   0.00000   0.00009   0.00009   1.88558
   A11        1.87476  -0.00000  -0.00000  -0.00005  -0.00005   1.87470
   A12        1.88557   0.00000  -0.00000  -0.00002  -0.00002   1.88556
    D1        0.00002  -0.00000   0.00004  -0.00007  -0.00003  -0.00001
    D2       -3.14159  -0.00000   0.00003  -0.00003  -0.00000  -3.14159
    D3        3.14155   0.00000   0.00000   0.00006   0.00006  -3.14158
    D4       -0.00006   0.00000  -0.00000   0.00009   0.00009   0.00002
    D5       -2.09971  -0.00001   0.00013  -0.00005   0.00008  -2.09963
    D6       -0.00018   0.00001   0.00013   0.00008   0.00022   0.00004
    D7        2.09951   0.00000   0.00013   0.00003   0.00016   2.09967
    D8        1.04190  -0.00001   0.00014  -0.00008   0.00006   1.04196
    D9        3.14143   0.00001   0.00014   0.00005   0.00019  -3.14156
   D10       -1.04207   0.00000   0.00014  -0.00000   0.00013  -1.04193
         Item               Value     Threshold  Converged?
 Maximum Force            0.000040     0.000015     NO 
 RMS     Force            0.000011     0.000010     NO 
 Maximum Displacement     0.000217     0.000060     NO 
 RMS     Displacement     0.000085     0.000040     NO 
 Predicted change in Energy=-5.573610D-09
 Lowest energy point so far.  Saving SCF results.
 GradGradGradGradGradGradGradGradGradGradGradGradGradGradGradGradGradGrad

 Leave Link  103 at Thu Apr  2 13:29:30 2026, MaxMem=  2147483648 cpu:               0.1 elap:               0.0
 (Enter /Users/yarger/Applications/g16/l202.exe)
                          Input orientation:                          
 ---------------------------------------------------------------------
 Center     Atomic      Atomic             Coordinates (Angstroms)
 Number     Number       Type             X           Y           Z
 ---------------------------------------------------------------------
      1          6           0        1.736022    1.022428    0.214884
      2          1           0        1.352222    1.909873    0.675527
      3          1           0        2.795396    0.924460    0.073326
      4          6           0        0.926298    0.070326   -0.170404
      5          6           0       -0.571092    0.061400   -0.041169
      6          9           0       -0.977207   -0.961759    0.687906
      7          9           0       -1.006847    1.167743    0.529243
      8          9           0       -1.147714   -0.042945   -1.224346
      9          9           0        1.352441   -1.046360   -0.744971
 ---------------------------------------------------------------------
                    Distance matrix (angstroms):
                    1          2          3          4          5
     1  C    0.000000
     2  H    1.071005   0.000000
     3  H    1.073270   1.848359   0.000000
     4  C    1.307899   2.069044   2.069414   0.000000
     5  C    2.512352   2.762180   3.477243   1.502983   0.000000
     6  F    3.394460   3.697656   4.262400   2.329211   1.320354
     7  F    2.764647   2.477371   3.837199   2.330425   1.318805
     8  F    3.394457   3.697661   4.262387   2.329195   1.320336
     9  F    2.312648   3.279806   2.576016   1.326165   2.328616
                    6          7          8          9
     6  F    0.000000
     7  F    2.135610   0.000000
     8  F    2.128379   2.135575   0.000000
     9  F    2.736340   3.477372   2.736315   0.000000
 Stoichiometry    C3H2F4
 Framework group  C1[X(C3H2F4)]
 Deg. of freedom    21
 Full point group                 C1      NOp   1
 RotChk:  IX=1 Diff= 4.78D-05
 Largest Abelian subgroup         C1      NOp   1
 Largest concise Abelian subgroup C1      NOp   1
                         Standard orientation:                         
 ---------------------------------------------------------------------
 Center     Atomic      Atomic             Coordinates (Angstroms)
 Number     Number       Type             X           Y           Z
 ---------------------------------------------------------------------
      1          6           0        1.711384   -1.061558   -0.000021
      2          1           0        1.309184   -2.054175   -0.000035
      3          1           0        2.776595   -0.930280   -0.000001
      4          6           0        0.916830   -0.022673   -0.000000
      5          6           0       -0.585992   -0.044710   -0.000002
      6          9           0       -1.068428    0.570168   -1.064198
      7          9           0       -1.044521   -1.281236    0.000020
      8          9           0       -1.068420    0.570161    1.064181
      9          9           0        1.365913    1.225140    0.000016
 ---------------------------------------------------------------------
 Rotational constants (GHZ):           3.8039693           2.5031938           2.0321921
 Leave Link  202 at Thu Apr  2 13:29:30 2026, MaxMem=  2147483648 cpu:               0.0 elap:               0.0
 (Enter /Users/yarger/Applications/g16/l301.exe)
 Standard basis: 6-31+G(d) (6D, 7F)
 Ernie: Thresh=  0.10000D-02 Tol=  0.10000D-05 Strict=F.
 There are   137 symmetry adapted cartesian basis functions of A   symmetry.
 There are   137 symmetry adapted basis functions of A   symmetry.
   137 basis functions,   232 primitive gaussians,   137 cartesian basis functions
    28 alpha electrons       28 beta electrons
       nuclear repulsion energy       336.4749083620 Hartrees.
 IExCor=    0 DFT=F Ex=HF Corr=None ExCW=0 ScaHFX=  1.000000
 ScaDFX=  1.000000  1.000000  1.000000  1.000000 ScalE2=  1.000000  1.000000
 IRadAn=      5 IRanWt=     -1 IRanGd=            0 ICorTp=0 IEmpDi=  4
 NAtoms=    9 NActive=    9 NUniq=    9 SFac= 1.00D+00 NAtFMM=   60 NAOKFM=F Big=F
 Integral buffers will be    131072 words long.
 Raffenetti 1 integral format.
 Two-electron integral symmetry is turned on.
 Leave Link  301 at Thu Apr  2 13:29:30 2026, MaxMem=  2147483648 cpu:               0.2 elap:               0.0
 (Enter /Users/yarger/Applications/g16/l302.exe)
 NPDir=0 NMtPBC=     1 NCelOv=     1 NCel=       1 NClECP=     1 NCelD=      1
         NCelK=      1 NCelE2=     1 NClLst=     1 CellRange=     0.0.
 One-electron integrals computed using PRISM.
 One-electron integral symmetry used in STVInt
 NBasis=   137 RedAO= T EigKep=  6.48D-05  NBF=   137
 NBsUse=   137 1.00D-06 EigRej= -1.00D+00 NBFU=   137
 Leave Link  302 at Thu Apr  2 13:29:30 2026, MaxMem=  2147483648 cpu:               0.7 elap:               0.1
 (Enter /Users/yarger/Applications/g16/l303.exe)
 DipDrv:  MaxL=1.
 Leave Link  303 at Thu Apr  2 13:29:30 2026, MaxMem=  2147483648 cpu:               0.1 elap:               0.0
 (Enter /Users/yarger/Applications/g16/l401.exe)
 Initial guess from the checkpoint file:  "2223Tetrafluoropropene_Opt_Freq_HF_631pd_Gaussian16.chk"
 B after Tr=    -0.000000   -0.000000   -0.000000
         Rot=    1.000000    0.000028   -0.000003    0.000000 Ang=   0.00 deg.
 Guess basis will be translated and rotated to current coordinates.
 JPrj=2 DoOrth=T DoCkMO=T.
 Leave Link  401 at Thu Apr  2 13:29:30 2026, MaxMem=  2147483648 cpu:               0.4 elap:               0.1
 (Enter /Users/yarger/Applications/g16/l502.exe)
 Keep R1 ints in memory in canonical form, NReq=46403228.
 FoFCou: FMM=F IPFlag=           0 FMFlag=           0 FMFlg1=           0
         NFxFlg=           0 DoJE=F BraDBF=F KetDBF=F FulRan=T
         wScrn=  0.000000 ICntrl=       600 IOpCl=  0 I1Cent=           0 NGrid=           0
         NMat0=    1 NMatS0=   9453 NMatT0=    0 NMatD0=    1 NMtDS0=    0 NMtDT0=    0
 Symmetry not used in FoFCou.
 Two-electron integral symmetry not used.
 Closed shell SCF:
 Using DIIS extrapolation, IDIIS=  1040.
 NGot=  2147483648 LenX=  2102759234 LenY=  2102740024
 Requested convergence on RMS density matrix=1.00D-08 within 128 cycles.
 Requested convergence on MAX density matrix=1.00D-06.
 Requested convergence on             energy=1.00D-06.
 No special actions if energy rises.

 Cycle   1  Pass 1  IDiag  1:
 E= -512.520113896702    
 DIIS: error= 6.52D-06 at cycle   1 NSaved=   1.
 NSaved= 1 IEnMin= 1 EnMin= -512.520113896702     IErMin= 1 ErrMin= 6.52D-06
 ErrMax= 6.52D-06  0.00D+00 EMaxC= 1.00D-01 BMatC= 1.06D-08 BMatP= 1.06D-08
 IDIUse=1 WtCom= 1.00D+00 WtEn= 0.00D+00
 Coeff-Com:  0.100D+01
 Coeff:      0.100D+01
 Gap=     0.996 Goal=   None    Shift=    0.000
 RMSDP=1.39D-06 MaxDP=2.31D-05              OVMax= 2.29D-05

 Cycle   2  Pass 1  IDiag  1:
 E= -512.520113910514     Delta-E=       -0.000000013812 Rises=F Damp=F
 DIIS: error= 1.73D-06 at cycle   2 NSaved=   2.
 NSaved= 2 IEnMin= 2 EnMin= -512.520113910514     IErMin= 2 ErrMin= 1.73D-06
 ErrMax= 1.73D-06  0.00D+00 EMaxC= 1.00D-01 BMatC= 7.72D-10 BMatP= 1.06D-08
 IDIUse=1 WtCom= 1.00D+00 WtEn= 0.00D+00
 Coeff-Com: -0.235D+00 0.123D+01
 Coeff:     -0.235D+00 0.123D+01
 Gap=     0.492 Goal=   None    Shift=    0.000
 RMSDP=3.97D-07 MaxDP=7.16D-06 DE=-1.38D-08 OVMax= 1.24D-05

 Cycle   3  Pass 1  IDiag  1:
 E= -512.520113912155     Delta-E=       -0.000000001642 Rises=F Damp=F
 DIIS: error= 5.77D-07 at cycle   3 NSaved=   3.
 NSaved= 3 IEnMin= 3 EnMin= -512.520113912155     IErMin= 3 ErrMin= 5.77D-07
 ErrMax= 5.77D-07  0.00D+00 EMaxC= 1.00D-01 BMatC= 8.30D-11 BMatP= 7.72D-10
 IDIUse=1 WtCom= 1.00D+00 WtEn= 0.00D+00
 Coeff-Com: -0.682D-01 0.166D+00 0.903D+00
 Coeff:     -0.682D-01 0.166D+00 0.903D+00
 Gap=     0.492 Goal=   None    Shift=    0.000
 RMSDP=1.04D-07 MaxDP=1.67D-06 DE=-1.64D-09 OVMax= 3.74D-06

 Cycle   4  Pass 1  IDiag  1:
 E= -512.520113912291     Delta-E=       -0.000000000136 Rises=F Damp=F
 DIIS: error= 2.54D-07 at cycle   4 NSaved=   4.
 NSaved= 4 IEnMin= 4 EnMin= -512.520113912291     IErMin= 4 ErrMin= 2.54D-07
 ErrMax= 2.54D-07  0.00D+00 EMaxC= 1.00D-01 BMatC= 1.47D-11 BMatP= 8.30D-11
 IDIUse=1 WtCom= 1.00D+00 WtEn= 0.00D+00
 Coeff-Com:  0.319D-01-0.196D+00 0.137D+00 0.103D+01
 Coeff:      0.319D-01-0.196D+00 0.137D+00 0.103D+01
 Gap=     0.492 Goal=   None    Shift=    0.000
 RMSDP=6.18D-08 MaxDP=1.00D-06 DE=-1.36D-10 OVMax= 2.42D-06

 Cycle   5  Pass 1  IDiag  1:
 E= -512.520113912320     Delta-E=       -0.000000000029 Rises=F Damp=F
 DIIS: error= 6.48D-08 at cycle   5 NSaved=   5.
 NSaved= 5 IEnMin= 5 EnMin= -512.520113912320     IErMin= 5 ErrMin= 6.48D-08
 ErrMax= 6.48D-08  0.00D+00 EMaxC= 1.00D-01 BMatC= 6.49D-13 BMatP= 1.47D-11
 IDIUse=1 WtCom= 1.00D+00 WtEn= 0.00D+00
 Coeff-Com:  0.191D-02 0.595D-02-0.714D-01-0.864D-01 0.115D+01
 Coeff:      0.191D-02 0.595D-02-0.714D-01-0.864D-01 0.115D+01
 Gap=     0.492 Goal=   None    Shift=    0.000
 RMSDP=1.76D-08 MaxDP=3.94D-07 DE=-2.85D-11 OVMax= 7.13D-07

 Cycle   6  Pass 1  IDiag  1:
 E= -512.520113912315     Delta-E=        0.000000000005 Rises=F Damp=F
 DIIS: error= 1.77D-08 at cycle   6 NSaved=   6.
 NSaved= 6 IEnMin= 5 EnMin= -512.520113912320     IErMin= 6 ErrMin= 1.77D-08
 ErrMax= 1.77D-08  0.00D+00 EMaxC= 1.00D-01 BMatC= 6.10D-14 BMatP= 6.49D-13
 IDIUse=1 WtCom= 1.00D+00 WtEn= 0.00D+00
 Coeff-Com: -0.251D-02 0.165D-01-0.143D-01-0.869D-01 0.199D-01 0.107D+01
 Coeff:     -0.251D-02 0.165D-01-0.143D-01-0.869D-01 0.199D-01 0.107D+01
 Gap=     0.492 Goal=   None    Shift=    0.000
 RMSDP=5.58D-09 MaxDP=1.23D-07 DE= 4.66D-12 OVMax= 2.25D-07

 SCF Done:  E(RHF) =  -512.520113912     A.U. after    6 cycles
            NFock=  6  Conv=0.56D-08     -V/T= 2.0023
 KE= 5.113260237985D+02 PE=-1.890905076687D+03 EE= 5.305840306137D+02
 Leave Link  502 at Thu Apr  2 13:29:30 2026, MaxMem=  2147483648 cpu:               2.7 elap:               0.5
 (Enter /Users/yarger/Applications/g16/l701.exe)
 ... and contract with generalized density number  0.
 Compute integral first derivatives.
 Leave Link  701 at Thu Apr  2 13:29:31 2026, MaxMem=  2147483648 cpu:               0.5 elap:               0.1
 (Enter /Users/yarger/Applications/g16/l702.exe)
 L702 exits ... SP integral derivatives will be done elsewhere.
 Leave Link  702 at Thu Apr  2 13:29:31 2026, MaxMem=  2147483648 cpu:               0.1 elap:               0.0
 (Enter /Users/yarger/Applications/g16/l703.exe)
 Integral derivatives from FoFJK, PRISM(SPDF).
 Compute integral first derivatives, UseDBF=F ICtDFT=           0.
 Calling FoFJK, ICntrl=      2127 FMM=F ISym2X=0 I1Cent= 0 IOpClX= 0 NMat=1 NMatS=1 NMatT=0.
 FoFJK:  IHMeth= 1 ICntrl=    2127 DoSepK=F KAlg= 0 I1Cent=           0 FoldK=F
 IRaf=         0 NMat=       1 IRICut=       1 DoRegI=T DoRafI=F ISym2E= 0 IDoP0=0 IntGTp=1.
 FoFCou: FMM=F IPFlag=           0 FMFlag=      100000 FMFlg1=         800
         NFxFlg=           0 DoJE=F BraDBF=F KetDBF=F FulRan=T
         wScrn=  0.000000 ICntrl=      2127 IOpCl=  0 I1Cent=           0 NGrid=           0
         NMat0=    1 NMatS0=      1 NMatT0=    0 NMatD0=    1 NMtDS0=    0 NMtDT0=    0
 Symmetry not used in FoFCou.
 Leave Link  703 at Thu Apr  2 13:29:31 2026, MaxMem=  2147483648 cpu:               3.3 elap:               0.4
 (Enter /Users/yarger/Applications/g16/l716.exe)
 Dipole        = 6.97224632D-01-7.16819381D-01 7.62224512D-06
 ***** Axes restored to original set *****
 -------------------------------------------------------------------
 Center     Atomic                   Forces (Hartrees/Bohr)
 Number     Number              X              Y              Z
 -------------------------------------------------------------------
      1        6          -0.000001320    0.000000296   -0.000002040
      2        1           0.000000294   -0.000000265    0.000000046
      3        1           0.000000975    0.000000452    0.000001283
      4        6           0.000000880    0.000001081    0.000003311
      5        6          -0.000000890   -0.000010694    0.000001048
      6        9           0.000002963    0.000009630    0.000004732
      7        9           0.000002625   -0.000006083    0.000002191
      8        9          -0.000003259    0.000003979   -0.000011015
      9        9          -0.000002267    0.000001604    0.000000443
 -------------------------------------------------------------------
 Cartesian Forces:  Max     0.000011015 RMS     0.000004156
 Leave Link  716 at Thu Apr  2 13:29:31 2026, MaxMem=  2147483648 cpu:               0.1 elap:               0.0
 (Enter /Users/yarger/Applications/g16/l103.exe)

 GradGradGradGradGradGradGradGradGradGradGradGradGradGradGradGradGradGrad
 Berny optimization.
 Using GEDIIS/GDIIS optimizer.
 FormGI is forming the generalized inverse of G from B-inverse, IUseBI=4.
 Internal  Forces:  Max     0.000010979 RMS     0.000003697
 Search for a local minimum.
 Step number  20 out of a maximum of   40
 All quantities printed in internal units (Hartrees-Bohrs-Radians)
 RMS Force = .36974D-05 SwitMx=.10000D-02 MixMth= 2
 Mixed Optimization -- En-DIIS/RFO-DIIS
 Swapping is turned off.
 Update second derivatives using D2CorX and points   14   15   16   17   18
                                                     19   20
 DE= -4.41D-09 DEPred=-5.57D-09 R= 7.91D-01
 Trust test= 7.91D-01 RLast= 4.25D-04 DXMaxT set to 1.07D+00
 ITU=  0  0  1  1  0  1  1  1  1 -1  0  0  0  0  0  1  1  1  1  0
     Eigenvalues ---    0.00374   0.02236   0.03214   0.04871   0.12419
     Eigenvalues ---    0.13109   0.15363   0.16597   0.20844   0.23960
     Eigenvalues ---    0.25148   0.27468   0.30637   0.35554   0.37007
     Eigenvalues ---    0.44353   0.47936   0.54635   0.60530   0.62353
     Eigenvalues ---    0.78601
 En-DIIS/RFO-DIIS/Sim-DIIS IScMMF=       -3 using points:    20   19   18   17   16   15
 RFO step:  Lambda=-1.27179504D-09.
 NNeg= 0 NGDIIS= 6 SimSw=  2.50D-01 Rises=F DC= -4.41D-09 SmlDif=  1.00D-05
 NRisDI= 0 DoIntr=F SqrtH=F CThrHd= 10.0 CDAdj=  3.0
 RMS Error=  0.1768403329D-04 NUsed= 6 OKEnD=F EnDIS=F
 InvSVX:  RCond= 4.75D-09 Info=           0 Equed=N FErr=  9.83D-15 BErr=  8.48D-17
 DIIS inversion failure, remove point   6.
 InvSVX:  RCond= 5.71D-09 Info=           0 Equed=N FErr=  7.17D-15 BErr=  4.86D-17
 DIIS inversion failure, remove point   5.
 InvSVX:  RCond= 7.13D-09 Info=           0 Equed=N FErr=  4.49D-15 BErr=  1.00D-16
 DIIS inversion failure, remove point   4.
 InvSVX:  RCond= 1.52D-08 Info=           0 Equed=N FErr=  2.05D-15 BErr=  9.86D-17
 DIIS inversion failure, remove point   3.
 InvSVX:  RCond= 2.03D-07 Info=           0 Equed=N FErr=  1.05D-15 BErr=  5.89D-17
 RFO-DIIS uses    2 points instead of    6
 DidBck=F Rises=F RFO-DIIS coefs:    0.91076    0.08924    0.00000    0.00000    0.00000
                  RFO-DIIS coefs:    0.00000
 Iteration  1 RMS(Cart)=  0.00001961 RMS(Int)=  0.00000000
 Iteration  2 RMS(Cart)=  0.00000000 RMS(Int)=  0.00000000
 ITry= 1 IFail=0 DXMaxC= 4.67D-05 DCOld= 1.00D+10 DXMaxT= 1.07D+00 DXLimC= 3.00D+00 Rises=F
 Variable       Old X    -DE/DX   Delta X   Delta X   Delta X     New X
                                 (Linear)    (Quad)   (Total)
    R1        2.02391  -0.00000  -0.00000   0.00000  -0.00000   2.02391
    R2        2.02819   0.00000   0.00000   0.00000   0.00000   2.02819
    R3        2.47157   0.00000   0.00000  -0.00000   0.00000   2.47157
    R4        2.84023  -0.00000  -0.00000   0.00000   0.00000   2.84023
    R5        2.50609  -0.00000   0.00000  -0.00001  -0.00001   2.50608
    R6        2.49511  -0.00001   0.00001  -0.00002  -0.00001   2.49509
    R7        2.49218  -0.00001  -0.00001   0.00001   0.00000   2.49218
    R8        2.49507   0.00001  -0.00000   0.00002   0.00002   2.49509
    A1        2.07839  -0.00000  -0.00000  -0.00000  -0.00000   2.07839
    A2        2.10370  -0.00000  -0.00000   0.00000   0.00000   2.10371
    A3        2.10109   0.00000   0.00000   0.00000   0.00000   2.10109
    A4        2.20905   0.00000   0.00000  -0.00001  -0.00000   2.20904
    A5        2.14321   0.00000  -0.00000   0.00001   0.00001   2.14322
    A6        1.93092  -0.00000  -0.00000  -0.00000  -0.00001   1.93092
    A7        1.93748  -0.00000  -0.00000   0.00001   0.00000   1.93748
    A8        1.94056  -0.00000   0.00000  -0.00002  -0.00002   1.94054
    A9        1.93747   0.00000   0.00000   0.00001   0.00001   1.93748
   A10        1.88558  -0.00001  -0.00001  -0.00002  -0.00003   1.88555
   A11        1.87470   0.00001   0.00000   0.00004   0.00004   1.87474
   A12        1.88556   0.00000   0.00000  -0.00000  -0.00000   1.88555
    D1       -0.00001   0.00000   0.00000   0.00001   0.00001   0.00000
    D2       -3.14159   0.00000   0.00000   0.00001   0.00001  -3.14158
    D3       -3.14158  -0.00000  -0.00001  -0.00002  -0.00002   3.14159
    D4        0.00002  -0.00000  -0.00001  -0.00001  -0.00002   0.00001
    D5       -2.09963   0.00001  -0.00001   0.00004   0.00004  -2.09959
    D6        0.00004  -0.00000  -0.00002   0.00000  -0.00002   0.00002
    D7        2.09967  -0.00000  -0.00001  -0.00001  -0.00002   2.09964
    D8        1.04196   0.00001  -0.00001   0.00004   0.00003   1.04199
    D9       -3.14156  -0.00000  -0.00002  -0.00000  -0.00002  -3.14158
   D10       -1.04193  -0.00000  -0.00001  -0.00001  -0.00003  -1.04196
         Item               Value     Threshold  Converged?
 Maximum Force            0.000011     0.000015     YES
 RMS     Force            0.000004     0.000010     YES
 Maximum Displacement     0.000047     0.000060     YES
 RMS     Displacement     0.000020     0.000040     YES
 Predicted change in Energy=-7.963280D-10
 Optimization completed.
    -- Stationary point found.
                           ----------------------------
                           !   Optimized Parameters   !
                           ! (Angstroms and Degrees)  !
 --------------------------                            --------------------------
 ! Name  Definition              Value          Derivative Info.                !
 --------------------------------------------------------------------------------
 ! R1    R(1,2)                  1.071          -DE/DX =    0.0                 !
 ! R2    R(1,3)                  1.0733         -DE/DX =    0.0                 !
 ! R3    R(1,4)                  1.3079         -DE/DX =    0.0                 !
 ! R4    R(4,5)                  1.503          -DE/DX =    0.0                 !
 ! R5    R(4,9)                  1.3262         -DE/DX =    0.0                 !
 ! R6    R(5,6)                  1.3204         -DE/DX =    0.0                 !
 ! R7    R(5,7)                  1.3188         -DE/DX =    0.0                 !
 ! R8    R(5,8)                  1.3203         -DE/DX =    0.0                 !
 ! A1    A(2,1,3)              119.0832         -DE/DX =    0.0                 !
 ! A2    A(2,1,4)              120.5334         -DE/DX =    0.0                 !
 ! A3    A(3,1,4)              120.3835         -DE/DX =    0.0                 !
 ! A4    A(1,4,5)              126.5691         -DE/DX =    0.0                 !
 ! A5    A(1,4,9)              122.7971         -DE/DX =    0.0                 !
 ! A6    A(5,4,9)              110.6337         -DE/DX =    0.0                 !
 ! A7    A(4,5,6)              111.0092         -DE/DX =    0.0                 !
 ! A8    A(4,5,7)              111.186          -DE/DX =    0.0                 !
 ! A9    A(4,5,8)              111.009          -DE/DX =    0.0                 !
 ! A10   A(6,5,7)              108.0359         -DE/DX =    0.0                 !
 ! A11   A(6,5,8)              107.4126         -DE/DX =    0.0                 !
 ! A12   A(7,5,8)              108.0344         -DE/DX =    0.0                 !
 ! D1    D(2,1,4,5)             -0.0004         -DE/DX =    0.0                 !
 ! D2    D(2,1,4,9)           -179.9999         -DE/DX =    0.0                 !
 ! D3    D(3,1,4,5)            180.001          -DE/DX =    0.0                 !
 ! D4    D(3,1,4,9)              0.0014         -DE/DX =    0.0                 !
 ! D5    D(1,4,5,6)           -120.2997         -DE/DX =    0.0                 !
 ! D6    D(1,4,5,7)              0.0022         -DE/DX =    0.0                 !
 ! D7    D(1,4,5,8)            120.302          -DE/DX =    0.0                 !
 ! D8    D(9,4,5,6)             59.6999         -DE/DX =    0.0                 !
 ! D9    D(9,4,5,7)           -179.9982         -DE/DX =    0.0                 !
 ! D10   D(9,4,5,8)            -59.6984         -DE/DX =    0.0                 !
 --------------------------------------------------------------------------------
 Lowest energy point so far.  Saving SCF results.
 Largest change from initial coordinates is atom    8       0.083 Angstoms.
 GradGradGradGradGradGradGradGradGradGradGradGradGradGradGradGradGradGrad

 Leave Link  103 at Thu Apr  2 13:29:31 2026, MaxMem=  2147483648 cpu:               0.2 elap:               0.0
 (Enter /Users/yarger/Applications/g16/l202.exe)
                          Input orientation:                          
 ---------------------------------------------------------------------
 Center     Atomic      Atomic             Coordinates (Angstroms)
 Number     Number       Type             X           Y           Z
 ---------------------------------------------------------------------
      1          6           0        1.736022    1.022428    0.214884
      2          1           0        1.352222    1.909873    0.675527
      3          1           0        2.795396    0.924460    0.073326
      4          6           0        0.926298    0.070326   -0.170404
      5          6           0       -0.571092    0.061400   -0.041169
      6          9           0       -0.977207   -0.961759    0.687906
      7          9           0       -1.006847    1.167743    0.529243
      8          9           0       -1.147714   -0.042945   -1.224346
      9          9           0        1.352441   -1.046360   -0.744971
 ---------------------------------------------------------------------
                    Distance matrix (angstroms):
                    1          2          3          4          5
     1  C    0.000000
     2  H    1.071005   0.000000
     3  H    1.073270   1.848359   0.000000
     4  C    1.307899   2.069044   2.069414   0.000000
     5  C    2.512352   2.762180   3.477243   1.502983   0.000000
     6  F    3.394460   3.697656   4.262400   2.329211   1.320354
     7  F    2.764647   2.477371   3.837199   2.330425   1.318805
     8  F    3.394457   3.697661   4.262387   2.329195   1.320336
     9  F    2.312648   3.279806   2.576016   1.326165   2.328616
                    6          7          8          9
     6  F    0.000000
     7  F    2.135610   0.000000
     8  F    2.128379   2.135575   0.000000
     9  F    2.736340   3.477372   2.736315   0.000000
 Stoichiometry    C3H2F4
 Framework group  C1[X(C3H2F4)]
 Deg. of freedom    21
 Full point group                 C1      NOp   1
 RotChk:  IX=1 Diff= 2.30D-15
 Largest Abelian subgroup         C1      NOp   1
 Largest concise Abelian subgroup C1      NOp   1
                         Standard orientation:                         
 ---------------------------------------------------------------------
 Center     Atomic      Atomic             Coordinates (Angstroms)
 Number     Number       Type             X           Y           Z
 ---------------------------------------------------------------------
      1          6           0        1.711384   -1.061558   -0.000021
      2          1           0        1.309184   -2.054175   -0.000035
      3          1           0        2.776595   -0.930280   -0.000001
      4          6           0        0.916830   -0.022673   -0.000000
      5          6           0       -0.585992   -0.044710   -0.000002
      6          9           0       -1.068428    0.570168   -1.064198
      7          9           0       -1.044521   -1.281236    0.000020
      8          9           0       -1.068420    0.570161    1.064181
      9          9           0        1.365913    1.225140    0.000016
 ---------------------------------------------------------------------
 Rotational constants (GHZ):           3.8039693           2.5031938           2.0321921
 Leave Link  202 at Thu Apr  2 13:29:31 2026, MaxMem=  2147483648 cpu:               0.1 elap:               0.0
 (Enter /Users/yarger/Applications/g16/l601.exe)
 Copying SCF densities to generalized density rwf, IOpCl= 0 IROHF=0.

 **********************************************************************

            Population analysis using the SCF density.

 **********************************************************************

 Orbital symmetries:
       Occupied  (A) (A) (A) (A) (A) (A) (A) (A) (A) (A) (A) (A)
                 (A) (A) (A) (A) (A) (A) (A) (A) (A) (A) (A) (A)
                 (A) (A) (A) (A)
       Virtual   (A) (A) (A) (A) (A) (A) (A) (A) (A) (A) (A) (A)
                 (A) (A) (A) (A) (A) (A) (A) (A) (A) (A) (A) (A)
                 (A) (A) (A) (A) (A) (A) (A) (A) (A) (A) (A) (A)
                 (A) (A) (A) (A) (A) (A) (A) (A) (A) (A) (A) (A)
                 (A) (A) (A) (A) (A) (A) (A) (A) (A) (A) (A) (A)
                 (A) (A) (A) (A) (A) (A) (A) (A) (A) (A) (A) (A)
                 (A) (A) (A) (A) (A) (A) (A) (A) (A) (A) (A) (A)
                 (A) (A) (A) (A) (A) (A) (A) (A) (A) (A) (A) (A)
                 (A) (A) (A) (A) (A) (A) (A) (A) (A) (A) (A) (A)
                 (A)
 The electronic state is 1-A.
 Alpha  occ. eigenvalues --  -26.37339 -26.36681 -26.36679 -26.35595 -11.53504
 Alpha  occ. eigenvalues --  -11.36824 -11.27321  -1.76604  -1.67174  -1.66190
 Alpha  occ. eigenvalues --   -1.65851  -1.12165  -1.00518  -0.90232  -0.85194
 Alpha  occ. eigenvalues --   -0.84951  -0.82186  -0.74130  -0.73443  -0.72448
 Alpha  occ. eigenvalues --   -0.71448  -0.69818  -0.68304  -0.67844  -0.66305
 Alpha  occ. eigenvalues --   -0.61846  -0.57720  -0.42233
 Alpha virt. eigenvalues --    0.06957   0.09143   0.09251   0.10414   0.11662
 Alpha virt. eigenvalues --    0.11907   0.12649   0.15548   0.16599   0.17989
 Alpha virt. eigenvalues --    0.19030   0.19323   0.22242   0.28792   0.32459
 Alpha virt. eigenvalues --    0.32937   0.35285   0.37298   0.39953   0.40909
 Alpha virt. eigenvalues --    0.41362   0.41872   0.42754   0.43450   0.43720
 Alpha virt. eigenvalues --    0.45352   0.46397   0.47135   0.49281   0.49568
 Alpha virt. eigenvalues --    0.51228   0.53009   0.56328   0.56769   0.58984
 Alpha virt. eigenvalues --    0.61418   0.63388   0.86872   0.87173   0.95132
 Alpha virt. eigenvalues --    0.95777   0.98662   0.98739   1.03180   1.06552
 Alpha virt. eigenvalues --    1.15422   1.18823   1.27189   1.41002   1.42269
 Alpha virt. eigenvalues --    1.45160   1.58254   1.60394   1.68079   1.81527
 Alpha virt. eigenvalues --    1.83189   1.83313   1.88036   1.89293   1.90519
 Alpha virt. eigenvalues --    1.90975   1.92568   1.93416   1.93978   1.94467
 Alpha virt. eigenvalues --    1.95172   1.98829   2.02675   2.03429   2.08223
 Alpha virt. eigenvalues --    2.08296   2.10251   2.11991   2.12967   2.16338
 Alpha virt. eigenvalues --    2.16554   2.23696   2.27048   2.30846   2.34215
 Alpha virt. eigenvalues --    2.36612   2.39387   2.43056   2.44532   2.48396
 Alpha virt. eigenvalues --    2.50073   2.51387   2.64517   2.64864   2.75350
 Alpha virt. eigenvalues --    2.78240   2.79166   2.91839   3.05238   3.12028
 Alpha virt. eigenvalues --    3.13830   3.27801   3.37941   3.51677   3.57457
 Alpha virt. eigenvalues --    3.63899   3.78807   4.60159   4.77949   5.05080
 Alpha virt. eigenvalues --    5.89834   6.11337   6.22368   7.15750
          Condensed to atoms (all electrons):
               1          2          3          4          5          6
     1  C    5.560588   0.360654   0.356818   0.456836  -0.213376   0.002468
     2  H    0.360654   0.402482  -0.011722  -0.029357   0.021363   0.000281
     3  H    0.356818  -0.011722   0.407369  -0.013575   0.009913  -0.000370
     4  C    0.456836  -0.029357  -0.013575   4.865004   0.452363  -0.078505
     5  C   -0.213376   0.021363   0.009913   0.452363   4.118219   0.168486
     6  F    0.002468   0.000281  -0.000370  -0.078505   0.168486   9.329384
     7  F    0.019287  -0.001981   0.000680  -0.056371   0.146293  -0.018284
     8  F    0.002468   0.000281  -0.000370  -0.078511   0.168491  -0.038529
     9  F   -0.097999   0.004122  -0.001882   0.179746  -0.085497   0.012527
               7          8          9
     1  C    0.019287   0.002468  -0.097999
     2  H   -0.001981   0.000281   0.004122
     3  H    0.000680  -0.000370  -0.001882
     4  C   -0.056371  -0.078511   0.179746
     5  C    0.146293   0.168491  -0.085497
     6  F   -0.018284  -0.038529   0.012527
     7  F    9.347767  -0.018289   0.005239
     8  F   -0.018289   9.329381   0.012527
     9  F    0.005239   0.012527   9.367352
 Mulliken charges:
               1
     1  C   -0.447742
     2  H    0.253876
     3  H    0.253138
     4  C    0.302369
     5  C    1.213744
     6  F   -0.377459
     7  F   -0.424342
     8  F   -0.377449
     9  F   -0.396135
 Sum of Mulliken charges =  -0.00000
 Mulliken charges with hydrogens summed into heavy atoms:
               1
     1  C    0.059272
     4  C    0.302369
     5  C    1.213744
     6  F   -0.377459
     7  F   -0.424342
     8  F   -0.377449
     9  F   -0.396135
 Electronic spatial extent (au):  <R**2>=            611.0677
 Charge=              0.0000 electrons
 Dipole moment (field-independent basis, Debye):
    X=              1.7722    Y=             -1.8220    Z=              0.0000  Tot=              2.5417
 Quadrupole moment (field-independent basis, Debye-Ang):
   XX=            -35.7506   YY=            -37.6579   ZZ=            -39.3563
   XY=             -3.2063   XZ=             -0.0000   YZ=              0.0001
 Traceless Quadrupole moment (field-independent basis, Debye-Ang):
   XX=              1.8377   YY=             -0.0696   ZZ=             -1.7681
   XY=             -3.2063   XZ=             -0.0000   YZ=              0.0001
 Octapole moment (field-independent basis, Debye-Ang**2):
  XXX=             -3.6966  YYY=              2.9987  ZZZ=              0.0004  XYY=             -2.0870
  XXY=             -3.0686  XXZ=              0.0002  XZZ=             -4.6565  YZZ=              2.8449
  YYZ=             -0.0001  XYZ=             -0.0001
 Hexadecapole moment (field-independent basis, Debye-Ang**3):
 XXXX=           -317.8927 YYYY=           -186.5725 ZZZZ=            -99.0383 XXXY=              0.4475
 XXXZ=              0.0003 YYYX=              3.9485 YYYZ=              0.0001 ZZZX=              0.0002
 ZZZY=             -0.0001 XXYY=            -91.3313 XXZZ=            -79.7566 YYZZ=            -50.2828
 XXYZ=             -0.0000 YYXZ=             -0.0001 ZZXY=              7.3741
 N-N= 3.364749083620D+02 E-N=-1.890905075351D+03  KE= 5.113260237985D+02
 No NMR shielding tensors so no spin-rotation constants.
 Leave Link  601 at Thu Apr  2 13:29:31 2026, MaxMem=  2147483648 cpu:               0.6 elap:               0.1
 (Enter /Users/yarger/Applications/g16/l9999.exe)
 1\1\GINC-YARGERMBP2021-2\FOpt\RHF\6-31+G(d)\C3H2F4\ROOT\02-Apr-2026\0\
 \#p opt=tight freq=raman hf/6-31+g(d) guess=save geom=connectivity pol
 ar\\r1234yf - 2,3,3,3-Tetrafluoropropene\\0,1\C,1.7360222847,1.0224278
 694,0.2148844941\H,1.3522222914,1.9098725528,0.6755267955\H,2.79539561
 65,0.9244599019,0.073326479\C,0.9262976874,0.0703260983,-0.1704042018\
 C,-0.5710920274,0.0614004532,-0.0411688059\F,-0.9772065653,-0.96175897
 17,0.6879061916\F,-1.0068472772,1.1677428836,0.5292430657\F,-1.1477142
 812,-0.0429450633,-1.2243455635\F,1.352441271,-1.0463597243,-0.7449714
 56\\Version=EM64M-G16RevA.03\State=1-A\HF=-512.5201139\RMSD=5.578e-09\
 RMSF=4.156e-06\Dipole=0.7071893,0.6598042,0.2539564\Quadrupole=1.43023
 15,-0.2042106,-1.2260209,2.2140635,0.8191132,0.3361113\PG=C01 [X(C3H2F
 4)]\\@


 IT IS BETTER TO THINK YOU ARE HALF DRY THAN TO KNOW YOU
 ARE ALL WET.  -- SNOOPY
 Leave Link 9999 at Thu Apr  2 13:29:31 2026, MaxMem=  2147483648 cpu:               0.1 elap:               0.0
 Job cpu time:       0 days  0 hours  3 minutes 10.4 seconds.
 Elapsed time:       0 days  0 hours  0 minutes 31.4 seconds.
 File lengths (MBytes):  RWF=     15 Int=      0 D2E=      0 Chk=      3 Scr=      1
 Normal termination of Gaussian 16 at Thu Apr  2 13:29:31 2026.
 (Enter /Users/yarger/Applications/g16/l1.exe)
 Link1:  Proceeding to internal job step number  2.
 ------------------------------------------------------------------
 #P Geom=AllCheck Guess=TCheck SCRF=Check GenChk RHF/6-31+G(d) Freq
 ------------------------------------------------------------------
 1/7=10,10=4,29=7,30=1,38=1,40=1/1,3;
 2/12=2,40=1/2;
 3/5=1,6=6,7=11,11=1,14=-4,25=1,30=1,70=2,71=2,116=1,140=1/1,2,3;
 4/5=101/1;
 5/5=2,38=6,98=1/2;
 8/6=4,10=90,11=11/1;
 10/13=10,15=4/2;
 11/6=3,8=1,9=11,15=111,16=1/1,2,10;
 10/6=1/2;
 6/7=2,8=2,9=2,10=2,28=1/1;
 7/8=1,10=1,25=1/1,2,3,16;
 1/7=10,10=4,30=1/3;
 99//99;
 Leave Link    1 at Thu Apr  2 13:29:31 2026, MaxMem=  2147483648 cpu:               0.1 elap:               0.0
 (Enter /Users/yarger/Applications/g16/l101.exe)
 Structure from the checkpoint file:  "2223Tetrafluoropropene_Opt_Freq_HF_631pd_Gaussian16.chk"
 ------------------------------------
 r1234yf - 2,3,3,3-Tetrafluoropropene
 ------------------------------------
 Charge =  0 Multiplicity = 1
 Redundant internal coordinates found in file.  (old form).
 C,0,1.7360222847,1.0224278694,0.2148844941
 H,0,1.3522222914,1.9098725528,0.6755267955
 H,0,2.7953956165,0.9244599019,0.073326479
 C,0,0.9262976874,0.0703260983,-0.1704042018
 C,0,-0.5710920274,0.0614004532,-0.0411688059
 F,0,-0.9772065653,-0.9617589717,0.6879061916
 F,0,-1.0068472772,1.1677428836,0.5292430657
 F,0,-1.1477142812,-0.0429450633,-1.2243455635
 F,0,1.352441271,-1.0463597243,-0.744971456
 Recover connectivity data from disk.
 ITRead=  0  0  0  0  0  0  0  0  0
 MicOpt= -1 -1 -1 -1 -1 -1 -1 -1 -1
 NAtoms=      9 NQM=        9 NQMF=       0 NMMI=      0 NMMIF=      0
                NMic=       0 NMicF=      0.
                    Isotopes and Nuclear Properties:
 (Nuclear quadrupole moments (NQMom) in fm**2, nuclear magnetic moments (NMagM)
  in nuclear magnetons)

  Atom         1           2           3           4           5           6           7           8           9
 IAtWgt=          12           1           1          12          12          19          19          19          19
 AtmWgt=  12.0000000   1.0078250   1.0078250  12.0000000  12.0000000  18.9984033  18.9984033  18.9984033  18.9984033
 NucSpn=           0           1           1           0           0           1           1           1           1
 AtZEff=   3.6000000   1.0000000   1.0000000   3.6000000   3.6000000   6.7500000   6.7500000   6.7500000   6.7500000
 NQMom=    0.0000000   0.0000000   0.0000000   0.0000000   0.0000000   0.0000000   0.0000000   0.0000000   0.0000000
 NMagM=    0.0000000   2.7928460   2.7928460   0.0000000   0.0000000   2.6288670   2.6288670   2.6288670   2.6288670
 AtZNuc=   6.0000000   1.0000000   1.0000000   6.0000000   6.0000000   9.0000000   9.0000000   9.0000000   9.0000000
 Leave Link  101 at Thu Apr  2 13:29:32 2026, MaxMem=  2147483648 cpu:               2.0 elap:               0.3
 (Enter /Users/yarger/Applications/g16/l103.exe)

 GradGradGradGradGradGradGradGradGradGradGradGradGradGradGradGradGradGrad
 Berny optimization.
 Initialization pass.
                           ----------------------------
                           !    Initial Parameters    !
                           ! (Angstroms and Degrees)  !
 --------------------------                            --------------------------
 ! Name  Definition              Value          Derivative Info.                !
 --------------------------------------------------------------------------------
 ! R1    R(1,2)                  1.071          calculate D2E/DX2 analytically  !
 ! R2    R(1,3)                  1.0733         calculate D2E/DX2 analytically  !
 ! R3    R(1,4)                  1.3079         calculate D2E/DX2 analytically  !
 ! R4    R(4,5)                  1.503          calculate D2E/DX2 analytically  !
 ! R5    R(4,9)                  1.3262         calculate D2E/DX2 analytically  !
 ! R6    R(5,6)                  1.3204         calculate D2E/DX2 analytically  !
 ! R7    R(5,7)                  1.3188         calculate D2E/DX2 analytically  !
 ! R8    R(5,8)                  1.3203         calculate D2E/DX2 analytically  !
 ! A1    A(2,1,3)              119.0832         calculate D2E/DX2 analytically  !
 ! A2    A(2,1,4)              120.5334         calculate D2E/DX2 analytically  !
 ! A3    A(3,1,4)              120.3835         calculate D2E/DX2 analytically  !
 ! A4    A(1,4,5)              126.5691         calculate D2E/DX2 analytically  !
 ! A5    A(1,4,9)              122.7971         calculate D2E/DX2 analytically  !
 ! A6    A(5,4,9)              110.6337         calculate D2E/DX2 analytically  !
 ! A7    A(4,5,6)              111.0092         calculate D2E/DX2 analytically  !
 ! A8    A(4,5,7)              111.186          calculate D2E/DX2 analytically  !
 ! A9    A(4,5,8)              111.009          calculate D2E/DX2 analytically  !
 ! A10   A(6,5,7)              108.0359         calculate D2E/DX2 analytically  !
 ! A11   A(6,5,8)              107.4126         calculate D2E/DX2 analytically  !
 ! A12   A(7,5,8)              108.0344         calculate D2E/DX2 analytically  !
 ! D1    D(2,1,4,5)             -0.0004         calculate D2E/DX2 analytically  !
 ! D2    D(2,1,4,9)           -179.9999         calculate D2E/DX2 analytically  !
 ! D3    D(3,1,4,5)           -179.999          calculate D2E/DX2 analytically  !
 ! D4    D(3,1,4,9)              0.0014         calculate D2E/DX2 analytically  !
 ! D5    D(1,4,5,6)           -120.2997         calculate D2E/DX2 analytically  !
 ! D6    D(1,4,5,7)              0.0022         calculate D2E/DX2 analytically  !
 ! D7    D(1,4,5,8)            120.302          calculate D2E/DX2 analytically  !
 ! D8    D(9,4,5,6)             59.6999         calculate D2E/DX2 analytically  !
 ! D9    D(9,4,5,7)           -179.9982         calculate D2E/DX2 analytically  !
 ! D10   D(9,4,5,8)            -59.6984         calculate D2E/DX2 analytically  !
 --------------------------------------------------------------------------------
 Trust Radius=3.00D-01 FncErr=1.00D-07 GrdErr=1.00D-07 EigMax=2.50D+02 EigMin=1.00D-04
 Number of steps in this run=      2 maximum allowed number of steps=      2.
 GradGradGradGradGradGradGradGradGradGradGradGradGradGradGradGradGradGrad

 Leave Link  103 at Thu Apr  2 13:29:32 2026, MaxMem=  2147483648 cpu:               0.1 elap:               0.0
 (Enter /Users/yarger/Applications/g16/l202.exe)
                          Input orientation:                          
 ---------------------------------------------------------------------
 Center     Atomic      Atomic             Coordinates (Angstroms)
 Number     Number       Type             X           Y           Z
 ---------------------------------------------------------------------
      1          6           0        1.736022    1.022428    0.214884
      2          1           0        1.352222    1.909873    0.675527
      3          1           0        2.795396    0.924460    0.073326
      4          6           0        0.926298    0.070326   -0.170404
      5          6           0       -0.571092    0.061400   -0.041169
      6          9           0       -0.977207   -0.961759    0.687906
      7          9           0       -1.006847    1.167743    0.529243
      8          9           0       -1.147714   -0.042945   -1.224346
      9          9           0        1.352441   -1.046360   -0.744971
 ---------------------------------------------------------------------
                    Distance matrix (angstroms):
                    1          2          3          4          5
     1  C    0.000000
     2  H    1.071005   0.000000
     3  H    1.073270   1.848359   0.000000
     4  C    1.307899   2.069044   2.069414   0.000000
     5  C    2.512352   2.762180   3.477243   1.502983   0.000000
     6  F    3.394460   3.697656   4.262400   2.329211   1.320354
     7  F    2.764647   2.477371   3.837199   2.330425   1.318805
     8  F    3.394457   3.697661   4.262387   2.329195   1.320336
     9  F    2.312648   3.279806   2.576016   1.326165   2.328616
                    6          7          8          9
     6  F    0.000000
     7  F    2.135610   0.000000
     8  F    2.128379   2.135575   0.000000
     9  F    2.736340   3.477372   2.736315   0.000000
 Stoichiometry    C3H2F4
 Framework group  C1[X(C3H2F4)]
 Deg. of freedom    21
 Full point group                 C1      NOp   1
 RotChk:  IX=1 Diff= 1.29D-15
 Largest Abelian subgroup         C1      NOp   1
 Largest concise Abelian subgroup C1      NOp   1
                         Standard orientation:                         
 ---------------------------------------------------------------------
 Center     Atomic      Atomic             Coordinates (Angstroms)
 Number     Number       Type             X           Y           Z
 ---------------------------------------------------------------------
      1          6           0        1.711384   -1.061558   -0.000021
      2          1           0        1.309184   -2.054175   -0.000035
      3          1           0        2.776595   -0.930280   -0.000001
      4          6           0        0.916830   -0.022673   -0.000000
      5          6           0       -0.585992   -0.044710   -0.000002
      6          9           0       -1.068428    0.570168   -1.064198
      7          9           0       -1.044521   -1.281236    0.000020
      8          9           0       -1.068420    0.570161    1.064181
      9          9           0        1.365913    1.225140    0.000016
 ---------------------------------------------------------------------
 Rotational constants (GHZ):           3.8039693           2.5031938           2.0321921
 Leave Link  202 at Thu Apr  2 13:29:32 2026, MaxMem=  2147483648 cpu:               0.0 elap:               0.0
 (Enter /Users/yarger/Applications/g16/l301.exe)
 Standard basis: 6-31+G(d) (6D, 7F)
 Ernie: Thresh=  0.10000D-02 Tol=  0.10000D-05 Strict=F.
 There are   137 symmetry adapted cartesian basis functions of A   symmetry.
 There are   137 symmetry adapted basis functions of A   symmetry.
   137 basis functions,   232 primitive gaussians,   137 cartesian basis functions
    28 alpha electrons       28 beta electrons
       nuclear repulsion energy       336.4749083620 Hartrees.
 IExCor=    0 DFT=F Ex=HF Corr=None ExCW=0 ScaHFX=  1.000000
 ScaDFX=  1.000000  1.000000  1.000000  1.000000 ScalE2=  1.000000  1.000000
 IRadAn=      5 IRanWt=     -1 IRanGd=            0 ICorTp=0 IEmpDi=  4
 NAtoms=    9 NActive=    9 NUniq=    9 SFac= 1.00D+00 NAtFMM=   60 NAOKFM=F Big=F
 Integral buffers will be    131072 words long.
 Raffenetti 1 integral format.
 Two-electron integral symmetry is turned on.
 Leave Link  301 at Thu Apr  2 13:29:32 2026, MaxMem=  2147483648 cpu:               0.2 elap:               0.0
 (Enter /Users/yarger/Applications/g16/l302.exe)
 NPDir=0 NMtPBC=     1 NCelOv=     1 NCel=       1 NClECP=     1 NCelD=      1
         NCelK=      1 NCelE2=     1 NClLst=     1 CellRange=     0.0.
 One-electron integrals computed using PRISM.
 One-electron integral symmetry used in STVInt
 NBasis=   137 RedAO= T EigKep=  6.48D-05  NBF=   137
 NBsUse=   137 1.00D-06 EigRej= -1.00D+00 NBFU=   137
 Leave Link  302 at Thu Apr  2 13:29:32 2026, MaxMem=  2147483648 cpu:               0.7 elap:               0.1
 (Enter /Users/yarger/Applications/g16/l303.exe)
 DipDrv:  MaxL=1.
 Leave Link  303 at Thu Apr  2 13:29:32 2026, MaxMem=  2147483648 cpu:               0.1 elap:               0.0
 (Enter /Users/yarger/Applications/g16/l401.exe)
 Initial guess from the checkpoint file:  "2223Tetrafluoropropene_Opt_Freq_HF_631pd_Gaussian16.chk"
 B after Tr=     0.000000   -0.000000    0.000000
         Rot=    1.000000   -0.000000    0.000000    0.000000 Ang=   0.00 deg.
 Guess basis will be translated and rotated to current coordinates.
 JPrj=2 DoOrth=T DoCkMO=T.
 Leave Link  401 at Thu Apr  2 13:29:32 2026, MaxMem=  2147483648 cpu:               0.4 elap:               0.1
 (Enter /Users/yarger/Applications/g16/l502.exe)
 Keep R1 ints in memory in canonical form, NReq=46403228.
 FoFCou: FMM=F IPFlag=           0 FMFlag=           0 FMFlg1=           0
         NFxFlg=           0 DoJE=F BraDBF=F KetDBF=F FulRan=T
         wScrn=  0.000000 ICntrl=       600 IOpCl=  0 I1Cent=           0 NGrid=           0
         NMat0=    1 NMatS0=   9453 NMatT0=    0 NMatD0=    1 NMtDS0=    0 NMtDT0=    0
 Symmetry not used in FoFCou.
 Two-electron integral symmetry not used.
 Closed shell SCF:
 Using DIIS extrapolation, IDIIS=  1040.
 NGot=  2147483648 LenX=  2102759234 LenY=  2102740024
 Requested convergence on RMS density matrix=1.00D-08 within 128 cycles.
 Requested convergence on MAX density matrix=1.00D-06.
 Requested convergence on             energy=1.00D-06.
 No special actions if energy rises.

 Cycle   1  Pass 1  IDiag  1:
 E= -512.520113912314    
 DIIS: error= 5.22D-09 at cycle   1 NSaved=   1.
 NSaved= 1 IEnMin= 1 EnMin= -512.520113912314     IErMin= 1 ErrMin= 5.22D-09
 ErrMax= 5.22D-09  0.00D+00 EMaxC= 1.00D-01 BMatC= 5.87D-15 BMatP= 5.87D-15
 IDIUse=1 WtCom= 1.00D+00 WtEn= 0.00D+00
 Coeff-Com:  0.100D+01
 Coeff:      0.100D+01
 Gap=     0.492 Goal=   None    Shift=    0.000
 RMSDP=1.33D-09 MaxDP=3.16D-08              OVMax= 4.32D-08

 SCF Done:  E(RHF) =  -512.520113912     A.U. after    1 cycles
            NFock=  1  Conv=0.13D-08     -V/T= 2.0023
 KE= 5.113260243967D+02 PE=-1.890905075949D+03 EE= 5.305840292779D+02
 Leave Link  502 at Thu Apr  2 13:29:33 2026, MaxMem=  2147483648 cpu:               2.5 elap:               0.4
 (Enter /Users/yarger/Applications/g16/l801.exe)
 Range of M.O.s used for correlation:     1   137
 NBasis=   137 NAE=    28 NBE=    28 NFC=     0 NFV=     0
 NROrb=    137 NOA=    28 NOB=    28 NVA=   109 NVB=   109

 **** Warning!!: The largest alpha MO coefficient is  0.53362285D+02

 Leave Link  801 at Thu Apr  2 13:29:33 2026, MaxMem=  2147483648 cpu:               0.1 elap:               0.0
 (Enter /Users/yarger/Applications/g16/l1002.exe)
 Minotr:  Closed shell wavefunction.
          Direct CPHF calculation.
          Differentiating once with respect to electric field.
                with respect to dipole field.
          Electric field/nuclear overlap derivatives assumed to be zero.
          Requested convergence is 1.0D-08 RMS, and 1.0D-07 maximum.
          Secondary convergence is 1.0D-12 RMS, and 1.0D-12 maximum.
          NewPWx=F KeepS1=T KeepF1=T KeepIn=T MapXYZ=F SortEE=F KeepMc=T.
 Keep R1 ints in memory in canonical form, NReq=46402769.
 FoFCou: FMM=F IPFlag=           0 FMFlag=           0 FMFlg1=           0
         NFxFlg=           0 DoJE=F BraDBF=F KetDBF=F FulRan=T
         wScrn=  0.000000 ICntrl=       600 IOpCl=  0 I1Cent=           0 NGrid=           0
         NMat0=    1 NMatS0=   9453 NMatT0=    0 NMatD0=    1 NMtDS0=    0 NMtDT0=    0
 Symmetry not used in FoFCou.
 Two-electron integral symmetry not used.
          MDV=    2147483648 using IRadAn=       1.
          Solving linear equations simultaneously, MaxMat=       0.
          There are     3 degrees of freedom in the 1st order CPHF.  IDoFFX=0 NUNeed=     3.
      3 vectors produced by pass  0 Test12= 1.02D-13 3.33D-08 XBig12= 8.72D+00 1.22D+00.
 AX will form     3 AO Fock derivatives at one time.
      3 vectors produced by pass  1 Test12= 1.02D-13 3.33D-08 XBig12= 5.94D-01 1.48D-01.
      3 vectors produced by pass  2 Test12= 1.02D-13 3.33D-08 XBig12= 6.21D-02 9.11D-02.
      3 vectors produced by pass  3 Test12= 1.02D-13 3.33D-08 XBig12= 3.19D-03 1.28D-02.
      3 vectors produced by pass  4 Test12= 1.02D-13 3.33D-08 XBig12= 2.25D-04 2.47D-03.
      3 vectors produced by pass  5 Test12= 1.02D-13 3.33D-08 XBig12= 3.11D-05 7.86D-04.
      3 vectors produced by pass  6 Test12= 1.02D-13 3.33D-08 XBig12= 9.73D-07 2.07D-04.
      3 vectors produced by pass  7 Test12= 1.02D-13 3.33D-08 XBig12= 4.84D-08 3.70D-05.
      3 vectors produced by pass  8 Test12= 1.02D-13 3.33D-08 XBig12= 2.95D-09 9.38D-06.
      3 vectors produced by pass  9 Test12= 1.02D-13 3.33D-08 XBig12= 1.67D-10 2.64D-06.
      2 vectors produced by pass 10 Test12= 1.02D-13 3.33D-08 XBig12= 3.72D-12 5.24D-07.
      1 vectors produced by pass 11 Test12= 1.02D-13 3.33D-08 XBig12= 8.73D-14 6.16D-08.
 InvSVY:  IOpt=1 It=  1 EMax= 4.44D-16
 Solved reduced A of dimension    33 with     3 vectors.
 End of Minotr F.D. properties file   721 does not exist.
 End of Minotr F.D. properties file   722 does not exist.
 End of Minotr F.D. properties file   788 does not exist.
 Leave Link 1002 at Thu Apr  2 13:29:33 2026, MaxMem=  2147483648 cpu:               4.5 elap:               0.6
 (Enter /Users/yarger/Applications/g16/l1101.exe)
 Using compressed storage, NAtomX=     9.
 Will process     10 centers per pass.
 Leave Link 1101 at Thu Apr  2 13:29:33 2026, MaxMem=  2147483648 cpu:               0.5 elap:               0.1
 (Enter /Users/yarger/Applications/g16/l1102.exe)
 Symmetrizing basis deriv contribution to polar:
 IMax=3 JMax=2 DiffMx= 0.00D+00
 Leave Link 1102 at Thu Apr  2 13:29:33 2026, MaxMem=  2147483648 cpu:               0.1 elap:               0.0
 (Enter /Users/yarger/Applications/g16/l1110.exe)
 Forming Gx(P) for the SCF density, NAtomX=     9.
 Integral derivatives from FoFJK, PRISM(SPDF).
 Do as many integral derivatives as possible in FoFJK.
 G2DrvN: MDV=    2147482864.
 G2DrvN: will do    10 centers at a time, making    1 passes.
 PxScal for G2LodP:  IOpCl= 0 ISclPx=1 IMOff=     1 NMtTot=     4 NTT=    9453 ScalPx= 6.07D+00
 Calling FoFCou, ICntrl=  3107 FMM=F I1Cent=   0 AccDes= 0.00D+00.
 FoFJK:  IHMeth= 1 ICntrl=    3107 DoSepK=F KAlg= 0 I1Cent=           0 FoldK=F
 IRaf=         0 NMat=       1 IRICut=       1 DoRegI=T DoRafI=F ISym2E= 0 IDoP0=0 IntGTp=1.
 FoFCou: FMM=F IPFlag=           0 FMFlag=      100000 FMFlg1=           0
         NFxFlg=           0 DoJE=F BraDBF=F KetDBF=F FulRan=T
         wScrn=  0.000000 ICntrl=      3107 IOpCl=  0 I1Cent=           0 NGrid=           0
         NMat0=    1 NMatS0=      1 NMatT0=    0 NMatD0=    4 NMtDS0=    3 NMtDT0=    0
 Symmetry not used in FoFCou.
 End of G2Drv F.D. properties file   721 does not exist.
 End of G2Drv F.D. properties file   722 does not exist.
 End of G2Drv F.D. properties file   788 does not exist.
 Leave Link 1110 at Thu Apr  2 13:29:34 2026, MaxMem=  2147483648 cpu:               6.5 elap:               0.9
 (Enter /Users/yarger/Applications/g16/l1002.exe)
 Minotr:  Closed shell wavefunction.
          IDoAtm=111111111
          Direct CPHF calculation.
          Differentiating once with respect to electric field.
                with respect to dipole field.
          Differentiating once with respect to nuclear coordinates.
          Requested convergence is 1.0D-08 RMS, and 1.0D-07 maximum.
          Secondary convergence is 1.0D-12 RMS, and 1.0D-12 maximum.
          NewPWx=T KeepS1=F KeepF1=F KeepIn=T MapXYZ=F SortEE=F KeepMc=T.
 Keep R1 ints in memory in canonical form, NReq=46402976.
 FoFCou: FMM=F IPFlag=           0 FMFlag=           0 FMFlg1=           0
         NFxFlg=           0 DoJE=F BraDBF=F KetDBF=F FulRan=T
         wScrn=  0.000000 ICntrl=       600 IOpCl=  0 I1Cent=           0 NGrid=           0
         NMat0=    1 NMatS0=   9453 NMatT0=    0 NMatD0=    1 NMtDS0=    0 NMtDT0=    0
 Symmetry not used in FoFCou.
 Two-electron integral symmetry not used.
          MDV=    2147483648 using IRadAn=       1.
          Solving linear equations simultaneously, MaxMat=       0.
          There are    30 degrees of freedom in the 1st order CPHF.  IDoFFX=5 NUNeed=    30.
 Will reuse    3 saved solutions.
     24 vectors produced by pass  0 Test12= 1.02D-14 3.33D-09 XBig12= 7.56D-02 4.92D-02.
 AX will form    24 AO Fock derivatives at one time.
     24 vectors produced by pass  1 Test12= 1.02D-14 3.33D-09 XBig12= 3.47D-03 1.08D-02.
     24 vectors produced by pass  2 Test12= 1.02D-14 3.33D-09 XBig12= 2.41D-04 3.70D-03.
     24 vectors produced by pass  3 Test12= 1.02D-14 3.33D-09 XBig12= 3.33D-06 3.71D-04.
     24 vectors produced by pass  4 Test12= 1.02D-14 3.33D-09 XBig12= 4.11D-08 5.21D-05.
     24 vectors produced by pass  5 Test12= 1.02D-14 3.33D-09 XBig12= 3.33D-10 3.03D-06.
     24 vectors produced by pass  6 Test12= 1.02D-14 3.33D-09 XBig12= 2.74D-12 2.71D-07.
     10 vectors produced by pass  7 Test12= 1.02D-14 3.33D-09 XBig12= 1.96D-14 2.11D-08.
 InvSVY:  IOpt=1 It=  1 EMax= 1.33D-15
 Solved reduced A of dimension   178 with    24 vectors.
 FullF1:  Do perturbations      1 to       3.
 Isotropic polarizability for W=    0.000000       34.95 Bohr**3.
 FullF1:  Do perturbations      1 to       6.
 End of Minotr F.D. properties file   721 does not exist.
 End of Minotr F.D. properties file   722 does not exist.
 End of Minotr F.D. properties file   788 does not exist.
 Leave Link 1002 at Thu Apr  2 13:29:36 2026, MaxMem=  2147483648 cpu:               8.9 elap:               1.2
 (Enter /Users/yarger/Applications/g16/l601.exe)
 Copying SCF densities to generalized density rwf, IOpCl= 0 IROHF=0.

 **********************************************************************

            Population analysis using the SCF density.

 **********************************************************************

 Orbital symmetries:
       Occupied  (A) (A) (A) (A) (A) (A) (A) (A) (A) (A) (A) (A)
                 (A) (A) (A) (A) (A) (A) (A) (A) (A) (A) (A) (A)
                 (A) (A) (A) (A)
       Virtual   (A) (A) (A) (A) (A) (A) (A) (A) (A) (A) (A) (A)
                 (A) (A) (A) (A) (A) (A) (A) (A) (A) (A) (A) (A)
                 (A) (A) (A) (A) (A) (A) (A) (A) (A) (A) (A) (A)
                 (A) (A) (A) (A) (A) (A) (A) (A) (A) (A) (A) (A)
                 (A) (A) (A) (A) (A) (A) (A) (A) (A) (A) (A) (A)
                 (A) (A) (A) (A) (A) (A) (A) (A) (A) (A) (A) (A)
                 (A) (A) (A) (A) (A) (A) (A) (A) (A) (A) (A) (A)
                 (A) (A) (A) (A) (A) (A) (A) (A) (A) (A) (A) (A)
                 (A) (A) (A) (A) (A) (A) (A) (A) (A) (A) (A) (A)
                 (A)
 The electronic state is 1-A.
 Alpha  occ. eigenvalues --  -26.37339 -26.36681 -26.36679 -26.35595 -11.53504
 Alpha  occ. eigenvalues --  -11.36824 -11.27321  -1.76604  -1.67174  -1.66190
 Alpha  occ. eigenvalues --   -1.65851  -1.12165  -1.00518  -0.90232  -0.85194
 Alpha  occ. eigenvalues --   -0.84951  -0.82186  -0.74130  -0.73443  -0.72448
 Alpha  occ. eigenvalues --   -0.71448  -0.69818  -0.68304  -0.67844  -0.66305
 Alpha  occ. eigenvalues --   -0.61846  -0.57720  -0.42233
 Alpha virt. eigenvalues --    0.06957   0.09143   0.09251   0.10414   0.11662
 Alpha virt. eigenvalues --    0.11907   0.12649   0.15548   0.16599   0.17989
 Alpha virt. eigenvalues --    0.19030   0.19323   0.22242   0.28792   0.32459
 Alpha virt. eigenvalues --    0.32937   0.35285   0.37298   0.39953   0.40909
 Alpha virt. eigenvalues --    0.41362   0.41872   0.42754   0.43450   0.43720
 Alpha virt. eigenvalues --    0.45352   0.46397   0.47135   0.49281   0.49568
 Alpha virt. eigenvalues --    0.51228   0.53009   0.56328   0.56769   0.58984
 Alpha virt. eigenvalues --    0.61418   0.63388   0.86872   0.87173   0.95132
 Alpha virt. eigenvalues --    0.95777   0.98662   0.98739   1.03180   1.06552
 Alpha virt. eigenvalues --    1.15422   1.18823   1.27189   1.41002   1.42269
 Alpha virt. eigenvalues --    1.45160   1.58254   1.60394   1.68079   1.81527
 Alpha virt. eigenvalues --    1.83189   1.83313   1.88036   1.89293   1.90519
 Alpha virt. eigenvalues --    1.90975   1.92568   1.93416   1.93978   1.94467
 Alpha virt. eigenvalues --    1.95172   1.98829   2.02675   2.03429   2.08223
 Alpha virt. eigenvalues --    2.08296   2.10251   2.11991   2.12967   2.16338
 Alpha virt. eigenvalues --    2.16554   2.23696   2.27048   2.30846   2.34215
 Alpha virt. eigenvalues --    2.36612   2.39387   2.43056   2.44532   2.48396
 Alpha virt. eigenvalues --    2.50073   2.51387   2.64517   2.64864   2.75350
 Alpha virt. eigenvalues --    2.78240   2.79166   2.91839   3.05238   3.12028
 Alpha virt. eigenvalues --    3.13830   3.27801   3.37941   3.51677   3.57457
 Alpha virt. eigenvalues --    3.63899   3.78807   4.60159   4.77949   5.05080
 Alpha virt. eigenvalues --    5.89834   6.11337   6.22368   7.15750
          Condensed to atoms (all electrons):
               1          2          3          4          5          6
     1  C    5.560588   0.360654   0.356818   0.456836  -0.213376   0.002468
     2  H    0.360654   0.402482  -0.011722  -0.029357   0.021363   0.000281
     3  H    0.356818  -0.011722   0.407369  -0.013575   0.009913  -0.000370
     4  C    0.456836  -0.029357  -0.013575   4.865004   0.452363  -0.078505
     5  C   -0.213376   0.021363   0.009913   0.452363   4.118219   0.168486
     6  F    0.002468   0.000281  -0.000370  -0.078505   0.168486   9.329384
     7  F    0.019287  -0.001981   0.000680  -0.056371   0.146293  -0.018284
     8  F    0.002468   0.000281  -0.000370  -0.078511   0.168491  -0.038529
     9  F   -0.097999   0.004122  -0.001882   0.179746  -0.085497   0.012527
               7          8          9
     1  C    0.019287   0.002468  -0.097999
     2  H   -0.001981   0.000281   0.004122
     3  H    0.000680  -0.000370  -0.001882
     4  C   -0.056371  -0.078511   0.179746
     5  C    0.146293   0.168491  -0.085497
     6  F   -0.018284  -0.038529   0.012527
     7  F    9.347767  -0.018289   0.005239
     8  F   -0.018289   9.329381   0.012527
     9  F    0.005239   0.012527   9.367352
 Mulliken charges:
               1
     1  C   -0.447742
     2  H    0.253876
     3  H    0.253138
     4  C    0.302369
     5  C    1.213744
     6  F   -0.377459
     7  F   -0.424342
     8  F   -0.377449
     9  F   -0.396135
 Sum of Mulliken charges =   0.00000
 Mulliken charges with hydrogens summed into heavy atoms:
               1
     1  C    0.059272
     4  C    0.302369
     5  C    1.213744
     6  F   -0.377459
     7  F   -0.424342
     8  F   -0.377449
     9  F   -0.396135
 APT charges:
               1
     1  C   -0.184628
     2  H    0.097402
     3  H    0.093874
     4  C    0.488142
     5  C    1.837677
     6  F   -0.612622
     7  F   -0.560631
     8  F   -0.612617
     9  F   -0.546597
 Sum of APT charges =  -0.00000
 APT charges with hydrogens summed into heavy atoms:
               1
     1  C    0.006648
     4  C    0.488142
     5  C    1.837677
     6  F   -0.612622
     7  F   -0.560631
     8  F   -0.612617
     9  F   -0.546597
 Electronic spatial extent (au):  <R**2>=            611.0677
 Charge=             -0.0000 electrons
 Dipole moment (field-independent basis, Debye):
    X=              1.7722    Y=             -1.8220    Z=              0.0000  Tot=              2.5417
 Quadrupole moment (field-independent basis, Debye-Ang):
   XX=            -35.7506   YY=            -37.6579   ZZ=            -39.3563
   XY=             -3.2063   XZ=             -0.0000   YZ=              0.0001
 Traceless Quadrupole moment (field-independent basis, Debye-Ang):
   XX=              1.8377   YY=             -0.0696   ZZ=             -1.7681
   XY=             -3.2063   XZ=             -0.0000   YZ=              0.0001
 Octapole moment (field-independent basis, Debye-Ang**2):
  XXX=             -3.6966  YYY=              2.9987  ZZZ=              0.0004  XYY=             -2.0870
  XXY=             -3.0686  XXZ=              0.0002  XZZ=             -4.6565  YZZ=              2.8449
  YYZ=             -0.0001  XYZ=             -0.0001
 Hexadecapole moment (field-independent basis, Debye-Ang**3):
 XXXX=           -317.8927 YYYY=           -186.5725 ZZZZ=            -99.0383 XXXY=              0.4475
 XXXZ=              0.0003 YYYX=              3.9485 YYYZ=              0.0001 ZZZX=              0.0002
 ZZZY=             -0.0001 XXYY=            -91.3313 XXZZ=            -79.7566 YYZZ=            -50.2828
 XXYZ=             -0.0000 YYXZ=             -0.0001 ZZXY=              7.3741
 N-N= 3.364749083620D+02 E-N=-1.890905076418D+03  KE= 5.113260243967D+02
  Exact polarizability:  38.078  -7.072  39.267  -0.000   0.000  27.503
 Approx polarizability:  30.126  -4.838  34.515  -0.000   0.000  25.759
 No NMR shielding tensors so no spin-rotation constants.
 Leave Link  601 at Thu Apr  2 13:29:36 2026, MaxMem=  2147483648 cpu:               0.5 elap:               0.1
 (Enter /Users/yarger/Applications/g16/l701.exe)
 ... and contract with generalized density number  0.
 Compute integral second derivatives.
 Leave Link  701 at Thu Apr  2 13:29:36 2026, MaxMem=  2147483648 cpu:               0.6 elap:               0.1
 (Enter /Users/yarger/Applications/g16/l702.exe)
 L702 exits ... SP integral derivatives will be done elsewhere.
 Leave Link  702 at Thu Apr  2 13:29:36 2026, MaxMem=  2147483648 cpu:               0.1 elap:               0.0
 (Enter /Users/yarger/Applications/g16/l703.exe)
 Integral derivatives from FoFJK, PRISM(SPDF).
 Compute integral second derivatives, UseDBF=F ICtDFT=           0.
 Calling FoFJK, ICntrl=    100127 FMM=F ISym2X=0 I1Cent= 0 IOpClX= 0 NMat=1 NMatS=1 NMatT=0.
 FoFJK:  IHMeth= 1 ICntrl=  100127 DoSepK=F KAlg= 0 I1Cent=           0 FoldK=F
 IRaf=         0 NMat=       1 IRICut=       1 DoRegI=T DoRafI=F ISym2E= 0 IDoP0=0 IntGTp=1.
 FoFCou: FMM=F IPFlag=           0 FMFlag=      100000 FMFlg1=         800
         NFxFlg=           0 DoJE=F BraDBF=F KetDBF=F FulRan=T
         wScrn=  0.000000 ICntrl=    100127 IOpCl=  0 I1Cent=           0 NGrid=           0
         NMat0=    1 NMatS0=      1 NMatT0=    0 NMatD0=    1 NMtDS0=    0 NMtDT0=    0
 Symmetry not used in FoFCou.
 Leave Link  703 at Thu Apr  2 13:29:38 2026, MaxMem=  2147483648 cpu:              14.2 elap:               1.8
 (Enter /Users/yarger/Applications/g16/l716.exe)
 Dipole        = 6.97224671D-01-7.16819426D-01 7.61064667D-06
 Polarizability= 3.80784655D+01-7.07196661D+00 3.92670605D+01
                -7.64924510D-05 1.23008236D-04 2.75033476D+01
 HyperPolar    = 2.20796471D+01-1.20808334D+01 1.29411951D+01
                -5.67796764D+01-5.66880842D-04-1.21296866D-04
                -1.79127578D-04 2.27692116D+01-2.91027783D+01
                -1.21932550D-03
 Full mass-weighted force constant matrix:
 Low frequencies ---   -1.0352   -0.2459   -0.0013   -0.0009   -0.0007    1.2341
 Low frequencies ---   74.1618  250.5002  257.6116
 Diagonal vibrational polarizability:
        7.7561102       8.7073690      15.8332154
 Diagonal vibrational hyperpolarizability:
       18.4470783      -9.7962697      -0.0060988
 Harmonic frequencies (cm**-1), IR intensities (KM/Mole), Raman scattering
 activities (A**4/AMU), depolarization ratios for plane and unpolarized
 incident light, reduced masses (AMU), force constants (mDyne/A),
 and normal coordinates:
                      1                      2                      3
                      A                      A                      A
 Frequencies --     74.1618               250.5002               257.6116
 Red. masses --      7.2105                 9.2316                 8.1062
 Frc consts  --      0.0234                 0.3413                 0.3170
 IR Inten    --      1.7928                 1.4047                 0.0868
 Raman Activ --      1.5293                 0.3092                 2.3116
 Depolar (P) --      0.7500                 0.6892                 0.7500
 Depolar (U) --      0.8571                 0.8160                 0.8571
  Atom  AN      X      Y      Z        X      Y      Z        X      Y      Z
     1   6     0.00   0.00  -0.38    -0.28  -0.08  -0.00     0.00   0.00  -0.25
     2   1     0.00   0.00  -0.66    -0.54   0.04  -0.00     0.00  -0.00  -0.10
     3   1     0.00   0.00  -0.40    -0.24  -0.38  -0.00     0.00   0.00  -0.74
     4   6     0.00  -0.00  -0.01    -0.00   0.14   0.00    -0.00  -0.00   0.17
     5   6    -0.00  -0.00  -0.01    -0.02   0.11   0.00     0.00  -0.00   0.18
     6   9    -0.00  -0.18  -0.12    -0.24  -0.03   0.02     0.37   0.04   0.04
     7   9    -0.00   0.00   0.19     0.34  -0.03   0.00    -0.00   0.00   0.09
     8   9     0.00   0.18  -0.12    -0.24  -0.03  -0.02    -0.37  -0.04   0.04
     9   9    -0.00  -0.00   0.35     0.38   0.00  -0.00    -0.00   0.00  -0.19
                      4                      5                      6
                      A                      A                      A
 Frequencies --    391.6234               455.6353               542.3229
 Red. masses --      4.3531                10.2746                11.7329
 Frc consts  --      0.3934                 1.2568                 2.0332
 IR Inten    --      0.6621                 1.6089                 1.6963
 Raman Activ --      2.3955                 1.5148                 1.8959
 Depolar (P) --      0.4938                 0.7122                 0.7500
 Depolar (U) --      0.6611                 0.8319                 0.8571
  Atom  AN      X      Y      Z        X      Y      Z        X      Y      Z
     1   6     0.28   0.13   0.00     0.18  -0.11   0.00    -0.00   0.00   0.06
     2   1     0.65  -0.02  -0.00     0.53  -0.25   0.00    -0.00   0.00  -0.06
     3   1     0.23   0.54   0.00     0.14   0.27   0.00    -0.00  -0.00   0.57
     4   6     0.04  -0.04   0.00    -0.04  -0.25  -0.00    -0.00   0.00  -0.38
     5   6    -0.07  -0.01   0.00    -0.00   0.04  -0.00    -0.00  -0.00  -0.20
     6   9    -0.13  -0.01   0.03    -0.11   0.26   0.17     0.07   0.33  -0.12
     7   9    -0.17   0.02  -0.00     0.34  -0.08   0.00    -0.00  -0.00   0.47
     8   9    -0.13  -0.01  -0.03    -0.11   0.26  -0.17    -0.07  -0.33  -0.12
     9   9     0.22  -0.09  -0.00    -0.24  -0.23   0.00     0.00   0.00   0.07
                      7                      8                      9
                      A                      A                      A
 Frequencies --    624.9321               667.1361               744.6378
 Red. masses --      6.4821                 6.8131                 8.1355
 Frc consts  --      1.4915                 1.7866                 2.6578
 IR Inten    --     14.2933                28.1610                 1.9696
 Raman Activ --      1.2021                 2.6314                 1.2777
 Depolar (P) --      0.5055                 0.3302                 0.7500
 Depolar (U) --      0.6715                 0.4964                 0.8571
  Atom  AN      X      Y      Z        X      Y      Z        X      Y      Z
     1   6    -0.04   0.09   0.00     0.21  -0.25  -0.00     0.00  -0.00  -0.05
     2   1     0.46  -0.10  -0.00    -0.15  -0.12  -0.00    -0.00   0.00  -0.12
     3   1    -0.10   0.66   0.00     0.27  -0.69   0.00     0.00  -0.00  -0.65
     4   6    -0.21  -0.07  -0.00     0.28  -0.09  -0.00     0.00  -0.00   0.63
     5   6    -0.09   0.17   0.00     0.13   0.13  -0.00    -0.00  -0.00  -0.14
     6   9     0.03  -0.06  -0.26    -0.14  -0.10  -0.04    -0.15   0.15  -0.13
     7   9     0.16   0.18  -0.00     0.01   0.31   0.00     0.00  -0.00   0.11
     8   9     0.03  -0.06   0.26    -0.14  -0.10   0.04     0.15  -0.15  -0.13
     9   9    -0.04  -0.20  -0.00    -0.14   0.07   0.00     0.00   0.00  -0.08
                     10                     11                     12
                      A                      A                      A
 Frequencies --    826.1487               865.8896              1049.4995
 Red. masses --      1.0810                 9.9049                 2.0672
 Frc consts  --      0.4347                 4.3755                 1.3415
 IR Inten    --      0.1609                 3.3209                34.2970
 Raman Activ --      1.1675                 9.4426                 3.9677
 Depolar (P) --      0.7500                 0.0327                 0.3656
 Depolar (U) --      0.8571                 0.0633                 0.5354
  Atom  AN      X      Y      Z        X      Y      Z        X      Y      Z
     1   6     0.00  -0.00   0.01    -0.20   0.17   0.00    -0.07  -0.18   0.00
     2   1    -0.00  -0.00   0.76     0.10   0.06   0.00     0.63  -0.47  -0.00
     3   1     0.00   0.00  -0.65    -0.26   0.61  -0.00    -0.15   0.52  -0.00
     4   6     0.00   0.00  -0.05    -0.16   0.05   0.00    -0.04  -0.08  -0.00
     5   6     0.00  -0.00  -0.00     0.21  -0.01  -0.00    -0.01   0.02  -0.00
     6   9    -0.01   0.01  -0.01     0.05  -0.18   0.32     0.01  -0.01   0.02
     7   9    -0.00  -0.00  -0.00     0.02   0.34   0.00     0.00   0.00   0.00
     8   9     0.01  -0.01  -0.01     0.05  -0.18  -0.32     0.01  -0.01  -0.02
     9   9    -0.00   0.00   0.04    -0.03  -0.15  -0.00     0.04   0.17   0.00
                     13                     14                     15
                      A                      A                      A
 Frequencies --   1083.6928              1274.6941              1345.1900
 Red. masses --      1.3520                 4.8711                12.5152
 Frc consts  --      0.9355                 4.6632                13.3431
 IR Inten    --     63.1625               228.3937               357.8307
 Raman Activ --      5.0176                 0.6717                 3.6323
 Depolar (P) --      0.7500                 0.4093                 0.7500
 Depolar (U) --      0.8571                 0.5809                 0.8571
  Atom  AN      X      Y      Z        X      Y      Z        X      Y      Z
     1   6    -0.00  -0.00  -0.17    -0.17  -0.01  -0.00     0.00   0.00   0.00
     2   1     0.00  -0.00   0.68     0.23  -0.16  -0.00    -0.00   0.00  -0.08
     3   1    -0.00   0.00   0.71    -0.27   0.73   0.00     0.00  -0.00   0.21
     4   6    -0.00  -0.00   0.06     0.24   0.16  -0.00    -0.00  -0.00  -0.08
     5   6    -0.00   0.00  -0.00     0.38   0.00   0.00    -0.00  -0.00   0.89
     6   9    -0.00   0.00  -0.00    -0.07   0.04  -0.07    -0.10   0.11  -0.23
     7   9     0.00   0.00   0.00    -0.08  -0.10  -0.00     0.00   0.00  -0.05
     8   9     0.00  -0.00  -0.00    -0.07   0.04   0.07     0.10  -0.11  -0.23
     9   9     0.00   0.00  -0.00    -0.07  -0.11  -0.00     0.00   0.00   0.00
                     16                     17                     18
                      A                      A                      A
 Frequencies --   1375.2626              1519.3600              1569.5748
 Red. masses --     12.9393                 3.4733                 1.4629
 Frc consts  --     14.4189                 4.7241                 2.1234
 IR Inten    --    348.4108               152.4786                96.1198
 Raman Activ --      1.4241                 3.7093                11.0519
 Depolar (P) --      0.5902                 0.3733                 0.5052
 Depolar (U) --      0.7423                 0.5437                 0.6713
  Atom  AN      X      Y      Z        X      Y      Z        X      Y      Z
     1   6     0.05  -0.02   0.00    -0.06  -0.05  -0.00     0.01  -0.05  -0.00
     2   1    -0.09   0.04  -0.00     0.74  -0.38  -0.00    -0.60   0.20  -0.00
     3   1     0.05   0.02   0.00    -0.01  -0.32  -0.00    -0.09   0.74   0.00
     4   6     0.04   0.01  -0.00     0.19   0.29   0.00     0.13  -0.02  -0.00
     5   6    -0.05   0.91   0.00    -0.27  -0.03   0.00    -0.14  -0.02   0.00
     6   9     0.06  -0.11   0.11     0.03  -0.01   0.03     0.01  -0.00   0.01
     7   9    -0.10  -0.29  -0.00     0.02   0.03  -0.00     0.02   0.02  -0.00
     8   9     0.06  -0.11  -0.11     0.03  -0.01  -0.03     0.01  -0.00  -0.01
     9   9    -0.04  -0.05  -0.00    -0.04  -0.10  -0.00    -0.01  -0.00  -0.00
                     19                     20                     21
                      A                      A                      A
 Frequencies --   1926.8171              3376.6454              3474.2884
 Red. masses --      6.5244                 1.0649                 1.1193
 Frc consts  --     14.2716                 7.1535                 7.9600
 IR Inten    --     44.0274                 1.8061                 0.2053
 Raman Activ --     61.2536                82.5649                44.6463
 Depolar (P) --      0.1268                 0.1761                 0.7476
 Depolar (U) --      0.2250                 0.2995                 0.8556
  Atom  AN      X      Y      Z        X      Y      Z        X      Y      Z
     1   6     0.28  -0.34  -0.00    -0.05   0.05  -0.00    -0.07  -0.07  -0.00
     2   1    -0.51  -0.11  -0.00    -0.23  -0.56  -0.00     0.30   0.74   0.00
     3   1     0.28   0.39   0.00     0.79   0.10   0.00     0.59   0.07   0.00
     4   6    -0.34   0.42   0.00     0.01  -0.01  -0.00    -0.00   0.00   0.00
     5   6     0.10  -0.02  -0.00    -0.00   0.00  -0.00     0.00  -0.00  -0.00
     6   9     0.00   0.00  -0.00    -0.00   0.00  -0.00     0.00   0.00   0.00
     7   9    -0.01  -0.01   0.00     0.00  -0.00  -0.00    -0.00   0.00  -0.00
     8   9     0.00   0.00   0.00    -0.00   0.00   0.00     0.00   0.00  -0.00
     9   9    -0.00  -0.05  -0.00     0.00   0.00   0.00     0.00   0.00   0.00

 -------------------
 - Thermochemistry -
 -------------------
 Temperature   298.150 Kelvin.  Pressure   1.00000 Atm.
 Atom     1 has atomic number  6 and mass  12.00000
 Atom     2 has atomic number  1 and mass   1.00783
 Atom     3 has atomic number  1 and mass   1.00783
 Atom     4 has atomic number  6 and mass  12.00000
 Atom     5 has atomic number  6 and mass  12.00000
 Atom     6 has atomic number  9 and mass  18.99840
 Atom     7 has atomic number  9 and mass  18.99840
 Atom     8 has atomic number  9 and mass  18.99840
 Atom     9 has atomic number  9 and mass  18.99840
 Molecular mass:   114.00926 amu.
 Principal axes and moments of inertia in atomic units:
                           1         2         3
     Eigenvalues --   474.43632 720.97541 888.07610
           X            0.99444  -0.10530  -0.00000
           Y            0.10530   0.99444   0.00000
           Z            0.00000  -0.00000   1.00000
 This molecule is an asymmetric top.
 Rotational symmetry number  1.
 Warning -- assumption of classical behavior for rotation
           may cause significant error
 Rotational temperatures (Kelvin)      0.18256     0.12013     0.09753
 Rotational constants (GHZ):           3.80397     2.50319     2.03219
 Zero-point vibrational energy     141731.3 (Joules/Mol)
                                   33.87460 (Kcal/Mol)
 Warning -- explicit consideration of   6 degrees of freedom as
           vibrations may cause significant error
 Vibrational temperatures:    106.70   360.41   370.65   563.46   655.56
          (Kelvin)            780.28   899.14   959.86  1071.37  1188.64
                             1245.82  1510.00  1559.19  1834.00  1935.43
                             1978.70  2186.02  2258.27  2772.26  4858.24
                             4998.73
 
 Zero-point correction=                           0.053983 (Hartree/Particle)
 Thermal correction to Energy=                    0.059931
 Thermal correction to Enthalpy=                  0.060875
 Thermal correction to Gibbs Free Energy=         0.023485
 Sum of electronic and zero-point Energies=           -512.466131
 Sum of electronic and thermal Energies=              -512.460183
 Sum of electronic and thermal Enthalpies=            -512.459239
 Sum of electronic and thermal Free Energies=         -512.496629
 
                     E (Thermal)             CV                S
                      KCal/Mol        Cal/Mol-Kelvin    Cal/Mol-Kelvin
 Total                   37.607             20.377             78.694
 Electronic               0.000              0.000              0.000
 Translational            0.889              2.981             40.109
 Rotational               0.889              2.981             27.210
 Vibrational             35.830             14.415             11.376
 Vibration     1          0.599              1.966              4.040
 Vibration     2          0.663              1.762              1.727
 Vibration     3          0.667              1.750              1.678
 Vibration     4          0.759              1.488              0.994
 Vibration     5          0.814              1.348              0.779
 Vibration     6          0.897              1.157              0.560
                       Q            Log10(Q)             Ln(Q)
 Total Bot       0.157624D-10        -10.802377        -24.873392
 Total V=0       0.106629D+15         14.027875         32.300377
 Vib (Bot)       0.166970D-23        -23.777361        -54.749397
 Vib (Bot)    1  0.277937D+01          0.443946          1.022223
 Vib (Bot)    2  0.778942D+00         -0.108495         -0.249818
 Vib (Bot)    3  0.754852D+00         -0.122138         -0.281233
 Vib (Bot)    4  0.457894D+00         -0.339235         -0.781117
 Vib (Bot)    5  0.374642D+00         -0.426383         -0.981783
 Vib (Bot)    6  0.291499D+00         -0.535364         -1.232720
 Vib (V=0)       0.112951D+02          1.052891          2.424372
 Vib (V=0)    1  0.332398D+01          0.521659          1.201164
 Vib (V=0)    2  0.142561D+01          0.154000          0.354599
 Vib (V=0)    3  0.140543D+01          0.147809          0.340343
 Vib (V=0)    4  0.117799D+01          0.071141          0.163807
 Vib (V=0)    5  0.112479D+01          0.051070          0.117592
 Vib (V=0)    6  0.107877D+01          0.032928          0.075819
 Electronic      0.100000D+01          0.000000          0.000000
 Translational   0.478480D+08          7.679864         17.683541
 Rotational      0.197297D+06          5.295120         12.192464
 
                                                 r1234yf - 2,3,3,3-Tetrafluoropro
 pene
                                                             IR Spectrum
 
     3   3                                                    1            1 1    11  1      11                                      
     4   3                                                    9            5 5    33  2      00      88  7  6 6  5  4 3   22         
     7   7                                                    2            7 1    74  7      84      62  4  6 2  4  5 9   55      7  
     4   7                                                    7            0 9    55  5      49      66  5  7 5  2  6 2   81      4  
 
     X   X                                                    X            X X    XX  X      XX      XX  X  X X  X  X X   XX      X  
                                                              X            X X    XX  X      XX             X                        
                                                                           X X    XX  X      X                                       
                                                                           X X    XX  X      X                                       
                                                                           X X    XX  X                                              
                                                                             X    XX  X                                              
                                                                             X    XX  X                                              
                                                                             X    XX  X                                              
                                                                             X    XX  X                                              
                                                                                  XX  X                                              
                                                                                  XX  X                                              
                                                                                  XX  X                                              
                                                                                  XX  X                                              
                                                                                  XX                                                 
                                                                                  XX                                                 
                                                                                  XX                                                 
                                                                                  XX                                                 
                                                                                  XX                                                 
                                                                                  XX                                                 
                                                                                   X                                                 
 
 
                                                 r1234yf - 2,3,3,3-Tetrafluoropro
 pene
                                                            Raman Spectrum
 
     3   3                                                    1            1 1    11  1      11                                      
     4   3                                                    9            5 5    33  2      00      88  7  6 6  5  4 3   22         
     7   7                                                    2            7 1    74  7      84      62  4  6 2  4  5 9   55      7  
     4   7                                                    7            0 9    55  5      49      66  5  7 5  2  6 2   81      4  
 
     X   X                                                    X            X X    XX  X      XX      XX  X  X X  X  X X   XX      X  
     X   X                                                    X            X                         X                               
     X   X                                                    X            X                                                         
     X   X                                                    X                                                                      
     X   X                                                    X                                                                      
     X   X                                                    X                                                                      
     X   X                                                    X                                                                      
     X   X                                                    X                                                                      
     X   X                                                    X                                                                      
     X   X                                                    X                                                                      
     X   X                                                    X                                                                      
         X                                                    X                                                                      
         X                                                    X                                                                      
         X                                                    X                                                                      
         X                                                    X                                                                      
         X                                                                                                                           
         X                                                                                                                           
         X                                                                                                                           
         X                                                                                                                           
         X                                                                                                                           
 
 ***** Axes restored to original set *****
 -------------------------------------------------------------------
 Center     Atomic                   Forces (Hartrees/Bohr)
 Number     Number              X              Y              Z
 -------------------------------------------------------------------
      1        6          -0.000001329    0.000000283   -0.000002044
      2        1           0.000000296   -0.000000270    0.000000049
      3        1           0.000000969    0.000000456    0.000001281
      4        6           0.000000895    0.000001106    0.000003310
      5        6          -0.000000874   -0.000010698    0.000001048
      6        9           0.000002957    0.000009626    0.000004738
      7        9           0.000002620   -0.000006079    0.000002195
      8        9          -0.000003268    0.000003979   -0.000011025
      9        9          -0.000002267    0.000001598    0.000000447
 -------------------------------------------------------------------
 Cartesian Forces:  Max     0.000011025 RMS     0.000004158
 Force constants in Cartesian coordinates: 
                1             2             3             4             5 
      1  0.860723D+00
      2  0.138167D+00  0.795888D+00
      3  0.190780D-02  0.303959D+00  0.283547D+00
      4 -0.112738D+00  0.102121D+00  0.552908D-01  0.106442D+00
      5  0.930886D-01 -0.289287D+00 -0.126656D+00 -0.104093D+00  0.299254D+00
      6  0.509506D-01 -0.127461D+00 -0.108760D+00 -0.568726D-01  0.138869D+00
      7 -0.382217D+00  0.257254D-01  0.422765D-01 -0.345469D-02 -0.521310D-03
      8  0.334032D-01 -0.680362D-01 -0.131867D-01  0.258707D-01  0.474943D-02
      9  0.459670D-01 -0.125017D-01 -0.568995D-01  0.131262D-01  0.241780D-03
     10 -0.369661D+00 -0.247418D+00 -0.916305D-01  0.148070D-01  0.133196D-01
     11 -0.259687D+00 -0.396739D+00 -0.136720D+00 -0.172257D-01 -0.142973D-01
     12 -0.975255D-01 -0.137814D+00 -0.121537D+00 -0.941289D-02 -0.905142D-02
     13 -0.300798D-02 -0.447331D-02 -0.147754D-02  0.367333D-03  0.347119D-03
     14 -0.243703D-01  0.780168D-02  0.374860D-02 -0.123375D-02 -0.302778D-02
     15 -0.110388D-01  0.197407D-02  0.645632D-02 -0.109812D-02  0.106065D-02
     16 -0.582885D-02  0.353964D-02  0.270326D-02  0.268503D-03 -0.730103D-03
     17 -0.303700D-02  0.231930D-02  0.111857D-02  0.595314D-03  0.890275D-04
     18  0.453105D-02 -0.155091D-02 -0.628886D-03 -0.224391D-03  0.104605D-03
     19 -0.263972D-02 -0.210797D-02 -0.764423D-03 -0.332184D-02  0.124731D-02
     20 -0.872522D-03 -0.124543D-02 -0.591440D-03  0.568980D-04  0.172936D-02
     21 -0.170693D-03 -0.481365D-03 -0.687527D-04  0.254553D-03  0.109109D-02
     22 -0.667202D-02  0.417516D-02  0.221800D-02  0.347310D-04  0.907505D-03
     23  0.116777D-02  0.705905D-03 -0.347839D-04  0.178056D-03  0.301408D-03
     24 -0.421517D-02  0.178004D-02  0.182734D-02  0.457583D-03  0.667322D-03
     25  0.220417D-01 -0.197282D-01 -0.105239D-01 -0.240501D-02 -0.356557D-02
     26  0.221403D-01 -0.514060D-01 -0.316376D-01 -0.626925D-02  0.488936D-03
     27  0.959372D-02 -0.279044D-01 -0.393641D-02 -0.152109D-02 -0.632729D-02
                6             7             8             9            10 
      6  0.101361D+00
      7  0.444947D-03  0.401245D+00
      8 -0.211190D-02 -0.291137D-01  0.559877D-01
      9  0.328850D-02 -0.471997D-01  0.156246D-01  0.405919D-01
     10  0.526421D-02 -0.181932D-01 -0.308682D-01 -0.123799D-01  0.820917D+00
     11 -0.632809D-02  0.544155D-02  0.810473D-02 -0.106601D-02  0.203679D+00
     12 -0.144169D-02  0.506777D-02  0.217255D-02  0.990423D-02  0.422778D-01
     13 -0.338573D-03  0.147568D-02  0.503228D-03  0.121217D-02 -0.278601D+00
     14  0.120158D-02 -0.197370D-02 -0.263760D-02 -0.703104D-02 -0.120130D-01
     15 -0.469197D-02  0.225194D-04 -0.725196D-02  0.887480D-02  0.120560D-01
     16  0.162432D-02 -0.101938D-02  0.332329D-03 -0.374595D-02 -0.153318D-01
     17  0.866883D-03 -0.692372D-03  0.161655D-03 -0.128354D-02 -0.903179D-02
     18 -0.460185D-03  0.562452D-03  0.609245D-03  0.842136D-03  0.665104D-02
     19  0.826657D-03  0.202655D-03  0.751418D-03  0.347731D-03 -0.557418D-02
     20  0.119727D-02 -0.489286D-04  0.117947D-02  0.545314D-03  0.509047D-02
     21 -0.271294D-03 -0.368089D-04  0.474030D-03  0.284492D-03  0.369371D-02
     22 -0.167744D-02 -0.540521D-03 -0.295236D-02  0.275966D-02 -0.241474D-01
     23 -0.148115D-03  0.328463D-04  0.508852D-04  0.725565D-03 -0.299620D-02
     24 -0.438674D-03 -0.606815D-03 -0.992513D-03  0.474013D-03 -0.111399D-01
     25 -0.222095D-03  0.250134D-02  0.207333D-02 -0.872412D-04 -0.124216D+00
     26 -0.608605D-02  0.115018D-02  0.439933D-03  0.474505D-02  0.802384D-01
     27  0.114141D-01 -0.530940D-03  0.466262D-02 -0.736063D-02  0.452074D-01
               11            12            13            14            15 
     11  0.808987D+00
     12  0.275664D+00  0.326178D+00
     13  0.346951D-02  0.194974D-01  0.754432D+00
     14 -0.704225D-01  0.502937D-02 -0.599298D-02  0.676045D+00
     15  0.364891D-02 -0.779827D-01 -0.133987D-01  0.196687D-01  0.646911D+00
     16 -0.475769D-01  0.278791D-01 -0.142241D+00 -0.769710D-01  0.597594D-01
     17 -0.219139D-01  0.122161D-01 -0.795015D-01 -0.231747D+00  0.106298D+00
     18  0.194263D-01 -0.604273D-03  0.590213D-01  0.102436D+00 -0.162150D+00
     19  0.421340D-01  0.214917D-01 -0.151665D+00  0.865052D-01  0.473783D-01
     20 -0.190231D-01 -0.136377D-01  0.932257D-01 -0.258335D+00 -0.908989D-01
     21 -0.169406D-01 -0.525614D-04  0.506062D-01 -0.902982D-01 -0.134347D+00
     22 -0.112508D-01 -0.548562D-01 -0.172733D+00 -0.807922D-02 -0.115714D+00
     23  0.573428D-02 -0.690650D-02 -0.107616D-01 -0.882855D-01 -0.194801D-01
     24 -0.994338D-02 -0.194387D-01 -0.117482D+00 -0.160849D-01 -0.275164D+00
     25  0.810162D-01  0.455808D-01 -0.802811D-02  0.441286D-01  0.220334D-01
     26 -0.300430D+00 -0.127672D+00  0.318385D-02 -0.293912D-01 -0.150190D-01
     27 -0.127741D+00 -0.115025D+00  0.235918D-02 -0.186703D-01 -0.790665D-02
               16            17            18            19            20 
     16  0.121355D+00
     17  0.965845D-01  0.336739D+00
     18 -0.662209D-01 -0.173155D+00  0.216057D+00
     19  0.196289D-01 -0.767051D-02 -0.534906D-02  0.135521D+00
     20  0.102035D-01 -0.912450D-01 -0.122864D-02 -0.110852D+00  0.381149D+00
     21 -0.663083D-02  0.180018D-01  0.198802D-01 -0.570242D-01  0.148186D+00
     22  0.216073D-01  0.430904D-02  0.156939D-02  0.208137D-01 -0.250419D-02
     23  0.134545D-01 -0.177761D-02  0.537957D-01 -0.152620D-01 -0.162227D-01
     24 -0.139425D-01  0.348163D-01 -0.737964D-01 -0.107539D-01 -0.431352D-01
     25  0.156217D-02 -0.155566D-02 -0.540889D-03 -0.129655D-01  0.570146D-02
     26  0.116360D-02  0.737430D-02 -0.437907D-03  0.525486D-02  0.201323D-02
     27 -0.142591D-02  0.112080D-02  0.860523D-03  0.384725D-02 -0.436810D-03
               21            22            23            24            25 
     21  0.169599D+00
     22  0.524646D-02  0.159815D+00
     23 -0.596359D-01  0.153383D-01  0.958567D-01
     24 -0.563348D-01  0.158443D+00  0.288929D-01  0.418532D+00
     25  0.406156D-02  0.182163D-02 -0.115167D-02 -0.760813D-03  0.119688D+00
     26 -0.397005D-03  0.565515D-04  0.363655D-02  0.399948D-02 -0.106919D+00
     27  0.131148D-02  0.201121D-02  0.279121D-02  0.433928D-02 -0.595409D-01
               26            27 
     26  0.367274D+00
     27  0.172505D+00  0.116303D+00
 FormGI is forming the generalized inverse of G from B-inverse, IUseBI=4.
 Force constants in internal coordinates: 
                1             2             3             4             5 
      1  0.416218D+00
      2  0.196187D-02  0.410006D+00
      3  0.164613D-02  0.338889D-02  0.758525D+00
      4 -0.258967D-02 -0.223311D-03  0.101714D-01  0.364107D+00
      5 -0.823488D-03  0.331920D-03  0.359511D-01  0.180566D-01  0.494904D+00
      6 -0.197015D-03  0.791189D-03  0.167824D-02  0.247128D-01  0.543418D-02
      7  0.106581D-02 -0.270104D-03  0.236246D-02  0.210660D-01  0.412628D-02
      8 -0.197032D-03  0.791213D-03  0.167845D-02  0.247140D-01  0.543419D-02
      9  0.435440D-02  0.378888D-02 -0.215041D-01 -0.175760D-02 -0.225602D-02
     10  0.499817D-02 -0.110066D-01  0.118987D-01  0.186160D-02  0.834085D-02
     11 -0.935257D-02  0.721770D-02  0.960533D-02 -0.103999D-03 -0.608483D-02
     12 -0.862169D-02  0.479789D-02  0.137071D-01  0.177331D-01 -0.552459D-01
     13  0.686524D-02 -0.529998D-02  0.150390D-01 -0.269192D-01  0.339219D-01
     14  0.175645D-02  0.502094D-03 -0.287461D-01  0.918608D-02  0.213240D-01
     15  0.118548D-02  0.473411D-03  0.139493D-02  0.172888D-01 -0.744939D-02
     16 -0.583749D-02 -0.199043D-03  0.367305D-02  0.271255D-01  0.207344D-01
     17  0.118548D-02  0.473439D-03  0.139532D-02  0.172916D-01 -0.744995D-02
     18  0.182017D-02 -0.196733D-03 -0.339003D-02 -0.223387D-01 -0.267309D-02
     19  0.611707D-04 -0.393664D-03 -0.519826D-04 -0.206096D-01 -0.994735D-03
     20  0.182019D-02 -0.196742D-03 -0.339018D-02 -0.223389D-01 -0.267297D-02
     21  0.000000D+00  0.000000D+00  0.000000D+00  0.000000D+00  0.000000D+00
     22  0.000000D+00  0.000000D+00  0.000000D+00  0.000000D+00  0.000000D+00
     23  0.000000D+00  0.000000D+00  0.000000D+00  0.000000D+00  0.000000D+00
     24  0.000000D+00  0.000000D+00  0.000000D+00  0.000000D+00  0.000000D+00
     25  0.817497D-03  0.637656D-04  0.884012D-03 -0.158737D-02 -0.552115D-02
     26  0.000000D+00  0.000000D+00  0.000000D+00  0.000000D+00  0.000000D+00
     27 -0.817558D-03 -0.637646D-04 -0.884400D-03  0.158750D-02  0.552073D-02
     28  0.817539D-03  0.637695D-04  0.884442D-03 -0.158754D-02 -0.552092D-02
     29  0.000000D+00  0.000000D+00  0.000000D+00  0.000000D+00  0.000000D+00
     30 -0.817516D-03 -0.637608D-04 -0.883969D-03  0.158733D-02  0.552096D-02
                6             7             8             9            10 
      6  0.496285D+00
      7  0.567173D-01  0.500045D+00
      8  0.587027D-01  0.567230D-01  0.496338D+00
      9 -0.461942D-03 -0.188182D-02 -0.461946D-03  0.801435D-01
     10 -0.182003D-02  0.168093D-02 -0.182005D-02 -0.414941D-01  0.878714D-01
     11  0.228199D-02  0.200899D-03  0.228197D-02 -0.386494D-01 -0.463773D-01
     12  0.112870D-01 -0.798012D-02  0.112876D-01 -0.460791D-02 -0.581180D-02
     13 -0.359282D-02 -0.862276D-02 -0.359266D-02  0.130635D-03  0.147354D-01
     14 -0.769424D-02  0.166029D-01 -0.769496D-02  0.447728D-02 -0.892355D-02
     15  0.185826D-01 -0.353044D-01 -0.337686D-01 -0.110599D-02 -0.217517D-02
     16 -0.345267D-01  0.207103D-01 -0.345286D-01 -0.333382D-03  0.724909D-02
     17 -0.337687D-01 -0.353064D-01  0.185824D-01 -0.110605D-02 -0.217515D-02
     18  0.274957D-01  0.264721D-01 -0.219985D-02  0.103476D-02 -0.188075D-02
     19  0.274960D-01 -0.678313D-03  0.274942D-01  0.614530D-03  0.648340D-03
     20 -0.220004D-02  0.264789D-01  0.275009D-01  0.103477D-02 -0.188077D-02
     21 -0.259948D-02  0.000000D+00  0.259949D-02  0.000000D+00  0.000000D+00
     22  0.113059D-03  0.000000D+00 -0.113186D-03  0.000000D+00  0.000000D+00
     23 -0.344932D-02  0.000000D+00  0.344939D-02  0.000000D+00  0.000000D+00
     24 -0.736774D-03  0.000000D+00  0.736712D-03  0.000000D+00  0.000000D+00
     25  0.165981D-03 -0.236275D-01  0.244093D-01 -0.340694D-03 -0.102206D-02
     26  0.242896D-01 -0.245555D-05 -0.242924D-01  0.000000D+00  0.000000D+00
     27 -0.244091D-01  0.236299D-01 -0.163546D-03  0.340736D-03  0.102215D-02
     28 -0.227045D-02 -0.236275D-01  0.268459D-01 -0.340728D-03 -0.102211D-02
     29  0.218532D-01 -0.244551D-05 -0.218559D-01  0.000000D+00  0.000000D+00
     30 -0.268455D-01  0.236299D-01  0.227302D-02  0.340702D-03  0.102210D-02
               11            12            13            14            15 
     11  0.850267D-01
     12  0.104197D-01  0.148566D+00
     13 -0.148660D-01 -0.757153D-01  0.164585D+00
     14  0.444628D-02 -0.728505D-01 -0.888694D-01  0.161720D+00
     15  0.328122D-02  0.997636D-02  0.544698D-03 -0.105211D-01  0.211124D+00
     16 -0.691571D-02  0.646260D-02 -0.212410D-01  0.147784D-01 -0.103692D-01
     17  0.328113D-02  0.997705D-02  0.544318D-03 -0.105214D-01 -0.893721D-04
     18  0.845976D-03 -0.944368D-02  0.944919D-02 -0.550195D-05 -0.968330D-01
     19 -0.126287D-02 -0.901393D-02  0.251297D-02  0.650097D-02 -0.100152D+00
     20  0.846006D-03 -0.944370D-02  0.944926D-02 -0.556293D-05 -0.146114D-01
     21  0.000000D+00  0.000000D+00  0.000000D+00  0.000000D+00 -0.457397D-02
     22  0.000000D+00  0.000000D+00  0.000000D+00  0.000000D+00 -0.575890D-03
     23  0.000000D+00  0.000000D+00  0.000000D+00  0.000000D+00 -0.774608D-02
     24  0.000000D+00  0.000000D+00  0.000000D+00  0.000000D+00 -0.374800D-02
     25  0.136278D-02  0.892712D-03  0.193666D-02 -0.282940D-02  0.893744D-03
     26  0.000000D+00  0.000000D+00  0.000000D+00  0.000000D+00  0.135756D-01
     27 -0.136286D-02 -0.892386D-03 -0.193718D-02  0.282954D-02 -0.119324D-01
     28  0.136279D-02  0.892509D-03  0.193731D-02 -0.282979D-02 -0.269735D-02
     29  0.000000D+00  0.000000D+00  0.000000D+00  0.000000D+00  0.998455D-02
     30 -0.136285D-02 -0.892589D-03 -0.193652D-02  0.282915D-02 -0.155234D-01
               16            17            18            19            20 
     16  0.237246D+00
     17 -0.103628D-01  0.211132D+00
     18 -0.107646D+00 -0.146129D-01  0.159934D+00
     19 -0.147555D-01 -0.100155D+00  0.338828D-01  0.159609D+00
     20 -0.107648D+00 -0.968395D-01  0.378344D-01  0.338821D-01  0.159942D+00
     21  0.000000D+00  0.457401D-02  0.154552D-02  0.000000D+00 -0.154543D-02
     22  0.000000D+00  0.575869D-03  0.366700D-03  0.000000D+00 -0.366657D-03
     23  0.000000D+00  0.774627D-02  0.197594D-02  0.000000D+00 -0.197581D-02
     24  0.000000D+00  0.374812D-02  0.797120D-03  0.000000D+00 -0.797043D-03
     25 -0.160850D-01  0.119321D-01 -0.317125D-01  0.344732D-01  0.105263D-02
     26  0.137659D-05 -0.135741D-01  0.331784D-01  0.000000D+00 -0.331823D-01
     27  0.160838D-01 -0.895298D-03 -0.105281D-02 -0.344733D-01  0.317166D-01
     28 -0.160851D-01  0.155233D-01 -0.306536D-01  0.344732D-01 -0.610793D-05
     29  0.124411D-05 -0.998291D-02  0.342373D-01  0.000000D+00 -0.342411D-01
     30  0.160836D-01  0.269591D-02  0.606582D-05 -0.344733D-01  0.306578D-01
               21            22            23            24            25 
     21  0.219206D-01
     22  0.193090D-01  0.293024D-01
     23 -0.200339D-02 -0.831103D-02  0.252545D-01
     24 -0.461500D-02  0.168243D-02  0.189469D-01  0.252443D-01
     25 -0.872078D-04  0.450484D-02 -0.122421D-02  0.336784D-02  0.364028D-01
     26 -0.121166D-02  0.458101D-02 -0.394008D-02  0.185260D-02 -0.139184D-01
     27 -0.872086D-04  0.450483D-02 -0.122423D-02  0.336781D-02 -0.153501D-01
     28  0.225857D-02 -0.447140D-02  0.444138D-02 -0.228859D-02  0.322782D-01
     29  0.113412D-02 -0.439523D-02  0.172552D-02 -0.380383D-02 -0.180430D-01
     30  0.225857D-02 -0.447141D-02  0.444136D-02 -0.228862D-02 -0.194747D-01
               26            27            28            29            30 
     26  0.372035D-01
     27 -0.139195D-01  0.364041D-01
     28 -0.191215D-01 -0.194747D-01  0.383232D-01
     29  0.320004D-01 -0.180442D-01 -0.130765D-01  0.369669D-01
     30 -0.191226D-01  0.322794D-01 -0.134298D-01 -0.130776D-01  0.383244D-01
 Leave Link  716 at Thu Apr  2 13:29:38 2026, MaxMem=  2147483648 cpu:               0.2 elap:               0.0
 (Enter /Users/yarger/Applications/g16/l103.exe)

 GradGradGradGradGradGradGradGradGradGradGradGradGradGradGradGradGradGrad
 Berny optimization.
 Red2BG is reusing G-inverse.
 Internal  Forces:  Max     0.000010992 RMS     0.000003698
 Search for a local minimum.
 Step number   1 out of a maximum of    2
 All quantities printed in internal units (Hartrees-Bohrs-Radians)
 Second derivative matrix not updated -- analytic derivatives used.
 ITU=  0
     Eigenvalues ---    0.00362   0.02419   0.03940   0.05242   0.11712
     Eigenvalues ---    0.12495   0.14880   0.15654   0.20019   0.23785
     Eigenvalues ---    0.26121   0.29423   0.32285   0.41051   0.41691
     Eigenvalues ---    0.46258   0.46313   0.47101   0.51353   0.64041
     Eigenvalues ---    0.76723
 Angle between quadratic step and forces=  45.34 degrees.
 Linear search not attempted -- first point.
 Iteration  1 RMS(Cart)=  0.00002075 RMS(Int)=  0.00000000
 Iteration  2 RMS(Cart)=  0.00000000 RMS(Int)=  0.00000000
 ITry= 1 IFail=0 DXMaxC= 4.99D-05 DCOld= 1.00D+10 DXMaxT= 3.00D-01 DXLimC= 3.00D+00 Rises=F
 Variable       Old X    -DE/DX   Delta X   Delta X   Delta X     New X
                                 (Linear)    (Quad)   (Total)
    R1        2.02391  -0.00000   0.00000  -0.00000  -0.00000   2.02391
    R2        2.02819   0.00000   0.00000   0.00000   0.00000   2.02819
    R3        2.47157   0.00000   0.00000  -0.00000  -0.00000   2.47157
    R4        2.84023  -0.00000   0.00000  -0.00000  -0.00000   2.84022
    R5        2.50609  -0.00000   0.00000  -0.00000  -0.00000   2.50609
    R6        2.49511  -0.00001   0.00000  -0.00002  -0.00002   2.49509
    R7        2.49218  -0.00001   0.00000  -0.00000  -0.00000   2.49218
    R8        2.49507   0.00001   0.00000   0.00002   0.00002   2.49509
    A1        2.07839  -0.00000   0.00000  -0.00001  -0.00001   2.07839
    A2        2.10370  -0.00000   0.00000  -0.00000  -0.00000   2.10370
    A3        2.10109   0.00000   0.00000   0.00001   0.00001   2.10110
    A4        2.20905   0.00000   0.00000  -0.00000  -0.00000   2.20905
    A5        2.14321   0.00000   0.00000   0.00001   0.00001   2.14322
    A6        1.93092  -0.00000   0.00000  -0.00001  -0.00001   1.93092
    A7        1.93748  -0.00000   0.00000   0.00000   0.00000   1.93748
    A8        1.94056  -0.00000   0.00000  -0.00002  -0.00002   1.94055
    A9        1.93747   0.00000   0.00000   0.00001   0.00001   1.93748
   A10        1.88558  -0.00001   0.00000  -0.00003  -0.00003   1.88555
   A11        1.87470   0.00001   0.00000   0.00004   0.00004   1.87474
   A12        1.88556   0.00000   0.00000  -0.00000  -0.00000   1.88555
    D1       -0.00001   0.00000   0.00000   0.00001   0.00001  -0.00000
    D2       -3.14159   0.00000   0.00000  -0.00000  -0.00000   3.14159
    D3       -3.14158  -0.00000   0.00000  -0.00002  -0.00002   3.14159
    D4        0.00002  -0.00000   0.00000  -0.00003  -0.00003  -0.00000
    D5       -2.09963   0.00001   0.00000   0.00000   0.00000  -2.09962
    D6        0.00004  -0.00000   0.00000  -0.00004  -0.00004  -0.00000
    D7        2.09967  -0.00000   0.00000  -0.00005  -0.00005   2.09962
    D8        1.04196   0.00001   0.00000   0.00001   0.00001   1.04197
    D9       -3.14156  -0.00000   0.00000  -0.00003  -0.00003   3.14159
   D10       -1.04193  -0.00000   0.00000  -0.00004  -0.00004  -1.04197
         Item               Value     Threshold  Converged?
 Maximum Force            0.000011     0.000015     YES
 RMS     Force            0.000004     0.000010     YES
 Maximum Displacement     0.000050     0.000060     YES
 RMS     Displacement     0.000021     0.000040     YES
 Predicted change in Energy=-7.184860D-10
 Optimization completed.
    -- Stationary point found.
                           ----------------------------
                           !   Optimized Parameters   !
                           ! (Angstroms and Degrees)  !
 --------------------------                            --------------------------
 ! Name  Definition              Value          Derivative Info.                !
 --------------------------------------------------------------------------------
 ! R1    R(1,2)                  1.071          -DE/DX =    0.0                 !
 ! R2    R(1,3)                  1.0733         -DE/DX =    0.0                 !
 ! R3    R(1,4)                  1.3079         -DE/DX =    0.0                 !
 ! R4    R(4,5)                  1.503          -DE/DX =    0.0                 !
 ! R5    R(4,9)                  1.3262         -DE/DX =    0.0                 !
 ! R6    R(5,6)                  1.3204         -DE/DX =    0.0                 !
 ! R7    R(5,7)                  1.3188         -DE/DX =    0.0                 !
 ! R8    R(5,8)                  1.3203         -DE/DX =    0.0                 !
 ! A1    A(2,1,3)              119.0832         -DE/DX =    0.0                 !
 ! A2    A(2,1,4)              120.5334         -DE/DX =    0.0                 !
 ! A3    A(3,1,4)              120.3835         -DE/DX =    0.0                 !
 ! A4    A(1,4,5)              126.5691         -DE/DX =    0.0                 !
 ! A5    A(1,4,9)              122.7971         -DE/DX =    0.0                 !
 ! A6    A(5,4,9)              110.6337         -DE/DX =    0.0                 !
 ! A7    A(4,5,6)              111.0092         -DE/DX =    0.0                 !
 ! A8    A(4,5,7)              111.186          -DE/DX =    0.0                 !
 ! A9    A(4,5,8)              111.009          -DE/DX =    0.0                 !
 ! A10   A(6,5,7)              108.0359         -DE/DX =    0.0                 !
 ! A11   A(6,5,8)              107.4126         -DE/DX =    0.0                 !
 ! A12   A(7,5,8)              108.0344         -DE/DX =    0.0                 !
 ! D1    D(2,1,4,5)             -0.0004         -DE/DX =    0.0                 !
 ! D2    D(2,1,4,9)            180.0001         -DE/DX =    0.0                 !
 ! D3    D(3,1,4,5)            180.001          -DE/DX =    0.0                 !
 ! D4    D(3,1,4,9)              0.0014         -DE/DX =    0.0                 !
 ! D5    D(1,4,5,6)           -120.2997         -DE/DX =    0.0                 !
 ! D6    D(1,4,5,7)              0.0022         -DE/DX =    0.0                 !
 ! D7    D(1,4,5,8)            120.302          -DE/DX =    0.0                 !
 ! D8    D(9,4,5,6)             59.6999         -DE/DX =    0.0                 !
 ! D9    D(9,4,5,7)            180.0018         -DE/DX =    0.0                 !
 ! D10   D(9,4,5,8)            -59.6984         -DE/DX =    0.0                 !
 --------------------------------------------------------------------------------
 GradGradGradGradGradGradGradGradGradGradGradGradGradGradGradGradGradGrad

 Leave Link  103 at Thu Apr  2 13:29:38 2026, MaxMem=  2147483648 cpu:               0.1 elap:               0.0
 (Enter /Users/yarger/Applications/g16/l9999.exe)

 ----------------------------------------------------------------------

 Electric dipole moment (input orientation):
 (Debye = 10**-18 statcoulomb cm , SI units = C m)
                  (au)            (Debye)         (10**-30 SI)
   Tot        0.999976D+00      0.254169D+01      0.847815D+01
   x          0.707189D+00      0.179750D+01      0.599580D+01
   y          0.659804D+00      0.167706D+01      0.559405D+01
   z          0.253956D+00      0.645493D+00      0.215313D+01

 Dipole polarizability, Alpha (input orientation).
 (esu units = cm**3 , SI units = C**2 m**2 J**-1)
 Alpha(0;0):
               (au)            (10**-24 esu)      (10**-40 SI)
   iso        0.349496D+02      0.517900D+01      0.576241D+01
   aniso      0.166088D+02      0.246118D+01      0.273843D+01
   xx         0.382530D+02      0.566851D+01      0.630707D+01
   yx         0.674263D+01      0.999154D+00      0.111171D+01
   yy         0.373187D+02      0.553006D+01      0.615302D+01
   zx         0.228126D+01      0.338048D+00      0.376129D+00
   zy         0.411499D+01      0.609779D+00      0.678471D+00
   zz         0.292772D+02      0.433843D+01      0.482715D+01

 First dipole hyperpolarizability, Beta (input orientation).
 ||, _|_  parallel and perpendicular components, (z) with respect to z axis,
 vector components x,y,z.  Values do not include the 1/n! factor of 1/2.
 (esu units = statvolt**-1 cm**4 , SI units = C**3 m**3 J**-2)
 Beta(0;0,0):
               (au)            (10**-30 esu)      (10**-50 SI)
   || (z)     0.226178D+02      0.195400D+00      0.725209D-01
   _|_(z)     0.753927D+01      0.651334D-01      0.241736D-01
   x          0.177835D+03      0.153635D+01      0.570202D+00
   y          0.268355D+03      0.231838D+01      0.860442D+00
   z          0.113089D+03      0.977001D+00      0.362604D+00
   ||         0.682432D+02      0.589568D+00      0.218812D+00
   xxx        0.229343D+02      0.198134D+00      0.735356D-01
   xxy        0.102312D+02      0.883894D-01      0.328049D-01
   yxy        0.141910D+02      0.122599D+00      0.455013D-01
   yyy        0.571776D+02      0.493970D+00      0.183332D+00
   xxz        0.700763D+01      0.605405D-01      0.224690D-01
   yxz       -0.285831D+01     -0.246936D-01     -0.916478D-02
   yyz        0.567676D+00      0.490428D-02      0.182017D-02
   zxz        0.221529D+02      0.191384D+00      0.710303D-01
   zyz        0.220427D+02      0.190432D+00      0.706769D-01
   zzz        0.301210D+02      0.260222D+00      0.965789D-01

 ----------------------------------------------------------------------

 Dipole orientation:
     6          0.96598257         -0.22742431          3.69803664
     1         -0.70969449          0.56288438          4.51272372
     1          2.42751771         -0.91673846          4.92372015
     6          1.23056408         -0.35215297          1.24383623
     6         -0.63692599          0.52867655         -0.70642107
     9         -1.35313467         -1.35701108         -2.17502180
     9         -2.67225515          1.48869095          0.36445123
     9          0.36262929          2.28071800         -2.17497003
     9          3.26780121         -1.31298704          0.14522745

 Electric dipole moment (dipole orientation):
 (Debye = 10**-18 statcoulomb cm , SI units = C m)
                  (au)            (Debye)         (10**-30 SI)
   Tot        0.999976D+00      0.254169D+01      0.847815D+01
   x          0.000000D+00      0.000000D+00      0.000000D+00
   y          0.000000D+00      0.000000D+00      0.000000D+00
   z          0.999976D+00      0.254169D+01      0.847815D+01

 Dipole polarizability, Alpha (dipole orientation).
 (esu units = cm**3 , SI units = C**2 m**2 J**-1)
 Alpha(0;0):
               (au)            (10**-24 esu)      (10**-40 SI)
   iso        0.349496D+02      0.517900D+01      0.576241D+01
   aniso      0.166088D+02      0.246118D+01      0.273843D+01
   xx         0.308439D+02      0.457060D+01      0.508548D+01
   yx        -0.157558D+01     -0.233476D+00     -0.259777D+00
   yy         0.282465D+02      0.418569D+01      0.465721D+01
   zx        -0.360189D+00     -0.533746D-01     -0.593872D-01
   zy         0.169576D+00      0.251286D-01      0.279593D-01
   zz         0.457585D+02      0.678071D+01      0.754455D+01

 First dipole hyperpolarizability, Beta (dipole orientation).
 ||, _|_  parallel and perpendicular components, (z) with respect to z axis,
 vector components x,y,z.  Values do not include the 1/n! factor of 1/2.
 (esu units = statvolt**-1 cm**4 , SI units = C**3 m**3 J**-2)
 Beta(0;0,0):
               (au)            (10**-30 esu)      (10**-50 SI)
   || (z)     0.663104D+02      0.572870D+00      0.212615D+00
   _|_(z)     0.221035D+02      0.190957D+00      0.708717D-01
   x         -0.729327D+02     -0.630082D+00     -0.233849D+00
   y          0.343900D+02      0.297103D+00      0.110267D+00
   z          0.331552D+03      0.286435D+01      0.106307D+01
   ||         0.682432D+02      0.589568D+00      0.218812D+00
   xxx       -0.978021D+01     -0.844934D-01     -0.313589D-01
   xxy        0.122492D+01      0.105824D-01      0.392755D-02
   yxy       -0.337012D+01     -0.291152D-01     -0.108058D-01
   yyy        0.497454D+01      0.429762D-01      0.159502D-01
   xxz        0.220977D+02      0.190907D+00      0.708532D-01
   yxz        0.690488D+01      0.596528D-01      0.221395D-01
   yyz        0.334809D+02      0.289249D+00      0.107352D+00
   zxz       -0.111606D+02     -0.964188D-01     -0.357849D-01
   zyz        0.526386D+01      0.454756D-01      0.168778D-01
   zzz        0.549387D+02      0.474627D+00      0.176153D+00

 ----------------------------------------------------------------------
 1\1\GINC-YARGERMBP2021-2\Freq\RHF\6-31+G(d)\C3H2F4\ROOT\02-Apr-2026\0\
 \#P Geom=AllCheck Guess=TCheck SCRF=Check GenChk RHF/6-31+G(d) Freq\\r
 1234yf - 2,3,3,3-Tetrafluoropropene\\0,1\C,1.7360222847,1.0224278694,0
 .2148844941\H,1.3522222914,1.9098725528,0.6755267955\H,2.7953956165,0.
 9244599019,0.073326479\C,0.9262976874,0.0703260983,-0.1704042018\C,-0.
 5710920274,0.0614004532,-0.0411688059\F,-0.9772065653,-0.9617589717,0.
 6879061916\F,-1.0068472772,1.1677428836,0.5292430657\F,-1.1477142812,-
 0.0429450633,-1.2243455635\F,1.352441271,-1.0463597243,-0.744971456\\V
 ersion=EM64M-G16RevA.03\State=1-A\HF=-512.5201139\RMSD=1.329e-09\RMSF=
 4.158e-06\ZeroPoint=0.0539826\Thermal=0.0599312\Dipole=0.7071894,0.659
 8042,0.2539565\DipoleDeriv=-0.1053364,-0.1327147,-0.0798876,-0.0163427
 ,-0.1920031,0.0466669,-0.0239785,0.0570336,-0.2565448,0.078279,0.04153
 94,0.0278796,0.0242622,0.0722621,-0.0477251,0.0195802,-0.0492615,0.141
 6649,0.0005057,0.0081192,0.0217114,0.0203789,0.1055496,-0.0473139,0.02
 76074,-0.0462172,0.1755658,0.2104829,-0.3381726,-0.186143,0.0665647,1.
 0417471,0.5209136,0.0083335,0.556999,0.2121963,1.9436519,0.3597536,0.1
 665082,0.0017347,1.7420441,-0.0627786,-0.005526,-0.0947033,1.8273343,-
 0.593379,-0.2969547,0.1060934,-0.2014339,-0.7379873,0.2461868,0.131903
 6,0.2925405,-0.5064983,-0.5495304,0.1892185,0.1107788,0.1965361,-0.700
 9386,-0.1973095,0.1142929,-0.1966526,-0.4314241,-0.6654786,-0.1341033,
 -0.3302178,-0.0487159,-0.3447117,-0.0476122,-0.2690943,-0.0778357,-0.8
 276597,-0.319195,0.3033147,0.163277,-0.042984,-0.9859622,-0.411028,-0.
 0031186,-0.4419028,-0.3346344\Polar=38.2530234,6.7426286,37.3186843,2.
 2812593,4.1149922,29.277166\PolarDeriv=2.2860006,4.9013254,5.7775145,3
 .1012901,0.1881294,5.4551675,4.7727307,6.7883514,7.2553666,0.8596028,-
 2.456609,3.5749494,3.0163532,0.7991599,-2.1028287,5.5167824,3.0862461,
 5.379093,0.1371702,1.4332634,-1.3392514,0.5830203,-0.5796775,-0.706782
 ,1.1185207,-0.567099,5.4755466,-0.0473172,2.6105743,1.2845452,0.406975
 3,-0.0750106,2.6774453,-0.7290847,1.3360532,0.8713841,9.4824122,0.6904
 916,0.9183595,-0.4748224,0.2646685,0.2894914,-0.5438503,1.2059806,0.53
 73091,0.4667838,0.504509,0.1076508,-1.0546831,0.3309926,0.6686831,0.53
 62355,-0.1627015,-0.5190633,-4.7411017,-5.0846645,-5.1176373,-2.596458
 ,-0.9488005,-3.3462018,-5.7570111,-6.3355534,-7.7375933,-1.4647163,2.1
 309208,-4.8721961,-2.9656909,-1.2857746,0.7353743,-4.1106265,-2.239820
 1,-5.4178991,-0.1116129,1.3537216,1.0142319,0.7946621,0.9652652,-0.370
 5616,1.640391,1.7632939,0.4391157,-0.2937801,-1.7139759,0.2811854,1.21
 64305,-0.2049957,-1.9881865,2.2089223,0.8786436,1.8583911,-2.3796096,-
 2.0333772,-0.9621641,0.9300518,0.1916286,-0.1207051,-1.6160833,-2.0297
 54,-4.6411238,0.5290725,1.6110345,-0.9202254,0.7764789,0.7751909,1.511
 3627,-1.0134343,-1.8354334,2.118156,-2.1391484,1.5529125,-0.7695852,0.
 8891973,-0.4151656,-0.2502126,0.9728991,-1.523691,3.4444643,-0.5410407
 ,1.1764852,0.6946663,0.5657503,-0.5364624,0.8060574,-0.812303,1.314461
 6,1.3658935,-3.1566496,-0.7844259,-0.4197321,-2.1966753,-0.4308605,-0.
 9721472,-0.5401802,-1.0228196,-0.5783824,-0.245494,-1.3733823,-0.20529
 79,-1.9574598,-0.5656827,-0.7055554,-2.4327116,-0.7360436,-5.1129266,0
 .6225392,-2.029247,0.8982641,-1.030266,0.7648125,0.0219514,-0.0474166,
 1.721291,-4.1947028,0.7368893,-2.4895567,0.0547223,-0.0041544,0.762582
 6,-1.6023521,0.83622,-1.6414059,-0.5430287\HyperPolar=22.9342892,10.23
 11767,14.1909606,57.1776499,7.0076339,-2.8583116,0.5676761,22.1529328,
 22.0427186,30.1210331\Quadrupole=1.4302315,-0.2042107,-1.2260209,2.214
 0636,0.8191132,0.3361112\PG=C01 [X(C3H2F4)]\NImag=0\\0.86072311,0.1381
 6653,0.79588766,0.00190780,0.30395916,0.28354698,-0.11273848,0.1021208
 8,0.05529076,0.10644243,0.09308856,-0.28928747,-0.12665595,-0.10409316
 ,0.29925443,0.05095059,-0.12746078,-0.10876027,-0.05687261,0.13886921,
 0.10136148,-0.38221703,0.02572541,0.04227654,-0.00345469,-0.00052131,0
 .00044495,0.40124518,0.03340322,-0.06803624,-0.01318667,0.02587074,0.0
 0474943,-0.00211190,-0.02911368,0.05598773,0.04596696,-0.01250172,-0.0
 5689949,0.01312622,0.00024178,0.00328850,-0.04719967,0.01562460,0.0405
 9195,-0.36966079,-0.24741813,-0.09163047,0.01480703,0.01331964,0.00526
 421,-0.01819325,-0.03086822,-0.01237987,0.82091734,-0.25968659,-0.3967
 3946,-0.13671994,-0.01722573,-0.01429734,-0.00632809,0.00544155,0.0081
 0473,-0.00106601,0.20367877,0.80898691,-0.09752549,-0.13781414,-0.1215
 3684,-0.00941289,-0.00905142,-0.00144169,0.00506777,0.00217255,0.00990
 423,0.04227778,0.27566396,0.32617769,-0.00300798,-0.00447331,-0.001477
 54,0.00036733,0.00034712,-0.00033857,0.00147568,0.00050323,0.00121217,
 -0.27860063,0.00346951,0.01949738,0.75443245,-0.02437029,0.00780168,0.
 00374860,-0.00123375,-0.00302778,0.00120158,-0.00197370,-0.00263760,-0
 .00703104,-0.01201297,-0.07042249,0.00502937,-0.00599298,0.67604529,-0
 .01103877,0.00197407,0.00645632,-0.00109812,0.00106065,-0.00469197,0.0
 0002252,-0.00725196,0.00887480,0.01205602,0.00364891,-0.07798275,-0.01
 339867,0.01966874,0.64691147,-0.00582885,0.00353964,0.00270326,0.00026
 850,-0.00073010,0.00162432,-0.00101938,0.00033233,-0.00374595,-0.01533
 177,-0.04757693,0.02787915,-0.14224149,-0.07697095,0.05975938,0.121354
 55,-0.00303700,0.00231930,0.00111857,0.00059531,0.00008903,0.00086688,
 -0.00069237,0.00016165,-0.00128354,-0.00903179,-0.02191386,0.01221612,
 -0.07950150,-0.23174725,0.10629760,0.09658448,0.33673945,0.00453105,-0
 .00155091,-0.00062889,-0.00022439,0.00010461,-0.00046019,0.00056245,0.
 00060924,0.00084214,0.00665104,0.01942626,-0.00060427,0.05902134,0.102
 43615,-0.16215021,-0.06622094,-0.17315451,0.21605711,-0.00263972,-0.00
 210797,-0.00076442,-0.00332184,0.00124731,0.00082666,0.00020265,0.0007
 5142,0.00034773,-0.00557418,0.04213403,0.02149165,-0.15166468,0.086505
 21,0.04737825,0.01962893,-0.00767051,-0.00534906,0.13552062,-0.0008725
 2,-0.00124543,-0.00059144,0.00005690,0.00172936,0.00119727,-0.00004893
 ,0.00117947,0.00054531,0.00509047,-0.01902310,-0.01363768,0.09322574,-
 0.25833515,-0.09089894,0.01020347,-0.09124502,-0.00122864,-0.11085240,
 0.38114932,-0.00017069,-0.00048136,-0.00006875,0.00025455,0.00109109,-
 0.00027129,-0.00003681,0.00047403,0.00028449,0.00369371,-0.01694059,-0
 .00005256,0.05060623,-0.09029822,-0.13434736,-0.00663083,0.01800180,0.
 01988018,-0.05702418,0.14818616,0.16959865,-0.00667202,0.00417516,0.00
 221800,0.00003473,0.00090751,-0.00167744,-0.00054052,-0.00295236,0.002
 75966,-0.02414744,-0.01125083,-0.05485621,-0.17273258,-0.00807922,-0.1
 1571404,0.02160733,0.00430904,0.00156939,0.02081367,-0.00250419,0.0052
 4646,0.15981518,0.00116777,0.00070591,-0.00003478,0.00017806,0.0003014
 1,-0.00014812,0.00003285,0.00005089,0.00072557,-0.00299620,0.00573428,
 -0.00690650,-0.01076165,-0.08828545,-0.01948006,0.01345446,-0.00177761
 ,0.05379570,-0.01526195,-0.01622269,-0.05963590,0.01533833,0.09585672,
 -0.00421517,0.00178004,0.00182734,0.00045758,0.00066732,-0.00043867,-0
 .00060681,-0.00099251,0.00047401,-0.01113986,-0.00994338,-0.01943870,-
 0.11748152,-0.01608486,-0.27516366,-0.01394248,0.03481627,-0.07379639,
 -0.01075389,-0.04313524,-0.05633483,0.15844297,0.02889289,0.41853162,0
 .02204175,-0.01972822,-0.01052393,-0.00240501,-0.00356557,-0.00022210,
 0.00250134,0.00207333,-0.00008724,-0.12421632,0.08101622,0.04558085,-0
 .00802811,0.04412864,0.02203343,0.00156217,-0.00155566,-0.00054089,-0.
 01296546,0.00570146,0.00406156,0.00182163,-0.00115167,-0.00076081,0.11
 968801,0.02214031,-0.05140596,-0.03163756,-0.00626925,0.00048894,-0.00
 608605,0.00115018,0.00043993,0.00474505,0.08023842,-0.30042966,-0.1276
 7227,0.00318385,-0.02939124,-0.01501900,0.00116360,0.00737430,-0.00043
 791,0.00525486,0.00201323,-0.00039700,0.00005655,0.00363655,0.00399948
 ,-0.10691853,0.36727391,0.00959372,-0.02790436,-0.00393641,-0.00152109
 ,-0.00632729,0.01141411,-0.00053094,0.00466262,-0.00736063,0.04520745,
 -0.12774111,-0.11502511,0.00235918,-0.01867033,-0.00790665,-0.00142591
 ,0.00112080,0.00086052,0.00384725,-0.00043681,0.00131148,0.00201121,0.
 00279121,0.00433928,-0.05954086,0.17250527,0.11630341\\0.00000133,-0.0
 0000028,0.00000204,-0.00000030,0.00000027,-0.00000005,-0.00000097,-0.0
 0000046,-0.00000128,-0.00000090,-0.00000111,-0.00000331,0.00000087,0.0
 0001070,-0.00000105,-0.00000296,-0.00000963,-0.00000474,-0.00000262,0.
 00000608,-0.00000220,0.00000327,-0.00000398,0.00001102,0.00000227,-0.0
 0000160,-0.00000045\\\@


 REALITY IS FOR PEOPLE WHO CAN'T FACE SCIENCE FICTION.
 Job cpu time:       0 days  0 hours  0 minutes 43.3 seconds.
 Elapsed time:       0 days  0 hours  0 minutes  5.9 seconds.
 File lengths (MBytes):  RWF=     25 Int=      0 D2E=      0 Chk=      3 Scr=      1
 Normal termination of Gaussian 16 at Thu Apr  2 13:29:38 2026.
