 Entering Gaussian System, Link 0=g16
 Input=/Users/yarger/Downloads/2223Tetrafluoropropene_Opt_Freq_DFT_B3LYP_631pd_Gaussian16.gjf
 Output=/Users/yarger/Downloads/2223Tetrafluoropropene_Opt_Freq_DFT_B3LYP_631pd_Gaussian16.log
 Initial command:
 /Users/yarger/Applications/g16/l1.exe "/Users/yarger/Applications/scratch/Gau-79345.inp" -scrdir="/Users/yarger/Applications/scratch/"
 Entering Link 1 = /Users/yarger/Applications/g16/l1.exe PID=     79346.
  
 Copyright (c) 1988,1990,1992,1993,1995,1998,2003,2009,2016,
            Gaussian, Inc.  All Rights Reserved.
  
 This is part of the Gaussian(R) 16 program.  It is based on
 the Gaussian(R) 09 system (copyright 2009, Gaussian, Inc.),
 the Gaussian(R) 03 system (copyright 2003, Gaussian, Inc.),
 the Gaussian(R) 98 system (copyright 1998, Gaussian, Inc.),
 the Gaussian(R) 94 system (copyright 1995, Gaussian, Inc.),
 the Gaussian 92(TM) system (copyright 1992, Gaussian, Inc.),
 the Gaussian 90(TM) system (copyright 1990, Gaussian, Inc.),
 the Gaussian 88(TM) system (copyright 1988, Gaussian, Inc.),
 the Gaussian 86(TM) system (copyright 1986, Carnegie Mellon
 University), and the Gaussian 82(TM) system (copyright 1983,
 Carnegie Mellon University). Gaussian is a federally registered
 trademark of Gaussian, Inc.
  
 This software contains proprietary and confidential information,
 including trade secrets, belonging to Gaussian, Inc.
  
 This software is provided under written license and may be
 used, copied, transmitted, or stored only in accord with that
 written license.
  
 The following legend is applicable only to US Government
 contracts under FAR:
  
                    RESTRICTED RIGHTS LEGEND
  
 Use, reproduction and disclosure by the US Government is
 subject to restrictions as set forth in subparagraphs (a)
 and (c) of the Commercial Computer Software - Restricted
 Rights clause in FAR 52.227-19.
  
 Gaussian, Inc.
 340 Quinnipiac St., Bldg. 40, Wallingford CT 06492
  
  
 ---------------------------------------------------------------
 Warning -- This program may not be used in any manner that
 competes with the business of Gaussian, Inc. or will provide
 assistance to any competitor of Gaussian, Inc.  The licensee
 of this program is prohibited from giving any competitor of
 Gaussian, Inc. access to this program.  By using this program,
 the user acknowledges that Gaussian, Inc. is engaged in the
 business of creating and licensing software in the field of
 computational chemistry and represents and warrants to the
 licensee that it is not a competitor of Gaussian, Inc. and that
 it will not use this program in any manner prohibited above.
 ---------------------------------------------------------------
  

 Cite this work as:
 Gaussian 16, Revision A.03,
 M. J. Frisch, G. W. Trucks, H. B. Schlegel, G. E. Scuseria, 
 M. A. Robb, J. R. Cheeseman, G. Scalmani, V. Barone, 
 G. A. Petersson, H. Nakatsuji, X. Li, M. Caricato, A. V. Marenich, 
 J. Bloino, B. G. Janesko, R. Gomperts, B. Mennucci, H. P. Hratchian, 
 J. V. Ortiz, A. F. Izmaylov, J. L. Sonnenberg, D. Williams-Young, 
 F. Ding, F. Lipparini, F. Egidi, J. Goings, B. Peng, A. Petrone, 
 T. Henderson, D. Ranasinghe, V. G. Zakrzewski, J. Gao, N. Rega, 
 G. Zheng, W. Liang, M. Hada, M. Ehara, K. Toyota, R. Fukuda, 
 J. Hasegawa, M. Ishida, T. Nakajima, Y. Honda, O. Kitao, H. Nakai, 
 T. Vreven, K. Throssell, J. A. Montgomery, Jr., J. E. Peralta, 
 F. Ogliaro, M. J. Bearpark, J. J. Heyd, E. N. Brothers, K. N. Kudin, 
 V. N. Staroverov, T. A. Keith, R. Kobayashi, J. Normand, 
 K. Raghavachari, A. P. Rendell, J. C. Burant, S. S. Iyengar, 
 J. Tomasi, M. Cossi, J. M. Millam, M. Klene, C. Adamo, R. Cammi, 
 J. W. Ochterski, R. L. Martin, K. Morokuma, O. Farkas, 
 J. B. Foresman, and D. J. Fox, Gaussian, Inc., Wallingford CT, 2016.
 
 ******************************************
 Gaussian 16:  EM64M-G16RevA.03 25-Dec-2016
                 2-Apr-2026 
 ******************************************
 %nprocshared=8
 Will use up to    8 processors via shared memory.
 %mem=16GB
 %chk=2223Tetrafluoropropene_Opt_Freq_DFT_B3LYP_631pd_Gaussian16.chk
 ----------------------------------------------------------------------
 #p opt=tight freq=raman b3lyp/6-31+g(d) guess=save geom=connectivity p
 olar
 ----------------------------------------------------------------------
 1/7=10,18=20,19=15,26=3,38=1,57=2/1,3;
 2/9=110,12=2,17=6,18=5,40=1/2;
 3/5=1,6=6,7=11,11=2,25=1,30=1,71=1,74=-5/1,2,3;
 4//1;
 5/5=2,38=5,98=1/2;
 6/7=2,8=2,9=2,10=2,28=1/1;
 7//1,2,3,16;
 1/7=10,18=20,19=15,26=3/3(2);
 2/9=110/2;
 99//99;
 2/9=110/2;
 3/5=1,6=6,7=11,11=2,25=1,30=1,71=1,74=-5/1,2,3;
 4/5=5,16=3,69=1/1;
 5/5=2,38=5,98=1/2;
 7//1,2,3,16;
 1/7=10,18=20,19=15,26=3/3(-5);
 2/9=110/2;
 6/7=2,8=2,9=2,10=2,19=2,28=1/1;
 99/9=1/99;
 Leave Link    1 at Thu Apr  2 13:32:24 2026, MaxMem=  2147483648 cpu:               0.2 elap:               0.0
 (Enter /Users/yarger/Applications/g16/l101.exe)
 ------------------------------------
 r1234yf - 2,3,3,3-Tetrafluoropropene
 ------------------------------------
 Symbolic Z-matrix:
 Charge =  0 Multiplicity = 1
 C                     1.74822   1.06421   0. 
 H                     1.38429   2.08656  0. 
 H                     2.83259   0.99597   0. 
 C                     0.94847   0.00447  0. 
 C                    -0.56314   0.02673   0. 
 F                    -1.16412  -1.16916   0.00001 
 F                    -1.0876    0.66408   1.05937 
 F                    -1.0876    0.66406  -1.05938 
 F                     1.4484   -1.23175   0. 
 
 ITRead=  0  0  0  0  0  0  0  0  0
 MicOpt= -1 -1 -1 -1 -1 -1 -1 -1 -1
 NAtoms=      9 NQM=        9 NQMF=       0 NMMI=      0 NMMIF=      0
                NMic=       0 NMicF=      0.
                    Isotopes and Nuclear Properties:
 (Nuclear quadrupole moments (NQMom) in fm**2, nuclear magnetic moments (NMagM)
  in nuclear magnetons)

  Atom         1           2           3           4           5           6           7           8           9
 IAtWgt=          12           1           1          12          12          19          19          19          19
 AtmWgt=  12.0000000   1.0078250   1.0078250  12.0000000  12.0000000  18.9984033  18.9984033  18.9984033  18.9984033
 NucSpn=           0           1           1           0           0           1           1           1           1
 AtZEff=  -0.0000000  -0.0000000  -0.0000000  -0.0000000  -0.0000000  -0.0000000  -0.0000000  -0.0000000  -0.0000000
 NQMom=    0.0000000   0.0000000   0.0000000   0.0000000   0.0000000   0.0000000   0.0000000   0.0000000   0.0000000
 NMagM=    0.0000000   2.7928460   2.7928460   0.0000000   0.0000000   2.6288670   2.6288670   2.6288670   2.6288670
 AtZNuc=   6.0000000   1.0000000   1.0000000   6.0000000   6.0000000   9.0000000   9.0000000   9.0000000   9.0000000
 Leave Link  101 at Thu Apr  2 13:32:24 2026, MaxMem=  2147483648 cpu:               2.1 elap:               0.3
 (Enter /Users/yarger/Applications/g16/l103.exe)

 GradGradGradGradGradGradGradGradGradGradGradGradGradGradGradGradGradGrad
 Berny optimization.
 Initialization pass.
                           ----------------------------
                           !    Initial Parameters    !
                           ! (Angstroms and Degrees)  !
 --------------------------                            --------------------------
 ! Name  Definition              Value          Derivative Info.                !
 --------------------------------------------------------------------------------
 ! R1    R(1,2)                  1.0852         estimate D2E/DX2                !
 ! R2    R(1,3)                  1.0865         estimate D2E/DX2                !
 ! R3    R(1,4)                  1.3276         estimate D2E/DX2                !
 ! R4    R(4,5)                  1.5118         estimate D2E/DX2                !
 ! R5    R(4,9)                  1.3335         estimate D2E/DX2                !
 ! R6    R(5,6)                  1.3384         estimate D2E/DX2                !
 ! R7    R(5,7)                  1.343          estimate D2E/DX2                !
 ! R8    R(5,8)                  1.343          estimate D2E/DX2                !
 ! A1    A(2,1,3)              113.1955         estimate D2E/DX2                !
 ! A2    A(2,1,4)              123.3649         estimate D2E/DX2                !
 ! A3    A(3,1,4)              123.4395         estimate D2E/DX2                !
 ! A4    A(1,4,5)              126.1968         estimate D2E/DX2                !
 ! A5    A(1,4,9)              120.9413         estimate D2E/DX2                !
 ! A6    A(5,4,9)              112.8619         estimate D2E/DX2                !
 ! A7    A(4,5,6)              115.8373         estimate D2E/DX2                !
 ! A8    A(4,5,7)              113.42           estimate D2E/DX2                !
 ! A9    A(4,5,8)              113.42           estimate D2E/DX2                !
 ! A10   A(6,5,7)              104.4002         estimate D2E/DX2                !
 ! A11   A(6,5,8)              104.4002         estimate D2E/DX2                !
 ! A12   A(7,5,8)              104.1543         estimate D2E/DX2                !
 ! D1    D(2,1,4,5)             -0.0002         estimate D2E/DX2                !
 ! D2    D(2,1,4,9)            179.9999         estimate D2E/DX2                !
 ! D3    D(3,1,4,5)            179.9999         estimate D2E/DX2                !
 ! D4    D(3,1,4,9)              0.0001         estimate D2E/DX2                !
 ! D5    D(1,4,5,6)           -179.9996         estimate D2E/DX2                !
 ! D6    D(1,4,5,7)            -59.2781         estimate D2E/DX2                !
 ! D7    D(1,4,5,8)             59.279          estimate D2E/DX2                !
 ! D8    D(9,4,5,6)              0.0003         estimate D2E/DX2                !
 ! D9    D(9,4,5,7)            120.7218         estimate D2E/DX2                !
 ! D10   D(9,4,5,8)           -120.7211         estimate D2E/DX2                !
 --------------------------------------------------------------------------------
 Trust Radius=3.00D-01 FncErr=1.00D-07 GrdErr=1.00D-06 EigMax=2.50D+02 EigMin=1.00D-04
 Number of steps in this run=     40 maximum allowed number of steps=    100.
 GradGradGradGradGradGradGradGradGradGradGradGradGradGradGradGradGradGrad

 Leave Link  103 at Thu Apr  2 13:32:24 2026, MaxMem=  2147483648 cpu:               0.1 elap:               0.0
 (Enter /Users/yarger/Applications/g16/l202.exe)
                          Input orientation:                          
 ---------------------------------------------------------------------
 Center     Atomic      Atomic             Coordinates (Angstroms)
 Number     Number       Type             X           Y           Z
 ---------------------------------------------------------------------
      1          6           0        1.748220    1.064211    0.000000
      2          1           0        1.384286    2.086562   -0.000002
      3          1           0        2.832592    0.995970    0.000000
      4          6           0        0.948473    0.004470   -0.000001
      5          6           0       -0.563141    0.026730    0.000000
      6          9           0       -1.164115   -1.169164    0.000008
      7          9           0       -1.087595    0.664077    1.059373
      8          9           0       -1.087597    0.664063   -1.059381
      9          9           0        1.448396   -1.231753    0.000000
 ---------------------------------------------------------------------
                    Distance matrix (angstroms):
                    1          2          3          4          5
     1  C    0.000000
     2  H    1.085196   0.000000
     3  H    1.086517   1.813003   0.000000
     4  C    1.327647   2.127214   2.129079   0.000000
     5  C    2.533526   2.834675   3.531349   1.511778   0.000000
     6  F    3.670103   4.134501   4.545489   2.416701   1.338407
     7  F    3.053559   3.042357   4.074345   2.388080   1.342957
     8  F    3.053566   3.042366   4.074351   2.388081   1.342958
     9  F    2.315458   3.318934   2.622737   1.333481   2.372775
                    6          7          8          9
     6  F    0.000000
     7  F    2.118698   0.000000
     8  F    2.118698   2.118754   0.000000
     9  F    2.613261   3.338816   3.338812   0.000000
 Stoichiometry    C3H2F4
 Framework group  C1[X(C3H2F4)]
 Deg. of freedom    21
 Full point group                 C1      NOp   1
 Largest Abelian subgroup         C1      NOp   1
 Largest concise Abelian subgroup C1      NOp   1
                         Standard orientation:                         
 ---------------------------------------------------------------------
 Center     Atomic      Atomic             Coordinates (Angstroms)
 Number     Number       Type             X           Y           Z
 ---------------------------------------------------------------------
      1          6           0        1.748220   -1.064211   -0.000000
      2          1           0        1.384286   -2.086562    0.000002
      3          1           0        2.832592   -0.995970   -0.000000
      4          6           0        0.948473   -0.004470    0.000001
      5          6           0       -0.563141   -0.026730   -0.000000
      6          9           0       -1.164115    1.169164   -0.000008
      7          9           0       -1.087595   -0.664077   -1.059373
      8          9           0       -1.087597   -0.664063    1.059381
      9          9           0        1.448396    1.231753   -0.000000
 ---------------------------------------------------------------------
 Rotational constants (GHZ):           3.8200226           2.3517624           1.9296269
 Leave Link  202 at Thu Apr  2 13:32:24 2026, MaxMem=  2147483648 cpu:               0.0 elap:               0.0
 (Enter /Users/yarger/Applications/g16/l301.exe)
 Standard basis: 6-31+G(d) (6D, 7F)
 Ernie: Thresh=  0.10000D-02 Tol=  0.10000D-05 Strict=F.
 There are   137 symmetry adapted cartesian basis functions of A   symmetry.
 There are   137 symmetry adapted basis functions of A   symmetry.
   137 basis functions,   232 primitive gaussians,   137 cartesian basis functions
    28 alpha electrons       28 beta electrons
       nuclear repulsion energy       331.2808356383 Hartrees.
 IExCor=  402 DFT=T Ex+Corr=B3LYP ExCW=0 ScaHFX=  0.200000
 ScaDFX=  0.800000  0.720000  1.000000  0.810000 ScalE2=  1.000000  1.000000
 IRadAn=      5 IRanWt=     -1 IRanGd=            0 ICorTp=0 IEmpDi=  4
 NAtoms=    9 NActive=    9 NUniq=    9 SFac= 1.00D+00 NAtFMM=   60 NAOKFM=F Big=F
 Integral buffers will be    131072 words long.
 Raffenetti 2 integral format.
 Two-electron integral symmetry is turned on.
 Leave Link  301 at Thu Apr  2 13:32:25 2026, MaxMem=  2147483648 cpu:               0.2 elap:               0.0
 (Enter /Users/yarger/Applications/g16/l302.exe)
 NPDir=0 NMtPBC=     1 NCelOv=     1 NCel=       1 NClECP=     1 NCelD=      1
         NCelK=      1 NCelE2=     1 NClLst=     1 CellRange=     0.0.
 One-electron integrals computed using PRISM.
 One-electron integral symmetry used in STVInt
 NBasis=   137 RedAO= T EigKep=  6.52D-05  NBF=   137
 NBsUse=   137 1.00D-06 EigRej= -1.00D+00 NBFU=   137
 Precomputing XC quadrature grid using
 IXCGrd= 4 IRadAn=           5 IRanWt=          -1 IRanGd=           0 AccXCQ= 0.00D+00.
 Generated NRdTot=       0 NPtTot=           0 NUsed=           0 NTot=          32
 NSgBfM=   137   137   137   137   137 MxSgAt=     9 MxSgA2=     9.
 Leave Link  302 at Thu Apr  2 13:32:25 2026, MaxMem=  2147483648 cpu:               0.9 elap:               0.2
 (Enter /Users/yarger/Applications/g16/l303.exe)
 DipDrv:  MaxL=1.
 Leave Link  303 at Thu Apr  2 13:32:25 2026, MaxMem=  2147483648 cpu:               0.1 elap:               0.0
 (Enter /Users/yarger/Applications/g16/l401.exe)
 ExpMin= 4.38D-02 ExpMax= 7.00D+03 ExpMxC= 1.05D+03 IAcc=3 IRadAn=         5 AccDes= 0.00D+00
 Harris functional with IExCor=  402 and IRadAn=       5 diagonalized for initial guess.
 HarFok:  IExCor=  402 AccDes= 0.00D+00 IRadAn=         5 IDoV= 1 UseB2=F ITyADJ=14
 ICtDFT=  3500011 ScaDFX=  1.000000  1.000000  1.000000  1.000000
 FoFCou: FMM=F IPFlag=           0 FMFlag=      100000 FMFlg1=           0
         NFxFlg=           0 DoJE=T BraDBF=F KetDBF=T FulRan=T
         wScrn=  0.000000 ICntrl=       500 IOpCl=  0 I1Cent=   200000004 NGrid=           0
         NMat0=    1 NMatS0=      1 NMatT0=    0 NMatD0=    1 NMtDS0=    0 NMtDT0=    0
 Petite list used in FoFCou.
 Harris En= -514.862887078323    
 JPrj=0 DoOrth=F DoCkMO=F.
 Leave Link  401 at Thu Apr  2 13:32:25 2026, MaxMem=  2147483648 cpu:               2.3 elap:               0.3
 (Enter /Users/yarger/Applications/g16/l502.exe)
 Keep R1 ints in memory in canonical form, NReq=52385408.
 FoFCou: FMM=F IPFlag=           0 FMFlag=           0 FMFlg1=           0
         NFxFlg=           0 DoJE=F BraDBF=F KetDBF=F FulRan=T
         wScrn=  0.000000 ICntrl=       600 IOpCl=  0 I1Cent=           0 NGrid=           0
         NMat0=    1 NMatS0=   9453 NMatT0=    0 NMatD0=    1 NMtDS0=    0 NMtDT0=    0
 Symmetry not used in FoFCou.
 Two-electron integral symmetry not used.
 Closed shell SCF:
 Using DIIS extrapolation, IDIIS=  1040.
 NGot=  2147483648 LenX=  2102759234 LenY=  2102740024
 Requested convergence on RMS density matrix=1.00D-08 within 128 cycles.
 Requested convergence on MAX density matrix=1.00D-06.
 Requested convergence on             energy=1.00D-06.
 No special actions if energy rises.

 Cycle   1  Pass 1  IDiag  1:
 E= -514.741014472585    
 DIIS: error= 2.77D-02 at cycle   1 NSaved=   1.
 NSaved= 1 IEnMin= 1 EnMin= -514.741014472585     IErMin= 1 ErrMin= 2.77D-02
 ErrMax= 2.77D-02  0.00D+00 EMaxC= 1.00D-01 BMatC= 1.74D-01 BMatP= 1.74D-01
 IDIUse=3 WtCom= 7.23D-01 WtEn= 2.77D-01
 Coeff-Com:  0.100D+01
 Coeff-En:   0.100D+01
 Coeff:      0.100D+01
 Gap=     0.195 Goal=   None    Shift=    0.000
 GapD=    0.195 DampG=1.000 DampE=0.500 DampFc=0.5000 IDamp=-1.
 Damping current iteration by 5.00D-01
 RMSDP=6.26D-03 MaxDP=2.12D-01              OVMax= 3.81D-01

 Cycle   2  Pass 1  IDiag  1:
 E= -514.776273160464     Delta-E=       -0.035258687879 Rises=F Damp=T
 DIIS: error= 9.85D-03 at cycle   2 NSaved=   2.
 NSaved= 2 IEnMin= 2 EnMin= -514.776273160464     IErMin= 2 ErrMin= 9.85D-03
 ErrMax= 9.85D-03  0.00D+00 EMaxC= 1.00D-01 BMatC= 2.15D-02 BMatP= 1.74D-01
 IDIUse=3 WtCom= 9.01D-01 WtEn= 9.85D-02
 Coeff-Com:  0.217D+00 0.783D+00
 Coeff-En:   0.376D+00 0.624D+00
 Coeff:      0.233D+00 0.767D+00
 Gap=     0.227 Goal=   None    Shift=    0.000
 RMSDP=1.76D-03 MaxDP=5.63D-02 DE=-3.53D-02 OVMax= 2.84D-01

 Cycle   3  Pass 1  IDiag  1:
 E= -514.876859569123     Delta-E=       -0.100586408659 Rises=F Damp=F
 DIIS: error= 4.76D-03 at cycle   3 NSaved=   3.
 NSaved= 3 IEnMin= 3 EnMin= -514.876859569123     IErMin= 3 ErrMin= 4.76D-03
 ErrMax= 4.76D-03  0.00D+00 EMaxC= 1.00D-01 BMatC= 5.23D-03 BMatP= 2.15D-02
 IDIUse=3 WtCom= 9.52D-01 WtEn= 4.76D-02
 Coeff-Com:  0.579D-01 0.342D+00 0.600D+00
 Coeff-En:   0.000D+00 0.000D+00 0.100D+01
 Coeff:      0.552D-01 0.326D+00 0.619D+00
 Gap=     0.255 Goal=   None    Shift=    0.000
 RMSDP=7.75D-04 MaxDP=3.04D-02 DE=-1.01D-01 OVMax= 4.96D-02

 Cycle   4  Pass 1  IDiag  1:
 E= -514.881233080594     Delta-E=       -0.004373511471 Rises=F Damp=F
 DIIS: error= 2.41D-03 at cycle   4 NSaved=   4.
 NSaved= 4 IEnMin= 4 EnMin= -514.881233080594     IErMin= 4 ErrMin= 2.41D-03
 ErrMax= 2.41D-03  0.00D+00 EMaxC= 1.00D-01 BMatC= 9.23D-04 BMatP= 5.23D-03
 IDIUse=3 WtCom= 9.76D-01 WtEn= 2.41D-02
 Coeff-Com: -0.295D-03 0.489D-01 0.312D+00 0.639D+00
 Coeff-En:   0.000D+00 0.000D+00 0.127D+00 0.873D+00
 Coeff:     -0.288D-03 0.477D-01 0.308D+00 0.645D+00
 Gap=     0.255 Goal=   None    Shift=    0.000
 RMSDP=2.62D-04 MaxDP=8.80D-03 DE=-4.37D-03 OVMax= 1.60D-02

 Cycle   5  Pass 1  IDiag  1:
 E= -514.882010893910     Delta-E=       -0.000777813316 Rises=F Damp=F
 DIIS: error= 6.72D-04 at cycle   5 NSaved=   5.
 NSaved= 5 IEnMin= 5 EnMin= -514.882010893910     IErMin= 5 ErrMin= 6.72D-04
 ErrMax= 6.72D-04  0.00D+00 EMaxC= 1.00D-01 BMatC= 8.95D-05 BMatP= 9.23D-04
 IDIUse=3 WtCom= 9.93D-01 WtEn= 6.72D-03
 Coeff-Com: -0.248D-02 0.105D-01 0.135D+00 0.351D+00 0.506D+00
 Coeff-En:   0.000D+00 0.000D+00 0.000D+00 0.000D+00 0.100D+01
 Coeff:     -0.246D-02 0.104D-01 0.134D+00 0.349D+00 0.509D+00
 Gap=     0.255 Goal=   None    Shift=    0.000
 RMSDP=6.95D-05 MaxDP=2.54D-03 DE=-7.78D-04 OVMax= 4.44D-03

 Cycle   6  Pass 1  IDiag  1:
 E= -514.882082779153     Delta-E=       -0.000071885243 Rises=F Damp=F
 DIIS: error= 1.70D-04 at cycle   6 NSaved=   6.
 NSaved= 6 IEnMin= 6 EnMin= -514.882082779153     IErMin= 6 ErrMin= 1.70D-04
 ErrMax= 1.70D-04  0.00D+00 EMaxC= 1.00D-01 BMatC= 6.41D-06 BMatP= 8.95D-05
 IDIUse=3 WtCom= 9.98D-01 WtEn= 1.70D-03
 Coeff-Com: -0.108D-02-0.882D-04 0.380D-01 0.110D+00 0.266D+00 0.587D+00
 Coeff-En:   0.000D+00 0.000D+00 0.000D+00 0.000D+00 0.000D+00 0.100D+01
 Coeff:     -0.108D-02-0.880D-04 0.379D-01 0.110D+00 0.266D+00 0.588D+00
 Gap=     0.255 Goal=   None    Shift=    0.000
 RMSDP=1.79D-05 MaxDP=4.57D-04 DE=-7.19D-05 OVMax= 7.22D-04

 Cycle   7  Pass 1  IDiag  1:
 E= -514.882087691789     Delta-E=       -0.000004912636 Rises=F Damp=F
 DIIS: error= 2.97D-05 at cycle   7 NSaved=   7.
 NSaved= 7 IEnMin= 7 EnMin= -514.882087691789     IErMin= 7 ErrMin= 2.97D-05
 ErrMax= 2.97D-05  0.00D+00 EMaxC= 1.00D-01 BMatC= 2.32D-07 BMatP= 6.41D-06
 IDIUse=1 WtCom= 1.00D+00 WtEn= 0.00D+00
 Coeff-Com: -0.333D-03-0.984D-03 0.103D-01 0.318D-01 0.103D+00 0.252D+00
 Coeff-Com:  0.604D+00
 Coeff:     -0.333D-03-0.984D-03 0.103D-01 0.318D-01 0.103D+00 0.252D+00
 Coeff:      0.604D+00
 Gap=     0.255 Goal=   None    Shift=    0.000
 RMSDP=3.13D-06 MaxDP=7.54D-05 DE=-4.91D-06 OVMax= 9.04D-05

 Cycle   8  Pass 1  IDiag  1:
 E= -514.882087861160     Delta-E=       -0.000000169371 Rises=F Damp=F
 DIIS: error= 1.55D-05 at cycle   8 NSaved=   8.
 NSaved= 8 IEnMin= 8 EnMin= -514.882087861160     IErMin= 8 ErrMin= 1.55D-05
 ErrMax= 1.55D-05  0.00D+00 EMaxC= 1.00D-01 BMatC= 2.25D-08 BMatP= 2.32D-07
 IDIUse=1 WtCom= 1.00D+00 WtEn= 0.00D+00
 Coeff-Com: -0.253D-04-0.447D-03 0.145D-02 0.429D-02 0.229D-01 0.490D-01
 Coeff-Com:  0.253D+00 0.670D+00
 Coeff:     -0.253D-04-0.447D-03 0.145D-02 0.429D-02 0.229D-01 0.490D-01
 Coeff:      0.253D+00 0.670D+00
 Gap=     0.255 Goal=   None    Shift=    0.000
 RMSDP=1.10D-06 MaxDP=2.98D-05 DE=-1.69D-07 OVMax= 3.22D-05

 Cycle   9  Pass 1  IDiag  1:
 E= -514.882087872224     Delta-E=       -0.000000011063 Rises=F Damp=F
 DIIS: error= 4.09D-06 at cycle   9 NSaved=   9.
 NSaved= 9 IEnMin= 9 EnMin= -514.882087872224     IErMin= 9 ErrMin= 4.09D-06
 ErrMax= 4.09D-06  0.00D+00 EMaxC= 1.00D-01 BMatC= 4.72D-09 BMatP= 2.25D-08
 IDIUse=1 WtCom= 1.00D+00 WtEn= 0.00D+00
 Coeff-Com:  0.503D-04-0.113D-03-0.517D-03-0.201D-02-0.131D-02-0.964D-02
 Coeff-Com:  0.493D-01 0.368D+00 0.597D+00
 Coeff:      0.503D-04-0.113D-03-0.517D-03-0.201D-02-0.131D-02-0.964D-02
 Coeff:      0.493D-01 0.368D+00 0.597D+00
 Gap=     0.255 Goal=   None    Shift=    0.000
 RMSDP=4.42D-07 MaxDP=9.60D-06 DE=-1.11D-08 OVMax= 1.86D-05

 Cycle  10  Pass 1  IDiag  1:
 E= -514.882087875971     Delta-E=       -0.000000003747 Rises=F Damp=F
 DIIS: error= 4.59D-07 at cycle  10 NSaved=  10.
 NSaved=10 IEnMin=10 EnMin= -514.882087875971     IErMin=10 ErrMin= 4.59D-07
 ErrMax= 4.59D-07  0.00D+00 EMaxC= 1.00D-01 BMatC= 5.47D-11 BMatP= 4.72D-09
 IDIUse=1 WtCom= 1.00D+00 WtEn= 0.00D+00
 Coeff-Com:  0.175D-04-0.276D-04-0.160D-03-0.673D-03-0.940D-03-0.419D-02
 Coeff-Com:  0.551D-02 0.844D-01 0.157D+00 0.759D+00
 Coeff:      0.175D-04-0.276D-04-0.160D-03-0.673D-03-0.940D-03-0.419D-02
 Coeff:      0.551D-02 0.844D-01 0.157D+00 0.759D+00
 Gap=     0.255 Goal=   None    Shift=    0.000
 RMSDP=7.43D-08 MaxDP=1.59D-06 DE=-3.75D-09 OVMax= 1.23D-06

 Cycle  11  Pass 1  IDiag  1:
 E= -514.882087876007     Delta-E=       -0.000000000037 Rises=F Damp=F
 DIIS: error= 2.01D-07 at cycle  11 NSaved=  11.
 NSaved=11 IEnMin=11 EnMin= -514.882087876007     IErMin=11 ErrMin= 2.01D-07
 ErrMax= 2.01D-07  0.00D+00 EMaxC= 1.00D-01 BMatC= 7.72D-12 BMatP= 5.47D-11
 IDIUse=1 WtCom= 1.00D+00 WtEn= 0.00D+00
 Coeff-Com:  0.644D-05-0.870D-05-0.431D-04-0.214D-03-0.358D-03-0.145D-02
 Coeff-Com:  0.205D-03 0.218D-01 0.425D-01 0.349D+00 0.589D+00
 Coeff:      0.644D-05-0.870D-05-0.431D-04-0.214D-03-0.358D-03-0.145D-02
 Coeff:      0.205D-03 0.218D-01 0.425D-01 0.349D+00 0.589D+00
 Gap=     0.255 Goal=   None    Shift=    0.000
 RMSDP=1.89D-08 MaxDP=5.32D-07 DE=-3.66D-11 OVMax= 4.97D-07

 Cycle  12  Pass 1  IDiag  1:
 E= -514.882087876015     Delta-E=       -0.000000000008 Rises=F Damp=F
 DIIS: error= 8.58D-08 at cycle  12 NSaved=  12.
 NSaved=12 IEnMin=12 EnMin= -514.882087876015     IErMin=12 ErrMin= 8.58D-08
 ErrMax= 8.58D-08  0.00D+00 EMaxC= 1.00D-01 BMatC= 1.45D-12 BMatP= 7.72D-12
 IDIUse=1 WtCom= 1.00D+00 WtEn= 0.00D+00
 Coeff-Com:  0.672D-06-0.229D-06 0.680D-05 0.383D-05-0.215D-04-0.857D-05
 Coeff-Com: -0.868D-03-0.349D-02-0.675D-02 0.485D-01 0.334D+00 0.629D+00
 Coeff:      0.672D-06-0.229D-06 0.680D-05 0.383D-05-0.215D-04-0.857D-05
 Coeff:     -0.868D-03-0.349D-02-0.675D-02 0.485D-01 0.334D+00 0.629D+00
 Gap=     0.255 Goal=   None    Shift=    0.000
 RMSDP=7.41D-09 MaxDP=1.57D-07 DE=-7.50D-12 OVMax= 1.52D-07

 SCF Done:  E(RB3LYP) =  -514.882087876     A.U. after   12 cycles
            NFock= 12  Conv=0.74D-08     -V/T= 2.0077
 KE= 5.109399578370D+02 PE=-1.880663562925D+03 EE= 5.235606815740D+02
 Leave Link  502 at Thu Apr  2 13:32:28 2026, MaxMem=  2147483648 cpu:              23.4 elap:               3.3
 (Enter /Users/yarger/Applications/g16/l601.exe)
 Copying SCF densities to generalized density rwf, IOpCl= 0 IROHF=0.

 **********************************************************************

            Population analysis using the SCF density.

 **********************************************************************

 Orbital symmetries:
       Occupied  (A) (A) (A) (A) (A) (A) (A) (A) (A) (A) (A) (A)
                 (A) (A) (A) (A) (A) (A) (A) (A) (A) (A) (A) (A)
                 (A) (A) (A) (A)
       Virtual   (A) (A) (A) (A) (A) (A) (A) (A) (A) (A) (A) (A)
                 (A) (A) (A) (A) (A) (A) (A) (A) (A) (A) (A) (A)
                 (A) (A) (A) (A) (A) (A) (A) (A) (A) (A) (A) (A)
                 (A) (A) (A) (A) (A) (A) (A) (A) (A) (A) (A) (A)
                 (A) (A) (A) (A) (A) (A) (A) (A) (A) (A) (A) (A)
                 (A) (A) (A) (A) (A) (A) (A) (A) (A) (A) (A) (A)
                 (A) (A) (A) (A) (A) (A) (A) (A) (A) (A) (A) (A)
                 (A) (A) (A) (A) (A) (A) (A) (A) (A) (A) (A) (A)
                 (A) (A) (A) (A) (A) (A) (A) (A) (A) (A) (A) (A)
                 (A)
 The electronic state is 1-A.
 Alpha  occ. eigenvalues --  -24.76194 -24.76078 -24.75806 -24.75805 -10.47039
 Alpha  occ. eigenvalues --  -10.32854 -10.23705  -1.34599  -1.27515  -1.24706
 Alpha  occ. eigenvalues --   -1.24566  -0.83802  -0.74356  -0.66409  -0.61971
 Alpha  occ. eigenvalues --   -0.61489  -0.60189  -0.53541  -0.50684  -0.49211
 Alpha  occ. eigenvalues --   -0.49008  -0.48603  -0.45188  -0.44457  -0.43401
 Alpha  occ. eigenvalues --   -0.42500  -0.40985  -0.30797
 Alpha virt. eigenvalues --   -0.05295   0.00088   0.01673   0.03683   0.04577
 Alpha virt. eigenvalues --    0.04940   0.06454   0.09244   0.09380   0.09828
 Alpha virt. eigenvalues --    0.10185   0.11974   0.12663   0.15294   0.17372
 Alpha virt. eigenvalues --    0.18287   0.18862   0.22390   0.23298   0.24613
 Alpha virt. eigenvalues --    0.26767   0.27571   0.29234   0.30045   0.30795
 Alpha virt. eigenvalues --    0.32127   0.34304   0.34398   0.34988   0.36207
 Alpha virt. eigenvalues --    0.36423   0.38112   0.39984   0.40813   0.41857
 Alpha virt. eigenvalues --    0.42014   0.49821   0.62782   0.66500   0.72154
 Alpha virt. eigenvalues --    0.72354   0.73579   0.77119   0.79373   0.82321
 Alpha virt. eigenvalues --    0.90903   0.98996   1.01093   1.12464   1.12651
 Alpha virt. eigenvalues --    1.18789   1.31587   1.35640   1.39199   1.49184
 Alpha virt. eigenvalues --    1.50860   1.53155   1.56909   1.57772   1.59481
 Alpha virt. eigenvalues --    1.60788   1.62752   1.63517   1.64866   1.65352
 Alpha virt. eigenvalues --    1.65670   1.69497   1.70530   1.70587   1.79970
 Alpha virt. eigenvalues --    1.80158   1.81859   1.84369   1.84535   1.84689
 Alpha virt. eigenvalues --    1.85120   1.89448   1.93141   1.94993   2.01461
 Alpha virt. eigenvalues --    2.08731   2.09514   2.10340   2.11216   2.13153
 Alpha virt. eigenvalues --    2.14439   2.15283   2.23473   2.28540   2.38702
 Alpha virt. eigenvalues --    2.39218   2.45093   2.52844   2.64777   2.72167
 Alpha virt. eigenvalues --    2.72658   2.93943   3.03337   3.14397   3.17856
 Alpha virt. eigenvalues --    3.19586   3.29929   4.16315   4.34767   4.62189
 Alpha virt. eigenvalues --    5.45496   5.46924   6.00614   6.60541
          Condensed to atoms (all electrons):
               1          2          3          4          5          6
     1  C    5.593736   0.343945   0.360416   0.413708  -0.159923   0.041869
     2  H    0.343945   0.453203  -0.027165  -0.029595   0.025056   0.000073
     3  H    0.360416  -0.027165   0.456450  -0.026867   0.012153  -0.000300
     4  C    0.413708  -0.029595  -0.026867   4.862528   0.353150  -0.088186
     5  C   -0.159923   0.025056   0.012153   0.353150   4.523670   0.168728
     6  F    0.041869   0.000073  -0.000300  -0.088186   0.168728   9.289255
     7  F    0.004711   0.000385  -0.000028  -0.074888   0.186479  -0.048758
     8  F    0.004710   0.000385  -0.000028  -0.074888   0.186479  -0.048758
     9  F   -0.127256   0.005198  -0.003335   0.209586  -0.069669   0.001663
               7          8          9
     1  C    0.004711   0.004710  -0.127256
     2  H    0.000385   0.000385   0.005198
     3  H   -0.000028  -0.000028  -0.003335
     4  C   -0.074888  -0.074888   0.209586
     5  C    0.186479   0.186479  -0.069669
     6  F   -0.048758  -0.048758   0.001663
     7  F    9.279544  -0.054698   0.002958
     8  F   -0.054698   9.279544   0.002958
     9  F    0.002958   0.002958   9.281527
 Mulliken charges:
               1
     1  C   -0.475916
     2  H    0.228513
     3  H    0.228703
     4  C    0.455451
     5  C    0.773876
     6  F   -0.315587
     7  F   -0.295706
     8  F   -0.295706
     9  F   -0.303630
 Sum of Mulliken charges =  -0.00000
 Mulliken charges with hydrogens summed into heavy atoms:
               1
     1  C   -0.018699
     4  C    0.455451
     5  C    0.773876
     6  F   -0.315587
     7  F   -0.295706
     8  F   -0.295706
     9  F   -0.303630
 Electronic spatial extent (au):  <R**2>=            634.7566
 Charge=             -0.0000 electrons
 Dipole moment (field-independent basis, Debye):
    X=              2.0872    Y=             -1.5000    Z=             -0.0000  Tot=              2.5703
 Quadrupole moment (field-independent basis, Debye-Ang):
   XX=            -36.1608   YY=            -37.5224   ZZ=            -39.4888
   XY=             -3.2909   XZ=              0.0000   YZ=             -0.0000
 Traceless Quadrupole moment (field-independent basis, Debye-Ang):
   XX=              1.5632   YY=              0.2016   ZZ=             -1.7648
   XY=             -3.2909   XZ=              0.0000   YZ=             -0.0000
 Octapole moment (field-independent basis, Debye-Ang**2):
  XXX=             -2.6849  YYY=              0.8951  ZZZ=             -0.0000  XYY=             -1.4232
  XXY=             -3.6144  XXZ=             -0.0000  XZZ=             -4.6689  YZZ=              5.4171
  YYZ=              0.0000  XYZ=             -0.0000
 Hexadecapole moment (field-independent basis, Debye-Ang**3):
 XXXX=           -347.0187 YYYY=           -190.4788 ZZZZ=           -101.4193 XXXY=             -1.7039
 XXXZ=              0.0000 YYYX=              5.4438 YYYZ=             -0.0000 ZZZX=              0.0000
 ZZZY=              0.0000 XXYY=            -94.8101 XXZZ=            -84.5696 YYZZ=            -51.9013
 XXYZ=             -0.0000 YYXZ=              0.0000 ZZXY=              5.7302
 N-N= 3.312808356383D+02 E-N=-1.880663558294D+03  KE= 5.109399578370D+02
 No NMR shielding tensors so no spin-rotation constants.
 Leave Link  601 at Thu Apr  2 13:32:29 2026, MaxMem=  2147483648 cpu:               0.5 elap:               0.1
 (Enter /Users/yarger/Applications/g16/l701.exe)
 ... and contract with generalized density number  0.
 Compute integral first derivatives.
 Leave Link  701 at Thu Apr  2 13:32:29 2026, MaxMem=  2147483648 cpu:               0.5 elap:               0.1
 (Enter /Users/yarger/Applications/g16/l702.exe)
 L702 exits ... SP integral derivatives will be done elsewhere.
 Leave Link  702 at Thu Apr  2 13:32:29 2026, MaxMem=  2147483648 cpu:               0.1 elap:               0.0
 (Enter /Users/yarger/Applications/g16/l703.exe)
 Integral derivatives from FoFJK, PRISM(SPDF).
 Compute integral first derivatives, UseDBF=F ICtDFT=           0.
 Calling FoFJK, ICntrl=      2127 FMM=F ISym2X=0 I1Cent= 0 IOpClX= 0 NMat=1 NMatS=1 NMatT=0.
 FoFJK:  IHMeth= 1 ICntrl=    2127 DoSepK=F KAlg= 0 I1Cent=           0 FoldK=F
 IRaf=         0 NMat=       1 IRICut=       1 DoRegI=T DoRafI=F ISym2E= 0 IDoP0=0 IntGTp=1.
 FoFCou: FMM=F IPFlag=           0 FMFlag=      100000 FMFlg1=         800
         NFxFlg=           0 DoJE=F BraDBF=F KetDBF=F FulRan=T
         wScrn=  0.000000 ICntrl=      2127 IOpCl=  0 I1Cent=           0 NGrid=           0
         NMat0=    1 NMatS0=      1 NMatT0=    0 NMatD0=    1 NMtDS0=    0 NMtDT0=    0
 Symmetry not used in FoFCou.
 Leave Link  703 at Thu Apr  2 13:32:30 2026, MaxMem=  2147483648 cpu:               6.4 elap:               0.9
 (Enter /Users/yarger/Applications/g16/l716.exe)
 Dipole        = 8.21179591D-01-5.90138176D-01-1.85922771D-07
 ***** Axes restored to original set *****
 -------------------------------------------------------------------
 Center     Atomic                   Forces (Hartrees/Bohr)
 Number     Number              X              Y              Z
 -------------------------------------------------------------------
      1        6           0.001371993    0.009720775   -0.000000217
      2        1          -0.007425285   -0.002661157    0.000000094
      3        1          -0.001434382   -0.007915788    0.000000019
      4        6           0.004242224    0.009034866    0.000000262
      5        6          -0.028390287    0.001755533   -0.000000245
      6        9           0.013508199   -0.019752688    0.000000170
      7        9           0.007790979    0.011922278    0.019049058
      8        9           0.007791031    0.011921957   -0.019049093
      9        9           0.002545529   -0.014025777   -0.000000047
 -------------------------------------------------------------------
 Cartesian Forces:  Max     0.028390287 RMS     0.010609701
 Leave Link  716 at Thu Apr  2 13:32:30 2026, MaxMem=  2147483648 cpu:               0.1 elap:               0.0
 (Enter /Users/yarger/Applications/g16/l103.exe)

 GradGradGradGradGradGradGradGradGradGradGradGradGradGradGradGradGradGrad
 Berny optimization.
 FormGI is forming the generalized inverse of G from B-inverse, IUseBI=4.
 Internal  Forces:  Max     0.025477335 RMS     0.011358857
 Search for a local minimum.
 Step number   1 out of a maximum of   40
 All quantities printed in internal units (Hartrees-Bohrs-Radians)
 RMS Force = .11359D-01 SwitMx=.10000D-02 MixMth= 1
 Mixed Optimization -- RFO/linear search
 Second derivative matrix not updated -- first step.
 ITU=  0
     Eigenvalues ---    0.00610   0.01669   0.03046   0.03046   0.09678
     Eigenvalues ---    0.10211   0.16000   0.16000   0.25000   0.25000
     Eigenvalues ---    0.25000   0.25000   0.25000   0.31172   0.35218
     Eigenvalues ---    0.35374   0.56547   0.56547   0.57564   0.58691
     Eigenvalues ---    0.60065
 RFO step:  Lambda=-1.30378381D-02 EMin= 6.10148604D-03
 Linear search not attempted -- first point.
 Iteration  1 RMS(Cart)=  0.06287100 RMS(Int)=  0.00286131
 Iteration  2 RMS(Cart)=  0.00296509 RMS(Int)=  0.00111414
 Iteration  3 RMS(Cart)=  0.00000946 RMS(Int)=  0.00111412
 Iteration  4 RMS(Cart)=  0.00000002 RMS(Int)=  0.00111412
 ITry= 1 IFail=0 DXMaxC= 1.59D-01 DCOld= 1.00D+10 DXMaxT= 3.00D-01 DXLimC= 3.00D+00 Rises=F
 Variable       Old X    -DE/DX   Delta X   Delta X   Delta X     New X
                                 (Linear)    (Quad)   (Total)
    R1        2.05072  -0.00002   0.00000  -0.00005  -0.00005   2.05068
    R2        2.05322  -0.00093   0.00000  -0.00256  -0.00256   2.05066
    R3        2.50889  -0.00519   0.00000  -0.00846  -0.00846   2.50043
    R4        2.85685  -0.00061   0.00000  -0.00189  -0.00189   2.85496
    R5        2.51991   0.01396   0.00000   0.02326   0.02326   2.54318
    R6        2.52922   0.01158   0.00000   0.01968   0.01968   2.54890
    R7        2.53782   0.01764   0.00000   0.03050   0.03050   2.56832
    R8        2.53782   0.01764   0.00000   0.03050   0.03050   2.56832
    A1        1.97563   0.01086   0.00000   0.06276   0.06276   2.03840
    A2        2.15312  -0.00532   0.00000  -0.03072  -0.03072   2.12241
    A3        2.15443  -0.00555   0.00000  -0.03205  -0.03205   2.12238
    A4        2.20255  -0.00655   0.00000  -0.02489  -0.02489   2.17766
    A5        2.11082   0.00693   0.00000   0.02633   0.02633   2.13715
    A6        1.96981  -0.00038   0.00000  -0.00144  -0.00144   1.96837
    A7        2.02174  -0.02548   0.00000  -0.09938  -0.10230   1.91944
    A8        1.97955  -0.01577   0.00000  -0.05871  -0.06085   1.91870
    A9        1.97955  -0.01577   0.00000  -0.05871  -0.06085   1.91870
   A10        1.82213   0.02368   0.00000   0.08786   0.08500   1.90713
   A11        1.82213   0.02368   0.00000   0.08786   0.08500   1.90713
   A12        1.81783   0.01877   0.00000   0.07596   0.07461   1.89244
    D1       -0.00000   0.00000   0.00000   0.00000   0.00000  -0.00000
    D2        3.14159   0.00000   0.00000   0.00000   0.00000   3.14159
    D3        3.14159   0.00000   0.00000   0.00000   0.00000   3.14159
    D4        0.00000  -0.00000   0.00000  -0.00000  -0.00000   0.00000
    D5       -3.14158   0.00000   0.00000   0.00000   0.00000  -3.14158
    D6       -1.03460  -0.00081   0.00000  -0.00700  -0.00640  -1.04099
    D7        1.03461   0.00081   0.00000   0.00700   0.00640   1.04101
    D8        0.00001   0.00000   0.00000   0.00000   0.00000   0.00001
    D9        2.10699  -0.00081   0.00000  -0.00700  -0.00639   2.10060
   D10       -2.10698   0.00081   0.00000   0.00700   0.00640  -2.10058
         Item               Value     Threshold  Converged?
 Maximum Force            0.025477     0.000015     NO 
 RMS     Force            0.011359     0.000010     NO 
 Maximum Displacement     0.159119     0.000060     NO 
 RMS     Displacement     0.064508     0.000040     NO 
 Predicted change in Energy=-6.824276D-03
 Lowest energy point so far.  Saving SCF results.
 GradGradGradGradGradGradGradGradGradGradGradGradGradGradGradGradGradGrad

 Leave Link  103 at Thu Apr  2 13:32:30 2026, MaxMem=  2147483648 cpu:               0.1 elap:               0.0
 (Enter /Users/yarger/Applications/g16/l202.exe)
                          Input orientation:                          
 ---------------------------------------------------------------------
 Center     Atomic      Atomic             Coordinates (Angstroms)
 Number     Number       Type             X           Y           Z
 ---------------------------------------------------------------------
      1          6           0        1.716690    1.064195   -0.000000
      2          1           0        1.312299    2.071203   -0.000001
      3          1           0        2.797867    0.971270   -0.000001
      4          6           0        0.929345    0.000775   -0.000001
      5          6           0       -0.580732    0.046783   -0.000000
      6          9           0       -1.079913   -1.206267    0.000009
      7          9           0       -1.024211    0.706281    1.102510
      8          9           0       -1.024212    0.706265   -1.102519
      9          9           0        1.412387   -1.255340   -0.000001
 ---------------------------------------------------------------------
                    Distance matrix (angstroms):
                    1          2          3          4          5
     1  C    0.000000
     2  H    1.085171   0.000000
     3  H    1.085163   1.848449   0.000000
     4  C    1.323168   2.105547   2.105525   0.000000
     5  C    2.512623   2.771614   3.502800   1.510778   0.000000
     6  F    3.602219   4.057646   4.447341   2.343942   1.348820
     7  F    2.975931   2.921955   3.986731   2.351520   1.359095
     8  F    2.975938   2.921967   3.986736   2.351520   1.359095
     9  F    2.339411   3.328048   2.622470   1.345791   2.380766
                    6          7          8          9
     6  F    0.000000
     7  F    2.208268   0.000000
     8  F    2.208268   2.205030   0.000000
     9  F    2.492783   3.316699   3.316693   0.000000
 Stoichiometry    C3H2F4
 Framework group  C1[X(C3H2F4)]
 Deg. of freedom    21
 Full point group                 C1      NOp   1
 RotChk:  IX=0 Diff= 4.31D-02
 Largest Abelian subgroup         C1      NOp   1
 Largest concise Abelian subgroup C1      NOp   1
                         Standard orientation:                         
 ---------------------------------------------------------------------
 Center     Atomic      Atomic             Coordinates (Angstroms)
 Number     Number       Type             X           Y           Z
 ---------------------------------------------------------------------
      1          6           0        1.664716   -1.110598   -0.000000
      2          1           0        1.229823   -2.104814    0.000000
      3          1           0        2.748223   -1.050666    0.000000
      4          6           0        0.910145   -0.023676    0.000000
      5          6           0       -0.600632   -0.023642   -0.000000
      6          9           0       -1.061393    1.244039   -0.000009
      7          9           0       -1.064004   -0.669318   -1.102510
      8          9           0       -1.064005   -0.669302    1.102519
      9          9           0        1.431244    1.217134    0.000000
 ---------------------------------------------------------------------
 Rotational constants (GHZ):           3.6063470           2.4443764           1.9856588
 Leave Link  202 at Thu Apr  2 13:32:30 2026, MaxMem=  2147483648 cpu:               0.0 elap:               0.0
 (Enter /Users/yarger/Applications/g16/l301.exe)
 Standard basis: 6-31+G(d) (6D, 7F)
 Ernie: Thresh=  0.10000D-02 Tol=  0.10000D-05 Strict=F.
 There are   137 symmetry adapted cartesian basis functions of A   symmetry.
 There are   137 symmetry adapted basis functions of A   symmetry.
   137 basis functions,   232 primitive gaussians,   137 cartesian basis functions
    28 alpha electrons       28 beta electrons
       nuclear repulsion energy       330.5571887829 Hartrees.
 IExCor=  402 DFT=T Ex+Corr=B3LYP ExCW=0 ScaHFX=  0.200000
 ScaDFX=  0.800000  0.720000  1.000000  0.810000 ScalE2=  1.000000  1.000000
 IRadAn=      5 IRanWt=     -1 IRanGd=            0 ICorTp=0 IEmpDi=  4
 NAtoms=    9 NActive=    9 NUniq=    9 SFac= 1.00D+00 NAtFMM=   60 NAOKFM=F Big=F
 Integral buffers will be    131072 words long.
 Raffenetti 2 integral format.
 Two-electron integral symmetry is turned on.
 Leave Link  301 at Thu Apr  2 13:32:30 2026, MaxMem=  2147483648 cpu:               0.2 elap:               0.0
 (Enter /Users/yarger/Applications/g16/l302.exe)
 NPDir=0 NMtPBC=     1 NCelOv=     1 NCel=       1 NClECP=     1 NCelD=      1
         NCelK=      1 NCelE2=     1 NClLst=     1 CellRange=     0.0.
 One-electron integrals computed using PRISM.
 One-electron integral symmetry used in STVInt
 NBasis=   137 RedAO= T EigKep=  6.34D-05  NBF=   137
 NBsUse=   137 1.00D-06 EigRej= -1.00D+00 NBFU=   137
 Precomputing XC quadrature grid using
 IXCGrd= 4 IRadAn=           5 IRanWt=          -1 IRanGd=           0 AccXCQ= 0.00D+00.
 Generated NRdTot=       0 NPtTot=           0 NUsed=           0 NTot=          32
 NSgBfM=   137   137   137   137   137 MxSgAt=     9 MxSgA2=     9.
 Leave Link  302 at Thu Apr  2 13:32:30 2026, MaxMem=  2147483648 cpu:               0.8 elap:               0.1
 (Enter /Users/yarger/Applications/g16/l303.exe)
 DipDrv:  MaxL=1.
 Leave Link  303 at Thu Apr  2 13:32:30 2026, MaxMem=  2147483648 cpu:               0.1 elap:               0.0
 (Enter /Users/yarger/Applications/g16/l401.exe)
 Initial guess from the checkpoint file:  "2223Tetrafluoropropene_Opt_Freq_DFT_B3LYP_631pd_Gaussian16.chk"
 B after Tr=    -0.000000    0.000000    0.000000
         Rot=    0.999926    0.000000    0.000000    0.012183 Ang=   1.40 deg.
 Guess basis will be translated and rotated to current coordinates.
 JPrj=2 DoOrth=T DoCkMO=T.
 Generating alternative initial guess.
 ExpMin= 4.38D-02 ExpMax= 7.00D+03 ExpMxC= 1.05D+03 IAcc=2 IRadAn=         4 AccDes= 0.00D+00
 Harris functional with IExCor=  402 and IRadAn=       4 diagonalized for initial guess.
 HarFok:  IExCor=  402 AccDes= 0.00D+00 IRadAn=         4 IDoV= 1 UseB2=F ITyADJ=14
 ICtDFT=  3500011 ScaDFX=  1.000000  1.000000  1.000000  1.000000
 FoFCou: FMM=F IPFlag=           0 FMFlag=      100000 FMFlg1=           0
         NFxFlg=           0 DoJE=T BraDBF=F KetDBF=T FulRan=T
         wScrn=  0.000000 ICntrl=       500 IOpCl=  0 I1Cent=   200000004 NGrid=           0
         NMat0=    1 NMatS0=      1 NMatT0=    0 NMatD0=    1 NMtDS0=    0 NMtDT0=    0
 Petite list used in FoFCou.
 Harris En= -514.874018933351    
 Leave Link  401 at Thu Apr  2 13:32:30 2026, MaxMem=  2147483648 cpu:               1.5 elap:               0.2
 (Enter /Users/yarger/Applications/g16/l502.exe)
 Keep R1 ints in memory in canonical form, NReq=52385408.
 FoFCou: FMM=F IPFlag=           0 FMFlag=           0 FMFlg1=           0
         NFxFlg=           0 DoJE=F BraDBF=F KetDBF=F FulRan=T
         wScrn=  0.000000 ICntrl=       600 IOpCl=  0 I1Cent=           0 NGrid=           0
         NMat0=    1 NMatS0=   9453 NMatT0=    0 NMatD0=    1 NMtDS0=    0 NMtDT0=    0
 Symmetry not used in FoFCou.
 Two-electron integral symmetry not used.
 Closed shell SCF:
 Using DIIS extrapolation, IDIIS=  1040.
 NGot=  2147483648 LenX=  2102759234 LenY=  2102740024
 Requested convergence on RMS density matrix=1.00D-08 within 128 cycles.
 Requested convergence on MAX density matrix=1.00D-06.
 Requested convergence on             energy=1.00D-06.
 No special actions if energy rises.

 Cycle   1  Pass 1  IDiag  1:
 E= -514.878389902843    
 DIIS: error= 4.15D-03 at cycle   1 NSaved=   1.
 NSaved= 1 IEnMin= 1 EnMin= -514.878389902843     IErMin= 1 ErrMin= 4.15D-03
 ErrMax= 4.15D-03  0.00D+00 EMaxC= 1.00D-01 BMatC= 5.14D-03 BMatP= 5.14D-03
 IDIUse=3 WtCom= 9.59D-01 WtEn= 4.15D-02
 Coeff-Com:  0.100D+01
 Coeff-En:   0.100D+01
 Coeff:      0.100D+01
 Gap=     0.670 Goal=   None    Shift=    0.000
 GapD=    0.670 DampG=2.000 DampE=1.000 DampFc=2.0000 IDamp=-1.
 RMSDP=1.13D-03 MaxDP=2.23D-02              OVMax= 2.53D-02

 Cycle   2  Pass 1  IDiag  1:
 E= -514.885855340695     Delta-E=       -0.007465437852 Rises=F Damp=F
 DIIS: error= 5.95D-04 at cycle   2 NSaved=   2.
 NSaved= 2 IEnMin= 2 EnMin= -514.885855340695     IErMin= 2 ErrMin= 5.95D-04
 ErrMax= 5.95D-04  0.00D+00 EMaxC= 1.00D-01 BMatC= 1.44D-04 BMatP= 5.14D-03
 IDIUse=3 WtCom= 9.94D-01 WtEn= 5.95D-03
 Coeff-Com: -0.211D-01 0.102D+01
 Coeff-En:   0.000D+00 0.100D+01
 Coeff:     -0.209D-01 0.102D+01
 Gap=     0.258 Goal=   None    Shift=    0.000
 RMSDP=1.85D-04 MaxDP=4.96D-03 DE=-7.47D-03 OVMax= 1.00D-02

 Cycle   3  Pass 1  IDiag  1:
 E= -514.885779143315     Delta-E=        0.000076197380 Rises=F Damp=F
 DIIS: error= 1.06D-03 at cycle   3 NSaved=   3.
 NSaved= 3 IEnMin= 2 EnMin= -514.885855340695     IErMin= 2 ErrMin= 5.95D-04
 ErrMax= 1.06D-03  0.00D+00 EMaxC= 1.00D-01 BMatC= 2.67D-04 BMatP= 1.44D-04
 IDIUse=3 WtCom= 2.35D-01 WtEn= 7.65D-01
 Coeff-Com: -0.353D-01 0.614D+00 0.421D+00
 Coeff-En:   0.000D+00 0.609D+00 0.391D+00
 Coeff:     -0.828D-02 0.610D+00 0.398D+00
 Gap=     0.258 Goal=   None    Shift=    0.000
 RMSDP=1.10D-04 MaxDP=4.07D-03 DE= 7.62D-05 OVMax= 8.14D-03

 Cycle   4  Pass 1  IDiag  1:
 E= -514.886005349283     Delta-E=       -0.000226205968 Rises=F Damp=F
 DIIS: error= 1.50D-04 at cycle   4 NSaved=   4.
 NSaved= 4 IEnMin= 4 EnMin= -514.886005349283     IErMin= 4 ErrMin= 1.50D-04
 ErrMax= 1.50D-04  0.00D+00 EMaxC= 1.00D-01 BMatC= 7.38D-06 BMatP= 1.44D-04
 IDIUse=3 WtCom= 9.98D-01 WtEn= 1.50D-03
 Coeff-Com: -0.125D-01 0.148D+00 0.176D+00 0.689D+00
 Coeff-En:   0.000D+00 0.000D+00 0.000D+00 0.100D+01
 Coeff:     -0.124D-01 0.148D+00 0.175D+00 0.689D+00
 Gap=     0.258 Goal=   None    Shift=    0.000
 RMSDP=2.65D-05 MaxDP=9.14D-04 DE=-2.26D-04 OVMax= 1.83D-03

 Cycle   5  Pass 1  IDiag  1:
 E= -514.886011320389     Delta-E=       -0.000005971106 Rises=F Damp=F
 DIIS: error= 8.34D-05 at cycle   5 NSaved=   5.
 NSaved= 5 IEnMin= 5 EnMin= -514.886011320389     IErMin= 5 ErrMin= 8.34D-05
 ErrMax= 8.34D-05  0.00D+00 EMaxC= 1.00D-01 BMatC= 1.43D-06 BMatP= 7.38D-06
 IDIUse=1 WtCom= 1.00D+00 WtEn= 0.00D+00
 Coeff-Com: -0.338D-02 0.229D-01 0.561D-01 0.372D+00 0.552D+00
 Coeff:     -0.338D-02 0.229D-01 0.561D-01 0.372D+00 0.552D+00
 Gap=     0.258 Goal=   None    Shift=    0.000
 RMSDP=8.97D-06 MaxDP=2.94D-04 DE=-5.97D-06 OVMax= 5.78D-04

 Cycle   6  Pass 1  IDiag  1:
 E= -514.886012480813     Delta-E=       -0.000001160424 Rises=F Damp=F
 DIIS: error= 3.18D-05 at cycle   6 NSaved=   6.
 NSaved= 6 IEnMin= 6 EnMin= -514.886012480813     IErMin= 6 ErrMin= 3.18D-05
 ErrMax= 3.18D-05  0.00D+00 EMaxC= 1.00D-01 BMatC= 1.28D-07 BMatP= 1.43D-06
 IDIUse=1 WtCom= 1.00D+00 WtEn= 0.00D+00
 Coeff-Com: -0.431D-03-0.550D-02 0.103D-01 0.126D+00 0.289D+00 0.581D+00
 Coeff:     -0.431D-03-0.550D-02 0.103D-01 0.126D+00 0.289D+00 0.581D+00
 Gap=     0.258 Goal=   None    Shift=    0.000
 RMSDP=2.34D-06 MaxDP=5.77D-05 DE=-1.16D-06 OVMax= 1.32D-04

 Cycle   7  Pass 1  IDiag  1:
 E= -514.886012564048     Delta-E=       -0.000000083235 Rises=F Damp=F
 DIIS: error= 6.54D-06 at cycle   7 NSaved=   7.
 NSaved= 7 IEnMin= 7 EnMin= -514.886012564048     IErMin= 7 ErrMin= 6.54D-06
 ErrMax= 6.54D-06  0.00D+00 EMaxC= 1.00D-01 BMatC= 8.87D-09 BMatP= 1.28D-07
 IDIUse=1 WtCom= 1.00D+00 WtEn= 0.00D+00
 Coeff-Com:  0.944D-04-0.515D-02-0.615D-03 0.268D-01 0.901D-01 0.283D+00
 Coeff-Com:  0.606D+00
 Coeff:      0.944D-04-0.515D-02-0.615D-03 0.268D-01 0.901D-01 0.283D+00
 Coeff:      0.606D+00
 Gap=     0.258 Goal=   None    Shift=    0.000
 RMSDP=6.45D-07 MaxDP=1.39D-05 DE=-8.32D-08 OVMax= 2.34D-05

 Cycle   8  Pass 1  IDiag  1:
 E= -514.886012570728     Delta-E=       -0.000000006680 Rises=F Damp=F
 DIIS: error= 1.07D-06 at cycle   8 NSaved=   8.
 NSaved= 8 IEnMin= 8 EnMin= -514.886012570728     IErMin= 8 ErrMin= 1.07D-06
 ErrMax= 1.07D-06  0.00D+00 EMaxC= 1.00D-01 BMatC= 2.89D-10 BMatP= 8.87D-09
 IDIUse=1 WtCom= 1.00D+00 WtEn= 0.00D+00
 Coeff-Com:  0.587D-04-0.203D-02-0.644D-03 0.711D-02 0.288D-01 0.102D+00
 Coeff-Com:  0.263D+00 0.602D+00
 Coeff:      0.587D-04-0.203D-02-0.644D-03 0.711D-02 0.288D-01 0.102D+00
 Coeff:      0.263D+00 0.602D+00
 Gap=     0.258 Goal=   None    Shift=    0.000
 RMSDP=1.34D-07 MaxDP=3.51D-06 DE=-6.68D-09 OVMax= 4.10D-06

 Cycle   9  Pass 1  IDiag  1:
 E= -514.886012570910     Delta-E=       -0.000000000182 Rises=F Damp=F
 DIIS: error= 5.67D-07 at cycle   9 NSaved=   9.
 NSaved= 9 IEnMin= 9 EnMin= -514.886012570910     IErMin= 9 ErrMin= 5.67D-07
 ErrMax= 5.67D-07  0.00D+00 EMaxC= 1.00D-01 BMatC= 4.83D-11 BMatP= 2.89D-10
 IDIUse=1 WtCom= 1.00D+00 WtEn= 0.00D+00
 Coeff-Com:  0.147D-04-0.312D-03-0.196D-03 0.135D-03 0.277D-02 0.144D-01
 Coeff-Com:  0.539D-01 0.314D+00 0.615D+00
 Coeff:      0.147D-04-0.312D-03-0.196D-03 0.135D-03 0.277D-02 0.144D-01
 Coeff:      0.539D-01 0.314D+00 0.615D+00
 Gap=     0.258 Goal=   None    Shift=    0.000
 RMSDP=4.50D-08 MaxDP=1.00D-06 DE=-1.82D-10 OVMax= 1.73D-06

 Cycle  10  Pass 1  IDiag  1:
 E= -514.886012570943     Delta-E=       -0.000000000033 Rises=F Damp=F
 DIIS: error= 9.91D-08 at cycle  10 NSaved=  10.
 NSaved=10 IEnMin=10 EnMin= -514.886012570943     IErMin=10 ErrMin= 9.91D-08
 ErrMax= 9.91D-08  0.00D+00 EMaxC= 1.00D-01 BMatC= 2.11D-12 BMatP= 4.83D-11
 IDIUse=1 WtCom= 1.00D+00 WtEn= 0.00D+00
 Coeff-Com:  0.362D-05-0.297D-04-0.526D-04-0.335D-03-0.379D-03 0.874D-03
 Coeff-Com:  0.899D-02 0.106D+00 0.273D+00 0.612D+00
 Coeff:      0.362D-05-0.297D-04-0.526D-04-0.335D-03-0.379D-03 0.874D-03
 Coeff:      0.899D-02 0.106D+00 0.273D+00 0.612D+00
 Gap=     0.258 Goal=   None    Shift=    0.000
 RMSDP=1.29D-08 MaxDP=2.72D-07 DE=-3.30D-11 OVMax= 4.02D-07

 Cycle  11  Pass 1  IDiag  1:
 E= -514.886012570946     Delta-E=       -0.000000000003 Rises=F Damp=F
 DIIS: error= 1.60D-08 at cycle  11 NSaved=  11.
 NSaved=11 IEnMin=11 EnMin= -514.886012570946     IErMin=11 ErrMin= 1.60D-08
 ErrMax= 1.60D-08  0.00D+00 EMaxC= 1.00D-01 BMatC= 8.49D-14 BMatP= 2.11D-12
 IDIUse=1 WtCom= 1.00D+00 WtEn= 0.00D+00
 Coeff-Com:  0.475D-06 0.503D-05-0.926D-05-0.123D-03-0.299D-03-0.538D-03
 Coeff-Com:  0.615D-04 0.188D-01 0.595D-01 0.226D+00 0.697D+00
 Coeff:      0.475D-06 0.503D-05-0.926D-05-0.123D-03-0.299D-03-0.538D-03
 Coeff:      0.615D-04 0.188D-01 0.595D-01 0.226D+00 0.697D+00
 Gap=     0.258 Goal=   None    Shift=    0.000
 RMSDP=2.49D-09 MaxDP=4.87D-08 DE=-2.50D-12 OVMax= 5.26D-08

 SCF Done:  E(RB3LYP) =  -514.886012571     A.U. after   11 cycles
            NFock= 11  Conv=0.25D-08     -V/T= 2.0080
 KE= 5.107890178755D+02 PE=-1.879095755963D+03 EE= 5.228635367332D+02
 Leave Link  502 at Thu Apr  2 13:32:33 2026, MaxMem=  2147483648 cpu:              21.6 elap:               3.0
 (Enter /Users/yarger/Applications/g16/l701.exe)
 ... and contract with generalized density number  0.
 Compute integral first derivatives.
 Leave Link  701 at Thu Apr  2 13:32:33 2026, MaxMem=  2147483648 cpu:               0.5 elap:               0.1
 (Enter /Users/yarger/Applications/g16/l702.exe)
 L702 exits ... SP integral derivatives will be done elsewhere.
 Leave Link  702 at Thu Apr  2 13:32:33 2026, MaxMem=  2147483648 cpu:               0.1 elap:               0.0
 (Enter /Users/yarger/Applications/g16/l703.exe)
 Integral derivatives from FoFJK, PRISM(SPDF).
 Compute integral first derivatives, UseDBF=F ICtDFT=           0.
 Calling FoFJK, ICntrl=      2127 FMM=F ISym2X=0 I1Cent= 0 IOpClX= 0 NMat=1 NMatS=1 NMatT=0.
 FoFJK:  IHMeth= 1 ICntrl=    2127 DoSepK=F KAlg= 0 I1Cent=           0 FoldK=F
 IRaf=         0 NMat=       1 IRICut=       1 DoRegI=T DoRafI=F ISym2E= 0 IDoP0=0 IntGTp=1.
 FoFCou: FMM=F IPFlag=           0 FMFlag=      100000 FMFlg1=         800
         NFxFlg=           0 DoJE=F BraDBF=F KetDBF=F FulRan=T
         wScrn=  0.000000 ICntrl=      2127 IOpCl=  0 I1Cent=           0 NGrid=           0
         NMat0=    1 NMatS0=      1 NMatT0=    0 NMatD0=    1 NMtDS0=    0 NMtDT0=    0
 Symmetry not used in FoFCou.
 Leave Link  703 at Thu Apr  2 13:32:34 2026, MaxMem=  2147483648 cpu:               6.5 elap:               0.9
 (Enter /Users/yarger/Applications/g16/l716.exe)
 Dipole        = 6.13609482D-01-6.01716325D-01-4.50326714D-07
 ***** Axes restored to original set *****
 -------------------------------------------------------------------
 Center     Atomic                   Forces (Hartrees/Bohr)
 Number     Number              X              Y              Z
 -------------------------------------------------------------------
      1        6           0.005488328    0.004327622   -0.000000069
      2        1          -0.002709171   -0.001874855    0.000000046
      3        1          -0.000364691   -0.002261607   -0.000000003
      4        6           0.004249228    0.001734903    0.000000101
      5        6           0.008406899   -0.003681122   -0.000000087
      6        9          -0.005809135    0.009052157   -0.000000057
      7        9          -0.005801324   -0.002839861   -0.007152128
      8        9          -0.005801274   -0.002839861    0.007152245
      9        9           0.002341140   -0.001617377   -0.000000047
 -------------------------------------------------------------------
 Cartesian Forces:  Max     0.009052157 RMS     0.004215390
 Leave Link  716 at Thu Apr  2 13:32:34 2026, MaxMem=  2147483648 cpu:               0.1 elap:               0.0
 (Enter /Users/yarger/Applications/g16/l103.exe)

 GradGradGradGradGradGradGradGradGradGradGradGradGradGradGradGradGradGrad
 Berny optimization.
 Using GEDIIS/GDIIS optimizer.
 FormGI is forming the generalized inverse of G from B-inverse, IUseBI=4.
 Internal  Forces:  Max     0.011779564 RMS     0.005416196
 Search for a local minimum.
 Step number   2 out of a maximum of   40
 All quantities printed in internal units (Hartrees-Bohrs-Radians)
 RMS Force = .54162D-02 SwitMx=.10000D-02 MixMth= 1
 Mixed Optimization -- RFO/linear search
 Update second derivatives using D2CorX and points    1    2
 DE= -3.92D-03 DEPred=-6.82D-03 R= 5.75D-01
 TightC=F SS=  1.41D+00  RLast= 2.19D-01 DXNew= 5.0454D-01 6.5827D-01
 Trust test= 5.75D-01 RLast= 2.19D-01 DXMaxT set to 5.05D-01
 ITU=  1  0
 Use linear search instead of GDIIS.
     Eigenvalues ---    0.00610   0.01690   0.03046   0.03046   0.11262
     Eigenvalues ---    0.11357   0.15061   0.16006   0.24811   0.25000
     Eigenvalues ---    0.25000   0.25000   0.29995   0.35215   0.35359
     Eigenvalues ---    0.38818   0.56547   0.56876   0.57987   0.59745
     Eigenvalues ---    0.60901
 RFO step:  Lambda=-6.11033497D-04 EMin= 6.10148604D-03
 Quartic linear search produced a step of -0.28392.
 Iteration  1 RMS(Cart)=  0.02178394 RMS(Int)=  0.00036118
 Iteration  2 RMS(Cart)=  0.00026705 RMS(Int)=  0.00020822
 Iteration  3 RMS(Cart)=  0.00000002 RMS(Int)=  0.00020822
 ITry= 1 IFail=0 DXMaxC= 5.09D-02 DCOld= 1.00D+10 DXMaxT= 5.05D-01 DXLimC= 3.00D+00 Rises=F
 Variable       Old X    -DE/DX   Delta X   Delta X   Delta X     New X
                                 (Linear)    (Quad)   (Total)
    R1        2.05068  -0.00073   0.00001  -0.00149  -0.00148   2.04920
    R2        2.05066  -0.00017   0.00073  -0.00121  -0.00048   2.05018
    R3        2.50043   0.00159   0.00240  -0.00094   0.00146   2.50189
    R4        2.85496   0.00899   0.00054   0.01996   0.02050   2.87546
    R5        2.54318   0.00235  -0.00660   0.01066   0.00405   2.54723
    R6        2.54890  -0.00626  -0.00559  -0.00118  -0.00677   2.54213
    R7        2.56832  -0.00529  -0.00866   0.00354  -0.00512   2.56320
    R8        2.56832  -0.00529  -0.00866   0.00354  -0.00512   2.56320
    A1        2.03840   0.00376  -0.01782   0.03861   0.02079   2.05919
    A2        2.12241  -0.00283   0.00872  -0.02331  -0.01459   2.10782
    A3        2.12238  -0.00093   0.00910  -0.01530  -0.00620   2.11618
    A4        2.17766   0.00042   0.00707  -0.00731  -0.00025   2.17741
    A5        2.13715  -0.00225  -0.00747   0.00258  -0.00490   2.13225
    A6        1.96837   0.00183   0.00041   0.00474   0.00515   1.97352
    A7        1.91944   0.01178   0.02904  -0.00016   0.02944   1.94889
    A8        1.91870   0.00967   0.01728   0.00486   0.02256   1.94126
    A9        1.91870   0.00967   0.01728   0.00486   0.02256   1.94126
   A10        1.90713  -0.01028  -0.02413   0.00074  -0.02288   1.88425
   A11        1.90713  -0.01028  -0.02413   0.00074  -0.02288   1.88425
   A12        1.89244  -0.01112  -0.02118  -0.01122  -0.03213   1.86031
    D1       -0.00000   0.00000  -0.00000   0.00000   0.00000   0.00000
    D2        3.14159   0.00000  -0.00000   0.00000   0.00000   3.14159
    D3        3.14159   0.00000  -0.00000   0.00000   0.00000  -3.14159
    D4        0.00000  -0.00000   0.00000  -0.00000  -0.00000  -0.00000
    D5       -3.14158  -0.00000  -0.00000   0.00000   0.00000  -3.14158
    D6       -1.04099   0.00086   0.00182   0.00390   0.00562  -1.03538
    D7        1.04101  -0.00086  -0.00182  -0.00389  -0.00561   1.03540
    D8        0.00001   0.00000  -0.00000   0.00000   0.00000   0.00001
    D9        2.10060   0.00086   0.00182   0.00390   0.00562   2.10622
   D10       -2.10058  -0.00086  -0.00182  -0.00389  -0.00561  -2.10619
         Item               Value     Threshold  Converged?
 Maximum Force            0.011780     0.000015     NO 
 RMS     Force            0.005416     0.000010     NO 
 Maximum Displacement     0.050909     0.000060     NO 
 RMS     Displacement     0.021782     0.000040     NO 
 Predicted change in Energy=-1.032021D-03
 Lowest energy point so far.  Saving SCF results.
 GradGradGradGradGradGradGradGradGradGradGradGradGradGradGradGradGradGrad

 Leave Link  103 at Thu Apr  2 13:32:34 2026, MaxMem=  2147483648 cpu:               0.1 elap:               0.0
 (Enter /Users/yarger/Applications/g16/l202.exe)
                          Input orientation:                          
 ---------------------------------------------------------------------
 Center     Atomic      Atomic             Coordinates (Angstroms)
 Number     Number       Type             X           Y           Z
 ---------------------------------------------------------------------
      1          6           0        1.731025    1.066645    0.000000
      2          1           0        1.309817    2.065887    0.000002
      3          1           0        2.811594    0.969715   -0.000001
      4          6           0        0.945851    0.000660   -0.000000
      5          6           0       -0.575168    0.043617   -0.000000
      6          9           0       -1.106853   -1.192093    0.000011
      7          9           0       -1.047835    0.702306    1.087427
      8          9           0       -1.047836    0.702286   -1.087439
      9          9           0        1.438923   -1.253856   -0.000003
 ---------------------------------------------------------------------
                    Distance matrix (angstroms):
                    1          2          3          4          5
     1  C    0.000000
     2  H    1.084389   0.000000
     3  H    1.084907   1.859281   0.000000
     4  C    1.323942   2.097053   2.102394   0.000000
     5  C    2.522917   2.764551   3.511098   1.521626   0.000000
     6  F    3.627044   4.056442   4.475225   2.374080   1.345239
     7  F    3.006210   2.932638   4.018606   2.376887   1.356386
     8  F    3.006218   2.932654   4.018611   2.376887   1.356386
     9  F    2.338814   3.322253   2.613138   1.347936   2.395829
                    6          7          8          9
     6  F    0.000000
     7  F    2.185110   0.000000
     8  F    2.185110   2.174866   0.000000
     9  F    2.546525   3.345600   3.345591   0.000000
 Stoichiometry    C3H2F4
 Framework group  C1[X(C3H2F4)]
 Deg. of freedom    21
 Full point group                 C1      NOp   1
 RotChk:  IX=0 Diff= 5.24D-03
 Largest Abelian subgroup         C1      NOp   1
 Largest concise Abelian subgroup C1      NOp   1
                         Standard orientation:                         
 ---------------------------------------------------------------------
 Center     Atomic      Atomic             Coordinates (Angstroms)
 Number     Number       Type             X           Y           Z
 ---------------------------------------------------------------------
      1          6           0        1.678424   -1.118789   -0.000001
      2          1           0        1.223311   -2.103051   -0.000003
      3          1           0        2.761675   -1.058846    0.000000
      4          6           0        0.930142   -0.026592   -0.000000
      5          6           0       -0.591456   -0.017539   -0.000001
      6          9           0       -1.080598    1.235621   -0.000012
      7          9           0       -1.086360   -0.659689   -1.087428
      8          9           0       -1.086360   -0.659669    1.087438
      9          9           0        1.465801    1.210340    0.000003
 ---------------------------------------------------------------------
 Rotational constants (GHZ):           3.6627908           2.3967802           1.9514911
 Leave Link  202 at Thu Apr  2 13:32:35 2026, MaxMem=  2147483648 cpu:               0.0 elap:               0.0
 (Enter /Users/yarger/Applications/g16/l301.exe)
 Standard basis: 6-31+G(d) (6D, 7F)
 Ernie: Thresh=  0.10000D-02 Tol=  0.10000D-05 Strict=F.
 There are   137 symmetry adapted cartesian basis functions of A   symmetry.
 There are   137 symmetry adapted basis functions of A   symmetry.
   137 basis functions,   232 primitive gaussians,   137 cartesian basis functions
    28 alpha electrons       28 beta electrons
       nuclear repulsion energy       329.8773190621 Hartrees.
 IExCor=  402 DFT=T Ex+Corr=B3LYP ExCW=0 ScaHFX=  0.200000
 ScaDFX=  0.800000  0.720000  1.000000  0.810000 ScalE2=  1.000000  1.000000
 IRadAn=      5 IRanWt=     -1 IRanGd=            0 ICorTp=0 IEmpDi=  4
 NAtoms=    9 NActive=    9 NUniq=    9 SFac= 1.00D+00 NAtFMM=   60 NAOKFM=F Big=F
 Integral buffers will be    131072 words long.
 Raffenetti 2 integral format.
 Two-electron integral symmetry is turned on.
 Leave Link  301 at Thu Apr  2 13:32:35 2026, MaxMem=  2147483648 cpu:               0.2 elap:               0.0
 (Enter /Users/yarger/Applications/g16/l302.exe)
 NPDir=0 NMtPBC=     1 NCelOv=     1 NCel=       1 NClECP=     1 NCelD=      1
         NCelK=      1 NCelE2=     1 NClLst=     1 CellRange=     0.0.
 One-electron integrals computed using PRISM.
 One-electron integral symmetry used in STVInt
 NBasis=   137 RedAO= T EigKep=  6.48D-05  NBF=   137
 NBsUse=   137 1.00D-06 EigRej= -1.00D+00 NBFU=   137
 Precomputing XC quadrature grid using
 IXCGrd= 4 IRadAn=           5 IRanWt=          -1 IRanGd=           0 AccXCQ= 0.00D+00.
 Generated NRdTot=       0 NPtTot=           0 NUsed=           0 NTot=          32
 NSgBfM=   137   137   137   137   137 MxSgAt=     9 MxSgA2=     9.
 Leave Link  302 at Thu Apr  2 13:32:35 2026, MaxMem=  2147483648 cpu:               0.8 elap:               0.1
 (Enter /Users/yarger/Applications/g16/l303.exe)
 DipDrv:  MaxL=1.
 Leave Link  303 at Thu Apr  2 13:32:35 2026, MaxMem=  2147483648 cpu:               0.1 elap:               0.0
 (Enter /Users/yarger/Applications/g16/l401.exe)
 Initial guess from the checkpoint file:  "2223Tetrafluoropropene_Opt_Freq_DFT_B3LYP_631pd_Gaussian16.chk"
 B after Tr=     0.000000   -0.000000   -0.000000
         Rot=    0.999997    0.000000    0.000000    0.002549 Ang=   0.29 deg.
 Guess basis will be translated and rotated to current coordinates.
 JPrj=2 DoOrth=T DoCkMO=T.
 Generating alternative initial guess.
 ExpMin= 4.38D-02 ExpMax= 7.00D+03 ExpMxC= 1.05D+03 IAcc=2 IRadAn=         4 AccDes= 0.00D+00
 Harris functional with IExCor=  402 and IRadAn=       4 diagonalized for initial guess.
 HarFok:  IExCor=  402 AccDes= 0.00D+00 IRadAn=         4 IDoV= 1 UseB2=F ITyADJ=14
 ICtDFT=  3500011 ScaDFX=  1.000000  1.000000  1.000000  1.000000
 FoFCou: FMM=F IPFlag=           0 FMFlag=      100000 FMFlg1=           0
         NFxFlg=           0 DoJE=T BraDBF=F KetDBF=T FulRan=T
         wScrn=  0.000000 ICntrl=       500 IOpCl=  0 I1Cent=   200000004 NGrid=           0
         NMat0=    1 NMatS0=      1 NMatT0=    0 NMatD0=    1 NMtDS0=    0 NMtDT0=    0
 Petite list used in FoFCou.
 Harris En= -514.874663615091    
 Leave Link  401 at Thu Apr  2 13:32:35 2026, MaxMem=  2147483648 cpu:               1.5 elap:               0.2
 (Enter /Users/yarger/Applications/g16/l502.exe)
 Keep R1 ints in memory in canonical form, NReq=52385408.
 FoFCou: FMM=F IPFlag=           0 FMFlag=           0 FMFlg1=           0
         NFxFlg=           0 DoJE=F BraDBF=F KetDBF=F FulRan=T
         wScrn=  0.000000 ICntrl=       600 IOpCl=  0 I1Cent=           0 NGrid=           0
         NMat0=    1 NMatS0=   9453 NMatT0=    0 NMatD0=    1 NMtDS0=    0 NMtDT0=    0
 Symmetry not used in FoFCou.
 Two-electron integral symmetry not used.
 Closed shell SCF:
 Using DIIS extrapolation, IDIIS=  1040.
 NGot=  2147483648 LenX=  2102759234 LenY=  2102740024
 Requested convergence on RMS density matrix=1.00D-08 within 128 cycles.
 Requested convergence on MAX density matrix=1.00D-06.
 Requested convergence on             energy=1.00D-06.
 No special actions if energy rises.

 Cycle   1  Pass 1  IDiag  1:
 E= -514.886232266583    
 DIIS: error= 1.34D-03 at cycle   1 NSaved=   1.
 NSaved= 1 IEnMin= 1 EnMin= -514.886232266583     IErMin= 1 ErrMin= 1.34D-03
 ErrMax= 1.34D-03  0.00D+00 EMaxC= 1.00D-01 BMatC= 5.45D-04 BMatP= 5.45D-04
 IDIUse=3 WtCom= 9.87D-01 WtEn= 1.34D-02
 Coeff-Com:  0.100D+01
 Coeff-En:   0.100D+01
 Coeff:      0.100D+01
 Gap=     0.673 Goal=   None    Shift=    0.000
 GapD=    0.673 DampG=2.000 DampE=1.000 DampFc=2.0000 IDamp=-1.
 RMSDP=4.05D-04 MaxDP=8.25D-03              OVMax= 7.95D-03

 Cycle   2  Pass 1  IDiag  1:
 E= -514.887055323349     Delta-E=       -0.000823056766 Rises=F Damp=F
 DIIS: error= 2.22D-04 at cycle   2 NSaved=   2.
 NSaved= 2 IEnMin= 2 EnMin= -514.887055323349     IErMin= 2 ErrMin= 2.22D-04
 ErrMax= 2.22D-04  0.00D+00 EMaxC= 1.00D-01 BMatC= 1.18D-05 BMatP= 5.45D-04
 IDIUse=3 WtCom= 9.98D-01 WtEn= 2.22D-03
 Coeff-Com: -0.308D-01 0.103D+01
 Coeff-En:   0.000D+00 0.100D+01
 Coeff:     -0.307D-01 0.103D+01
 Gap=     0.258 Goal=   None    Shift=    0.000
 RMSDP=5.71D-05 MaxDP=9.06D-04 DE=-8.23D-04 OVMax= 1.88D-03

 Cycle   3  Pass 1  IDiag  1:
 E= -514.887056534302     Delta-E=       -0.000001210954 Rises=F Damp=F
 DIIS: error= 3.01D-04 at cycle   3 NSaved=   3.
 NSaved= 3 IEnMin= 3 EnMin= -514.887056534302     IErMin= 2 ErrMin= 2.22D-04
 ErrMax= 3.01D-04  0.00D+00 EMaxC= 1.00D-01 BMatC= 1.65D-05 BMatP= 1.18D-05
 IDIUse=3 WtCom= 3.66D-01 WtEn= 6.34D-01
 Coeff-Com: -0.337D-01 0.580D+00 0.453D+00
 Coeff-En:   0.000D+00 0.467D+00 0.533D+00
 Coeff:     -0.123D-01 0.509D+00 0.504D+00
 Gap=     0.258 Goal=   None    Shift=    0.000
 RMSDP=3.17D-05 MaxDP=8.79D-04 DE=-1.21D-06 OVMax= 1.83D-03

 Cycle   4  Pass 1  IDiag  1:
 E= -514.887066910279     Delta-E=       -0.000010375977 Rises=F Damp=F
 DIIS: error= 9.07D-05 at cycle   4 NSaved=   4.
 NSaved= 4 IEnMin= 4 EnMin= -514.887066910279     IErMin= 4 ErrMin= 9.07D-05
 ErrMax= 9.07D-05  0.00D+00 EMaxC= 1.00D-01 BMatC= 2.55D-06 BMatP= 1.18D-05
 IDIUse=1 WtCom= 1.00D+00 WtEn= 0.00D+00
 Coeff-Com: -0.113D-01 0.125D+00 0.298D+00 0.588D+00
 Coeff:     -0.113D-01 0.125D+00 0.298D+00 0.588D+00
 Gap=     0.258 Goal=   None    Shift=    0.000
 RMSDP=1.03D-05 MaxDP=4.03D-04 DE=-1.04D-05 OVMax= 8.08D-04

 Cycle   5  Pass 1  IDiag  1:
 E= -514.887068866535     Delta-E=       -0.000001956256 Rises=F Damp=F
 DIIS: error= 2.18D-05 at cycle   5 NSaved=   5.
 NSaved= 5 IEnMin= 5 EnMin= -514.887068866535     IErMin= 5 ErrMin= 2.18D-05
 ErrMax= 2.18D-05  0.00D+00 EMaxC= 1.00D-01 BMatC= 1.32D-07 BMatP= 2.55D-06
 IDIUse=1 WtCom= 1.00D+00 WtEn= 0.00D+00
 Coeff-Com: -0.316D-02 0.207D-01 0.130D+00 0.329D+00 0.523D+00
 Coeff:     -0.316D-02 0.207D-01 0.130D+00 0.329D+00 0.523D+00
 Gap=     0.258 Goal=   None    Shift=    0.000
 RMSDP=2.87D-06 MaxDP=1.14D-04 DE=-1.96D-06 OVMax= 2.35D-04

 Cycle   6  Pass 1  IDiag  1:
 E= -514.887068982853     Delta-E=       -0.000000116318 Rises=F Damp=F
 DIIS: error= 6.74D-06 at cycle   6 NSaved=   6.
 NSaved= 6 IEnMin= 6 EnMin= -514.887068982853     IErMin= 6 ErrMin= 6.74D-06
 ErrMax= 6.74D-06  0.00D+00 EMaxC= 1.00D-01 BMatC= 1.16D-08 BMatP= 1.32D-07
 IDIUse=1 WtCom= 1.00D+00 WtEn= 0.00D+00
 Coeff-Com: -0.278D-03-0.584D-02 0.275D-01 0.880D-01 0.277D+00 0.614D+00
 Coeff:     -0.278D-03-0.584D-02 0.275D-01 0.880D-01 0.277D+00 0.614D+00
 Gap=     0.258 Goal=   None    Shift=    0.000
 RMSDP=8.22D-07 MaxDP=2.40D-05 DE=-1.16D-07 OVMax= 5.58D-05

 Cycle   7  Pass 1  IDiag  1:
 E= -514.887068992952     Delta-E=       -0.000000010099 Rises=F Damp=F
 DIIS: error= 1.58D-06 at cycle   7 NSaved=   7.
 NSaved= 7 IEnMin= 7 EnMin= -514.887068992952     IErMin= 7 ErrMin= 1.58D-06
 ErrMax= 1.58D-06  0.00D+00 EMaxC= 1.00D-01 BMatC= 5.52D-10 BMatP= 1.16D-08
 IDIUse=1 WtCom= 1.00D+00 WtEn= 0.00D+00
 Coeff-Com:  0.768D-04-0.447D-02 0.470D-02 0.214D-01 0.102D+00 0.279D+00
 Coeff-Com:  0.598D+00
 Coeff:      0.768D-04-0.447D-02 0.470D-02 0.214D-01 0.102D+00 0.279D+00
 Coeff:      0.598D+00
 Gap=     0.258 Goal=   None    Shift=    0.000
 RMSDP=1.53D-07 MaxDP=3.72D-06 DE=-1.01D-08 OVMax= 3.58D-06

 Cycle   8  Pass 1  IDiag  1:
 E= -514.887068993318     Delta-E=       -0.000000000365 Rises=F Damp=F
 DIIS: error= 5.00D-07 at cycle   8 NSaved=   8.
 NSaved= 8 IEnMin= 8 EnMin= -514.887068993318     IErMin= 8 ErrMin= 5.00D-07
 ErrMax= 5.00D-07  0.00D+00 EMaxC= 1.00D-01 BMatC= 4.10D-11 BMatP= 5.52D-10
 IDIUse=1 WtCom= 1.00D+00 WtEn= 0.00D+00
 Coeff-Com:  0.518D-04-0.181D-02 0.903D-03 0.578D-02 0.352D-01 0.102D+00
 Coeff-Com:  0.294D+00 0.564D+00
 Coeff:      0.518D-04-0.181D-02 0.903D-03 0.578D-02 0.352D-01 0.102D+00
 Coeff:      0.294D+00 0.564D+00
 Gap=     0.258 Goal=   None    Shift=    0.000
 RMSDP=4.18D-08 MaxDP=1.01D-06 DE=-3.65D-10 OVMax= 1.16D-06

 Cycle   9  Pass 1  IDiag  1:
 E= -514.887068993344     Delta-E=       -0.000000000027 Rises=F Damp=F
 DIIS: error= 1.53D-07 at cycle   9 NSaved=   9.
 NSaved= 9 IEnMin= 9 EnMin= -514.887068993344     IErMin= 9 ErrMin= 1.53D-07
 ErrMax= 1.53D-07  0.00D+00 EMaxC= 1.00D-01 BMatC= 4.53D-12 BMatP= 4.10D-11
 IDIUse=1 WtCom= 1.00D+00 WtEn= 0.00D+00
 Coeff-Com:  0.129D-04-0.218D-03-0.178D-03-0.172D-03 0.270D-02 0.105D-01
 Coeff-Com:  0.603D-01 0.285D+00 0.642D+00
 Coeff:      0.129D-04-0.218D-03-0.178D-03-0.172D-03 0.270D-02 0.105D-01
 Coeff:      0.603D-01 0.285D+00 0.642D+00
 Gap=     0.258 Goal=   None    Shift=    0.000
 RMSDP=1.51D-08 MaxDP=3.11D-07 DE=-2.68D-11 OVMax= 3.25D-07

 Cycle  10  Pass 1  IDiag  1:
 E= -514.887068993343     Delta-E=        0.000000000001 Rises=F Damp=F
 DIIS: error= 1.88D-08 at cycle  10 NSaved=  10.
 NSaved=10 IEnMin= 9 EnMin= -514.887068993344     IErMin=10 ErrMin= 1.88D-08
 ErrMax= 1.88D-08  0.00D+00 EMaxC= 1.00D-01 BMatC= 9.81D-14 BMatP= 4.53D-12
 IDIUse=1 WtCom= 1.00D+00 WtEn= 0.00D+00
 Coeff-Com:  0.297D-05-0.226D-04-0.110D-03-0.264D-03-0.368D-03 0.435D-03
 Coeff-Com:  0.108D-01 0.823D-01 0.227D+00 0.680D+00
 Coeff:      0.297D-05-0.226D-04-0.110D-03-0.264D-03-0.368D-03 0.435D-03
 Coeff:      0.108D-01 0.823D-01 0.227D+00 0.680D+00
 Gap=     0.258 Goal=   None    Shift=    0.000
 RMSDP=3.06D-09 MaxDP=7.25D-08 DE= 1.14D-12 OVMax= 1.21D-07

 SCF Done:  E(RB3LYP) =  -514.887068993     A.U. after   10 cycles
            NFock= 10  Conv=0.31D-08     -V/T= 2.0080
 KE= 5.107887805884D+02 PE=-1.877745212172D+03 EE= 5.221920435281D+02
 Leave Link  502 at Thu Apr  2 13:32:38 2026, MaxMem=  2147483648 cpu:              20.0 elap:               2.8
 (Enter /Users/yarger/Applications/g16/l701.exe)
 ... and contract with generalized density number  0.
 Compute integral first derivatives.
 Leave Link  701 at Thu Apr  2 13:32:38 2026, MaxMem=  2147483648 cpu:               0.5 elap:               0.1
 (Enter /Users/yarger/Applications/g16/l702.exe)
 L702 exits ... SP integral derivatives will be done elsewhere.
 Leave Link  702 at Thu Apr  2 13:32:38 2026, MaxMem=  2147483648 cpu:               0.1 elap:               0.0
 (Enter /Users/yarger/Applications/g16/l703.exe)
 Integral derivatives from FoFJK, PRISM(SPDF).
 Compute integral first derivatives, UseDBF=F ICtDFT=           0.
 Calling FoFJK, ICntrl=      2127 FMM=F ISym2X=0 I1Cent= 0 IOpClX= 0 NMat=1 NMatS=1 NMatT=0.
 FoFJK:  IHMeth= 1 ICntrl=    2127 DoSepK=F KAlg= 0 I1Cent=           0 FoldK=F
 IRaf=         0 NMat=       1 IRICut=       1 DoRegI=T DoRafI=F ISym2E= 0 IDoP0=0 IntGTp=1.
 FoFCou: FMM=F IPFlag=           0 FMFlag=      100000 FMFlg1=         800
         NFxFlg=           0 DoJE=F BraDBF=F KetDBF=F FulRan=T
         wScrn=  0.000000 ICntrl=      2127 IOpCl=  0 I1Cent=           0 NGrid=           0
         NMat0=    1 NMatS0=      1 NMatT0=    0 NMatD0=    1 NMtDS0=    0 NMtDT0=    0
 Symmetry not used in FoFCou.
 Leave Link  703 at Thu Apr  2 13:32:39 2026, MaxMem=  2147483648 cpu:               6.4 elap:               0.9
 (Enter /Users/yarger/Applications/g16/l716.exe)
 Dipole        = 6.70777390D-01-6.05689284D-01-1.33346103D-06
 ***** Axes restored to original set *****
 -------------------------------------------------------------------
 Center     Atomic                   Forces (Hartrees/Bohr)
 Number     Number              X              Y              Z
 -------------------------------------------------------------------
      1        6           0.002120939    0.002449821    0.000000029
      2        1          -0.001204381   -0.000714283    0.000000022
      3        1          -0.000325788   -0.001062947   -0.000000013
      4        6          -0.001046076    0.000140633    0.000000016
      5        6          -0.000745297   -0.001252764   -0.000000042
      6        9           0.000928035    0.002237658   -0.000000005
      7        9           0.000379110   -0.000675192   -0.000801143
      8        9           0.000379098   -0.000675258    0.000801166
      9        9          -0.000485640   -0.000447668   -0.000000030
 -------------------------------------------------------------------
 Cartesian Forces:  Max     0.002449821 RMS     0.000976071
 Leave Link  716 at Thu Apr  2 13:32:39 2026, MaxMem=  2147483648 cpu:               0.1 elap:               0.0
 (Enter /Users/yarger/Applications/g16/l103.exe)

 GradGradGradGradGradGradGradGradGradGradGradGradGradGradGradGradGradGrad
 Berny optimization.
 Using GEDIIS/GDIIS optimizer.
 FormGI is forming the generalized inverse of G from B-inverse, IUseBI=4.
 Internal  Forces:  Max     0.002422394 RMS     0.000730756
 Search for a local minimum.
 Step number   3 out of a maximum of   40
 All quantities printed in internal units (Hartrees-Bohrs-Radians)
 RMS Force = .73076D-03 SwitMx=.10000D-02 MixMth= 2
 Mixed Optimization -- En-DIIS/RFO-DIIS
 Update second derivatives using D2CorX and points    1    2    3
 DE= -1.06D-03 DEPred=-1.03D-03 R= 1.02D+00
 TightC=F SS=  1.41D+00  RLast= 7.32D-02 DXNew= 8.4853D-01 2.1971D-01
 Trust test= 1.02D+00 RLast= 7.32D-02 DXMaxT set to 5.05D-01
 ITU=  1  1  0
 Use linear search instead of GDIIS.
     Eigenvalues ---    0.00610   0.01683   0.03046   0.03046   0.10747
     Eigenvalues ---    0.11024   0.13592   0.16004   0.24831   0.25000
     Eigenvalues ---    0.25000   0.25060   0.29982   0.35200   0.35363
     Eigenvalues ---    0.42161   0.56547   0.56822   0.57603   0.58228
     Eigenvalues ---    0.60075
 RFO step:  Lambda=-5.70091254D-05 EMin= 6.10148603D-03
 Quartic linear search produced a step of  0.02851.
 Iteration  1 RMS(Cart)=  0.00347946 RMS(Int)=  0.00001372
 Iteration  2 RMS(Cart)=  0.00001252 RMS(Int)=  0.00000419
 Iteration  3 RMS(Cart)=  0.00000000 RMS(Int)=  0.00000419
 ITry= 1 IFail=0 DXMaxC= 1.22D-02 DCOld= 1.00D+10 DXMaxT= 5.05D-01 DXLimC= 3.00D+00 Rises=F
 Variable       Old X    -DE/DX   Delta X   Delta X   Delta X     New X
                                 (Linear)    (Quad)   (Total)
    R1        2.04920  -0.00019  -0.00004  -0.00059  -0.00063   2.04857
    R2        2.05018  -0.00023  -0.00001  -0.00072  -0.00073   2.04945
    R3        2.50189   0.00089   0.00004   0.00149   0.00153   2.50342
    R4        2.87546  -0.00095   0.00058  -0.00290  -0.00232   2.87314
    R5        2.54723   0.00024   0.00012   0.00072   0.00084   2.54807
    R6        2.54213  -0.00242  -0.00019  -0.00432  -0.00451   2.53763
    R7        2.56320  -0.00110  -0.00015  -0.00181  -0.00196   2.56124
    R8        2.56320  -0.00110  -0.00015  -0.00181  -0.00196   2.56124
    A1        2.05919   0.00169   0.00059   0.01202   0.01262   2.07180
    A2        2.10782  -0.00115  -0.00042  -0.00808  -0.00849   2.09932
    A3        2.11618  -0.00054  -0.00018  -0.00395  -0.00412   2.11206
    A4        2.17741   0.00024  -0.00001   0.00078   0.00077   2.17818
    A5        2.13225   0.00066  -0.00014   0.00296   0.00282   2.13507
    A6        1.97352  -0.00091   0.00015  -0.00374  -0.00359   1.96993
    A7        1.94889  -0.00001   0.00084  -0.00099  -0.00016   1.94872
    A8        1.94126   0.00003   0.00064   0.00003   0.00066   1.94192
    A9        1.94126   0.00003   0.00064   0.00003   0.00066   1.94192
   A10        1.88425  -0.00009  -0.00065  -0.00023  -0.00089   1.88335
   A11        1.88425  -0.00009  -0.00065  -0.00023  -0.00089   1.88335
   A12        1.86031   0.00014  -0.00092   0.00150   0.00058   1.86089
    D1        0.00000   0.00000   0.00000   0.00000   0.00000   0.00000
    D2        3.14159   0.00000   0.00000   0.00000   0.00000  -3.14159
    D3       -3.14159   0.00000   0.00000   0.00000   0.00000  -3.14159
    D4       -0.00000   0.00000  -0.00000   0.00000   0.00000  -0.00000
    D5       -3.14158   0.00000   0.00000   0.00001   0.00001  -3.14158
    D6       -1.03538  -0.00010   0.00016  -0.00095  -0.00079  -1.03617
    D7        1.03540   0.00010  -0.00016   0.00096   0.00080   1.03620
    D8        0.00001   0.00000   0.00000   0.00001   0.00001   0.00002
    D9        2.10622  -0.00010   0.00016  -0.00095  -0.00079   2.10543
   D10       -2.10619   0.00010  -0.00016   0.00096   0.00080  -2.10539
         Item               Value     Threshold  Converged?
 Maximum Force            0.002422     0.000015     NO 
 RMS     Force            0.000731     0.000010     NO 
 Maximum Displacement     0.012189     0.000060     NO 
 RMS     Displacement     0.003478     0.000040     NO 
 Predicted change in Energy=-2.924040D-05
 Lowest energy point so far.  Saving SCF results.
 GradGradGradGradGradGradGradGradGradGradGradGradGradGradGradGradGradGrad

 Leave Link  103 at Thu Apr  2 13:32:39 2026, MaxMem=  2147483648 cpu:               0.1 elap:               0.0
 (Enter /Users/yarger/Applications/g16/l202.exe)
                          Input orientation:                          
 ---------------------------------------------------------------------
 Center     Atomic      Atomic             Coordinates (Angstroms)
 Number     Number       Type             X           Y           Z
 ---------------------------------------------------------------------
      1          6           0        1.732498    1.068456    0.000001
      2          1           0        1.303366    2.063957    0.000006
      3          1           0        2.812231    0.966657   -0.000001
      4          6           0        0.946400    0.002144   -0.000001
      5          6           0       -0.573409    0.044530   -0.000000
      6          9           0       -1.103515   -1.189262    0.000015
      7          9           0       -1.046809    0.701544    1.086829
      8          9           0       -1.046812    0.701518   -1.086845
      9          9           0        1.435568   -1.254377   -0.000007
 ---------------------------------------------------------------------
                    Distance matrix (angstroms):
                    1          2          3          4          5
     1  C    0.000000
     2  H    1.084056   0.000000
     3  H    1.084521   1.865674   0.000000
     4  C    1.324753   2.092487   2.100384   0.000000
     5  C    2.523020   2.756877   3.508971   1.520400   0.000000
     6  F    3.624950   4.046791   4.470018   2.370992   1.342854
     7  F    3.006720   2.925863   4.017919   2.375551   1.355350
     8  F    3.006733   2.925889   4.017927   2.375552   1.355350
     9  F    2.341734   3.320967   2.613081   1.348380   2.392310
                    6          7          8          9
     6  F    0.000000
     7  F    2.181635   0.000000
     8  F    2.181634   2.173673   0.000000
     9  F    2.539918   3.342011   3.341998   0.000000
 Stoichiometry    C3H2F4
 Framework group  C1[X(C3H2F4)]
 Deg. of freedom    21
 Full point group                 C1      NOp   1
 RotChk:  IX=0 Diff= 3.40D-06
 Largest Abelian subgroup         C1      NOp   1
 Largest concise Abelian subgroup C1      NOp   1
                         Standard orientation:                         
 ---------------------------------------------------------------------
 Center     Atomic      Atomic             Coordinates (Angstroms)
 Number     Number       Type             X           Y           Z
 ---------------------------------------------------------------------
      1          6           0        1.679221   -1.120145   -0.000003
      2          1           0        1.216314   -2.100397   -0.000008
      3          1           0        2.761803   -1.055311   -0.000000
      4          6           0        0.930029   -0.027587    0.000000
      5          6           0       -0.590341   -0.018002   -0.000001
      6          9           0       -1.077967    1.233188   -0.000016
      7          9           0       -1.085921   -0.658452   -1.086830
      8          9           0       -1.085923   -0.658425    1.086843
      9          9           0        1.461858    1.211479    0.000006
 ---------------------------------------------------------------------
 Rotational constants (GHZ):           3.6668071           2.4015384           1.9550419
 Leave Link  202 at Thu Apr  2 13:32:39 2026, MaxMem=  2147483648 cpu:               0.0 elap:               0.0
 (Enter /Users/yarger/Applications/g16/l301.exe)
 Standard basis: 6-31+G(d) (6D, 7F)
 Ernie: Thresh=  0.10000D-02 Tol=  0.10000D-05 Strict=F.
 There are   137 symmetry adapted cartesian basis functions of A   symmetry.
 There are   137 symmetry adapted basis functions of A   symmetry.
   137 basis functions,   232 primitive gaussians,   137 cartesian basis functions
    28 alpha electrons       28 beta electrons
       nuclear repulsion energy       330.1407052826 Hartrees.
 IExCor=  402 DFT=T Ex+Corr=B3LYP ExCW=0 ScaHFX=  0.200000
 ScaDFX=  0.800000  0.720000  1.000000  0.810000 ScalE2=  1.000000  1.000000
 IRadAn=      5 IRanWt=     -1 IRanGd=            0 ICorTp=0 IEmpDi=  4
 NAtoms=    9 NActive=    9 NUniq=    9 SFac= 1.00D+00 NAtFMM=   60 NAOKFM=F Big=F
 Integral buffers will be    131072 words long.
 Raffenetti 2 integral format.
 Two-electron integral symmetry is turned on.
 Leave Link  301 at Thu Apr  2 13:32:39 2026, MaxMem=  2147483648 cpu:               0.2 elap:               0.0
 (Enter /Users/yarger/Applications/g16/l302.exe)
 NPDir=0 NMtPBC=     1 NCelOv=     1 NCel=       1 NClECP=     1 NCelD=      1
         NCelK=      1 NCelE2=     1 NClLst=     1 CellRange=     0.0.
 One-electron integrals computed using PRISM.
 One-electron integral symmetry used in STVInt
 NBasis=   137 RedAO= T EigKep=  6.48D-05  NBF=   137
 NBsUse=   137 1.00D-06 EigRej= -1.00D+00 NBFU=   137
 Precomputing XC quadrature grid using
 IXCGrd= 4 IRadAn=           5 IRanWt=          -1 IRanGd=           0 AccXCQ= 0.00D+00.
 Generated NRdTot=       0 NPtTot=           0 NUsed=           0 NTot=          32
 NSgBfM=   137   137   137   137   137 MxSgAt=     9 MxSgA2=     9.
 Leave Link  302 at Thu Apr  2 13:32:39 2026, MaxMem=  2147483648 cpu:               0.8 elap:               0.1
 (Enter /Users/yarger/Applications/g16/l303.exe)
 DipDrv:  MaxL=1.
 Leave Link  303 at Thu Apr  2 13:32:39 2026, MaxMem=  2147483648 cpu:               0.1 elap:               0.0
 (Enter /Users/yarger/Applications/g16/l401.exe)
 Initial guess from the checkpoint file:  "2223Tetrafluoropropene_Opt_Freq_DFT_B3LYP_631pd_Gaussian16.chk"
 B after Tr=    -0.000000    0.000000   -0.000000
         Rot=    1.000000    0.000001    0.000000   -0.000074 Ang=   0.01 deg.
 Guess basis will be translated and rotated to current coordinates.
 JPrj=2 DoOrth=T DoCkMO=T.
 Leave Link  401 at Thu Apr  2 13:32:39 2026, MaxMem=  2147483648 cpu:               0.4 elap:               0.1
 (Enter /Users/yarger/Applications/g16/l502.exe)
 Keep R1 ints in memory in canonical form, NReq=52385408.
 FoFCou: FMM=F IPFlag=           0 FMFlag=           0 FMFlg1=           0
         NFxFlg=           0 DoJE=F BraDBF=F KetDBF=F FulRan=T
         wScrn=  0.000000 ICntrl=       600 IOpCl=  0 I1Cent=           0 NGrid=           0
         NMat0=    1 NMatS0=   9453 NMatT0=    0 NMatD0=    1 NMtDS0=    0 NMtDT0=    0
 Symmetry not used in FoFCou.
 Two-electron integral symmetry not used.
 Closed shell SCF:
 Using DIIS extrapolation, IDIIS=  1040.
 NGot=  2147483648 LenX=  2102759234 LenY=  2102740024
 Requested convergence on RMS density matrix=1.00D-08 within 128 cycles.
 Requested convergence on MAX density matrix=1.00D-06.
 Requested convergence on             energy=1.00D-06.
 No special actions if energy rises.

 Cycle   1  Pass 1  IDiag  1:
 E= -514.887089613201    
 DIIS: error= 1.93D-04 at cycle   1 NSaved=   1.
 NSaved= 1 IEnMin= 1 EnMin= -514.887089613201     IErMin= 1 ErrMin= 1.93D-04
 ErrMax= 1.93D-04  0.00D+00 EMaxC= 1.00D-01 BMatC= 9.73D-06 BMatP= 9.73D-06
 IDIUse=3 WtCom= 9.98D-01 WtEn= 1.93D-03
 Coeff-Com:  0.100D+01
 Coeff-En:   0.100D+01
 Coeff:      0.100D+01
 Gap=     0.674 Goal=   None    Shift=    0.000
 RMSDP=5.50D-05 MaxDP=1.19D-03              OVMax= 1.04D-03

 Cycle   2  Pass 1  IDiag  1:
 E= -514.887102329576     Delta-E=       -0.000012716376 Rises=F Damp=F
 DIIS: error= 4.68D-05 at cycle   2 NSaved=   2.
 NSaved= 2 IEnMin= 2 EnMin= -514.887102329576     IErMin= 2 ErrMin= 4.68D-05
 ErrMax= 4.68D-05  0.00D+00 EMaxC= 1.00D-01 BMatC= 4.74D-07 BMatP= 9.73D-06
 IDIUse=1 WtCom= 1.00D+00 WtEn= 0.00D+00
 Coeff-Com:  0.586D-01 0.941D+00
 Coeff:      0.586D-01 0.941D+00
 Gap=     0.258 Goal=   None    Shift=    0.000
 RMSDP=1.12D-05 MaxDP=2.40D-04 DE=-1.27D-05 OVMax= 2.49D-04

 Cycle   3  Pass 1  IDiag  1:
 E= -514.887102381730     Delta-E=       -0.000000052154 Rises=F Damp=F
 DIIS: error= 5.80D-05 at cycle   3 NSaved=   3.
 NSaved= 3 IEnMin= 3 EnMin= -514.887102381730     IErMin= 2 ErrMin= 4.68D-05
 ErrMax= 5.80D-05  0.00D+00 EMaxC= 1.00D-01 BMatC= 5.23D-07 BMatP= 4.74D-07
 IDIUse=1 WtCom= 1.00D+00 WtEn= 0.00D+00
 Coeff-Com: -0.194D-01 0.516D+00 0.504D+00
 Coeff:     -0.194D-01 0.516D+00 0.504D+00
 Gap=     0.258 Goal=   None    Shift=    0.000
 RMSDP=4.97D-06 MaxDP=1.20D-04 DE=-5.22D-08 OVMax= 1.27D-04

 Cycle   4  Pass 1  IDiag  1:
 E= -514.887102760666     Delta-E=       -0.000000378936 Rises=F Damp=F
 DIIS: error= 1.61D-05 at cycle   4 NSaved=   4.
 NSaved= 4 IEnMin= 4 EnMin= -514.887102760666     IErMin= 4 ErrMin= 1.61D-05
 ErrMax= 1.61D-05  0.00D+00 EMaxC= 1.00D-01 BMatC= 3.19D-08 BMatP= 4.74D-07
 IDIUse=1 WtCom= 1.00D+00 WtEn= 0.00D+00
 Coeff-Com: -0.141D-01 0.219D+00 0.270D+00 0.525D+00
 Coeff:     -0.141D-01 0.219D+00 0.270D+00 0.525D+00
 Gap=     0.258 Goal=   None    Shift=    0.000
 RMSDP=1.01D-06 MaxDP=2.67D-05 DE=-3.79D-07 OVMax= 3.00D-05

 Cycle   5  Pass 1  IDiag  1:
 E= -514.887102779650     Delta-E=       -0.000000018984 Rises=F Damp=F
 DIIS: error= 2.08D-06 at cycle   5 NSaved=   5.
 NSaved= 5 IEnMin= 5 EnMin= -514.887102779650     IErMin= 5 ErrMin= 2.08D-06
 ErrMax= 2.08D-06  0.00D+00 EMaxC= 1.00D-01 BMatC= 9.87D-10 BMatP= 3.19D-08
 IDIUse=1 WtCom= 1.00D+00 WtEn= 0.00D+00
 Coeff-Com: -0.266D-02 0.241D-01 0.455D-01 0.185D+00 0.748D+00
 Coeff:     -0.266D-02 0.241D-01 0.455D-01 0.185D+00 0.748D+00
 Gap=     0.258 Goal=   None    Shift=    0.000
 RMSDP=2.99D-07 MaxDP=5.53D-06 DE=-1.90D-08 OVMax= 6.50D-06

 Cycle   6  Pass 1  IDiag  1:
 E= -514.887102780338     Delta-E=       -0.000000000688 Rises=F Damp=F
 DIIS: error= 4.93D-07 at cycle   6 NSaved=   6.
 NSaved= 6 IEnMin= 6 EnMin= -514.887102780338     IErMin= 6 ErrMin= 4.93D-07
 ErrMax= 4.93D-07  0.00D+00 EMaxC= 1.00D-01 BMatC= 6.44D-11 BMatP= 9.87D-10
 IDIUse=1 WtCom= 1.00D+00 WtEn= 0.00D+00
 Coeff-Com: -0.659D-03 0.255D-02 0.957D-02 0.570D-01 0.307D+00 0.625D+00
 Coeff:     -0.659D-03 0.255D-02 0.957D-02 0.570D-01 0.307D+00 0.625D+00
 Gap=     0.258 Goal=   None    Shift=    0.000
 RMSDP=7.83D-08 MaxDP=2.53D-06 DE=-6.88D-10 OVMax= 3.62D-06

 Cycle   7  Pass 1  IDiag  1:
 E= -514.887102780394     Delta-E=       -0.000000000056 Rises=F Damp=F
 DIIS: error= 2.06D-07 at cycle   7 NSaved=   7.
 NSaved= 7 IEnMin= 7 EnMin= -514.887102780394     IErMin= 7 ErrMin= 2.06D-07
 ErrMax= 2.06D-07  0.00D+00 EMaxC= 1.00D-01 BMatC= 1.14D-11 BMatP= 6.44D-11
 IDIUse=1 WtCom= 1.00D+00 WtEn= 0.00D+00
 Coeff-Com: -0.456D-04-0.152D-02-0.244D-03 0.103D-01 0.830D-01 0.331D+00
 Coeff-Com:  0.578D+00
 Coeff:     -0.456D-04-0.152D-02-0.244D-03 0.103D-01 0.830D-01 0.331D+00
 Coeff:      0.578D+00
 Gap=     0.258 Goal=   None    Shift=    0.000
 RMSDP=2.19D-08 MaxDP=8.71D-07 DE=-5.56D-11 OVMax= 1.42D-06

 Cycle   8  Pass 1  IDiag  1:
 E= -514.887102780396     Delta-E=       -0.000000000002 Rises=F Damp=F
 DIIS: error= 5.00D-08 at cycle   8 NSaved=   8.
 NSaved= 8 IEnMin= 8 EnMin= -514.887102780396     IErMin= 8 ErrMin= 5.00D-08
 ErrMax= 5.00D-08  0.00D+00 EMaxC= 1.00D-01 BMatC= 8.37D-13 BMatP= 1.14D-11
 IDIUse=1 WtCom= 1.00D+00 WtEn= 0.00D+00
 Coeff-Com:  0.172D-04-0.884D-03-0.697D-03 0.189D-02 0.239D-01 0.137D+00
 Coeff-Com:  0.300D+00 0.539D+00
 Coeff:      0.172D-04-0.884D-03-0.697D-03 0.189D-02 0.239D-01 0.137D+00
 Coeff:      0.300D+00 0.539D+00
 Gap=     0.258 Goal=   None    Shift=    0.000
 RMSDP=7.27D-09 MaxDP=3.34D-07 DE=-1.93D-12 OVMax= 5.87D-07

 SCF Done:  E(RB3LYP) =  -514.887102780     A.U. after    8 cycles
            NFock=  8  Conv=0.73D-08     -V/T= 2.0080
 KE= 5.108013541209D+02 PE=-1.878280091936D+03 EE= 5.224509297525D+02
 Leave Link  502 at Thu Apr  2 13:32:42 2026, MaxMem=  2147483648 cpu:              16.7 elap:               2.4
 (Enter /Users/yarger/Applications/g16/l701.exe)
 ... and contract with generalized density number  0.
 Compute integral first derivatives.
 Leave Link  701 at Thu Apr  2 13:32:42 2026, MaxMem=  2147483648 cpu:               0.6 elap:               0.1
 (Enter /Users/yarger/Applications/g16/l702.exe)
 L702 exits ... SP integral derivatives will be done elsewhere.
 Leave Link  702 at Thu Apr  2 13:32:42 2026, MaxMem=  2147483648 cpu:               0.1 elap:               0.0
 (Enter /Users/yarger/Applications/g16/l703.exe)
 Integral derivatives from FoFJK, PRISM(SPDF).
 Compute integral first derivatives, UseDBF=F ICtDFT=           0.
 Calling FoFJK, ICntrl=      2127 FMM=F ISym2X=0 I1Cent= 0 IOpClX= 0 NMat=1 NMatS=1 NMatT=0.
 FoFJK:  IHMeth= 1 ICntrl=    2127 DoSepK=F KAlg= 0 I1Cent=           0 FoldK=F
 IRaf=         0 NMat=       1 IRICut=       1 DoRegI=T DoRafI=F ISym2E= 0 IDoP0=0 IntGTp=1.
 FoFCou: FMM=F IPFlag=           0 FMFlag=      100000 FMFlg1=         800
         NFxFlg=           0 DoJE=F BraDBF=F KetDBF=F FulRan=T
         wScrn=  0.000000 ICntrl=      2127 IOpCl=  0 I1Cent=           0 NGrid=           0
         NMat0=    1 NMatS0=      1 NMatT0=    0 NMatD0=    1 NMtDS0=    0 NMtDT0=    0
 Symmetry not used in FoFCou.
 Leave Link  703 at Thu Apr  2 13:32:43 2026, MaxMem=  2147483648 cpu:               6.4 elap:               0.9
 (Enter /Users/yarger/Applications/g16/l716.exe)
 Dipole        = 6.69496650D-01-6.03705759D-01-2.63448605D-06
 ***** Axes restored to original set *****
 -------------------------------------------------------------------
 Center     Atomic                   Forces (Hartrees/Bohr)
 Number     Number              X              Y              Z
 -------------------------------------------------------------------
      1        6           0.000653154    0.000393726    0.000000053
      2        1          -0.000315376   -0.000150822    0.000000009
      3        1          -0.000090112   -0.000239632   -0.000000013
      4        6          -0.000196926    0.000181776    0.000000052
      5        6          -0.000503910   -0.000716173    0.000000001
      6        9           0.000186642    0.000263434    0.000000024
      7        9           0.000142386    0.000110050    0.000055343
      8        9           0.000142348    0.000109968   -0.000055396
      9        9          -0.000018206    0.000047673   -0.000000072
 -------------------------------------------------------------------
 Cartesian Forces:  Max     0.000716173 RMS     0.000257174
 Leave Link  716 at Thu Apr  2 13:32:43 2026, MaxMem=  2147483648 cpu:               0.1 elap:               0.0
 (Enter /Users/yarger/Applications/g16/l103.exe)

 GradGradGradGradGradGradGradGradGradGradGradGradGradGradGradGradGradGrad
 Berny optimization.
 Using GEDIIS/GDIIS optimizer.
 FormGI is forming the generalized inverse of G from B-inverse, IUseBI=4.
 Internal  Forces:  Max     0.000407401 RMS     0.000152698
 Search for a local minimum.
 Step number   4 out of a maximum of   40
 All quantities printed in internal units (Hartrees-Bohrs-Radians)
 RMS Force = .15270D-03 SwitMx=.10000D-02 MixMth= 2
 Mixed Optimization -- En-DIIS/RFO-DIIS
 Swapping is turned off.
 Update second derivatives using D2CorX and points    1    2    3    4
 DE= -3.38D-05 DEPred=-2.92D-05 R= 1.16D+00
 TightC=F SS=  1.41D+00  RLast= 1.77D-02 DXNew= 8.4853D-01 5.3028D-02
 Trust test= 1.16D+00 RLast= 1.77D-02 DXMaxT set to 5.05D-01
 ITU=  1  1  1  0
     Eigenvalues ---    0.00610   0.01687   0.03046   0.03046   0.10250
     Eigenvalues ---    0.10748   0.11885   0.16006   0.24769   0.24999
     Eigenvalues ---    0.25000   0.25665   0.31039   0.35174   0.35370
     Eigenvalues ---    0.41632   0.56065   0.56547   0.58251   0.59569
     Eigenvalues ---    0.59947
 En-DIIS/RFO-DIIS/Sim-DIIS IScMMF=       -3 using points:     4    3
 RFO step:  Lambda=-4.41227630D-06.
 NNeg= 0 NGDIIS= 2 SimSw=  2.50D-01 Rises=F DC= -3.38D-05 SmlDif=  1.00D-05
 NRisDI= 0 DoIntr=F SqrtH=F CThrHd= 10.0 CDAdj=  3.0
 RMS Error=  0.1100551303D-02 NUsed= 2 OKEnD=T EnDIS=F
 InvSVX:  RCond= 7.81D-05 Info=           0 Equed=N FErr=  1.62D-15 BErr=  2.20D-17
 DidBck=F Rises=F RFO-DIIS coefs:    1.26348   -0.26348
 Iteration  1 RMS(Cart)=  0.00106073 RMS(Int)=  0.00000152
 Iteration  2 RMS(Cart)=  0.00000138 RMS(Int)=  0.00000042
 Iteration  3 RMS(Cart)=  0.00000000 RMS(Int)=  0.00000042
 ITry= 1 IFail=0 DXMaxC= 4.17D-03 DCOld= 1.00D+10 DXMaxT= 5.05D-01 DXLimC= 3.00D+00 Rises=F
 Variable       Old X    -DE/DX   Delta X   Delta X   Delta X     New X
                                 (Linear)    (Quad)   (Total)
    R1        2.04857  -0.00001  -0.00017   0.00006  -0.00010   2.04847
    R2        2.04945  -0.00007  -0.00019  -0.00008  -0.00028   2.04917
    R3        2.50342   0.00015   0.00040  -0.00002   0.00038   2.50380
    R4        2.87314   0.00003  -0.00061   0.00091   0.00030   2.87344
    R5        2.54807  -0.00005   0.00022  -0.00017   0.00005   2.54812
    R6        2.53763  -0.00032  -0.00119   0.00024  -0.00095   2.53667
    R7        2.56124   0.00005  -0.00052   0.00049  -0.00002   2.56122
    R8        2.56124   0.00005  -0.00052   0.00049  -0.00002   2.56122
    A1        2.07180   0.00041   0.00332   0.00078   0.00410   2.07590
    A2        2.09932  -0.00031  -0.00224  -0.00076  -0.00300   2.09633
    A3        2.11206  -0.00010  -0.00109  -0.00001  -0.00110   2.11096
    A4        2.17818   0.00019   0.00020   0.00069   0.00090   2.17908
    A5        2.13507  -0.00010   0.00074  -0.00108  -0.00034   2.13474
    A6        1.96993  -0.00010  -0.00095   0.00038  -0.00056   1.96937
    A7        1.94872   0.00002  -0.00004   0.00072   0.00067   1.94940
    A8        1.94192  -0.00025   0.00017  -0.00123  -0.00106   1.94086
    A9        1.94192  -0.00025   0.00017  -0.00123  -0.00106   1.94086
   A10        1.88335   0.00018  -0.00024   0.00109   0.00085   1.88421
   A11        1.88335   0.00018  -0.00024   0.00109   0.00085   1.88421
   A12        1.86089   0.00015   0.00015  -0.00035  -0.00020   1.86070
    D1        0.00000   0.00000   0.00000   0.00000   0.00000   0.00000
    D2       -3.14159  -0.00000   0.00000  -0.00000  -0.00000   3.14159
    D3       -3.14159   0.00000   0.00000   0.00000   0.00000  -3.14159
    D4       -0.00000   0.00000   0.00000  -0.00000  -0.00000  -0.00000
    D5       -3.14158   0.00000   0.00000   0.00001   0.00001  -3.14157
    D6       -1.03617   0.00007  -0.00021   0.00104   0.00083  -1.03534
    D7        1.03620  -0.00007   0.00021  -0.00102  -0.00081   1.03539
    D8        0.00002   0.00000   0.00000   0.00001   0.00001   0.00003
    D9        2.10543   0.00007  -0.00021   0.00104   0.00083   2.10625
   D10       -2.10539  -0.00007   0.00021  -0.00102  -0.00081  -2.10620
         Item               Value     Threshold  Converged?
 Maximum Force            0.000407     0.000015     NO 
 RMS     Force            0.000153     0.000010     NO 
 Maximum Displacement     0.004174     0.000060     NO 
 RMS     Displacement     0.001061     0.000040     NO 
 Predicted change in Energy=-2.205627D-06
 Lowest energy point so far.  Saving SCF results.
 GradGradGradGradGradGradGradGradGradGradGradGradGradGradGradGradGradGrad

 Leave Link  103 at Thu Apr  2 13:32:43 2026, MaxMem=  2147483648 cpu:               0.1 elap:               0.0
 (Enter /Users/yarger/Applications/g16/l202.exe)
                          Input orientation:                          
 ---------------------------------------------------------------------
 Center     Atomic      Atomic             Coordinates (Angstroms)
 Number     Number       Type             X           Y           Z
 ---------------------------------------------------------------------
      1          6           0        1.732961    1.068879    0.000004
      2          1           0        1.301158    2.063166    0.000013
      3          1           0        2.812405    0.965589   -0.000001
      4          6           0        0.946431    0.002636   -0.000003
      5          6           0       -0.573563    0.044107   -0.000001
      6          9           0       -1.103556   -1.189185    0.000022
      7          9           0       -1.045987    0.701952    1.086737
      8          9           0       -1.045992    0.701913   -1.086760
      9          9           0        1.435662   -1.253891   -0.000015
 ---------------------------------------------------------------------
                    Distance matrix (angstroms):
                    1          2          3          4          5
     1  C    0.000000
     2  H    1.084001   0.000000
     3  H    1.084375   1.867764   0.000000
     4  C    1.324955   2.090841   2.099795   0.000000
     5  C    2.523927   2.755209   3.509118   1.520560   0.000000
     6  F    3.625559   4.044803   4.469654   2.371262   1.342349
     7  F    3.006356   2.922834   4.017175   2.374821   1.355338
     8  F    3.006375   2.922874   4.017188   2.374822   1.355338
     9  F    2.341719   3.319783   2.611803   1.348409   2.392026
                    6          7          8          9
     6  F    0.000000
     7  F    2.181894   0.000000
     8  F    2.181894   2.173497   0.000000
     9  F    2.540043   3.341397   3.341376   0.000000
 Stoichiometry    C3H2F4
 Framework group  C1[X(C3H2F4)]
 Deg. of freedom    21
 Full point group                 C1      NOp   1
 RotChk:  IX=0 Diff= 3.82D-04
 Largest Abelian subgroup         C1      NOp   1
 Largest concise Abelian subgroup C1      NOp   1
                         Standard orientation:                         
 ---------------------------------------------------------------------
 Center     Atomic      Atomic             Coordinates (Angstroms)
 Number     Number       Type             X           Y           Z
 ---------------------------------------------------------------------
      1          6           0        1.679707   -1.119882   -0.000006
      2          1           0        1.214437   -2.098954   -0.000016
      3          1           0        2.762033   -1.053256   -0.000002
      4          6           0        0.929786   -0.027581    0.000000
      5          6           0       -0.590740   -0.017486   -0.000002
      6          9           0       -1.078607    1.233069   -0.000024
      7          9           0       -1.085200   -0.658932   -1.086739
      8          9           0       -1.085203   -0.658893    1.086758
      9          9           0        1.461345    1.211634    0.000012
 ---------------------------------------------------------------------
 Rotational constants (GHZ):           3.6667403           2.4021580           1.9553231
 Leave Link  202 at Thu Apr  2 13:32:43 2026, MaxMem=  2147483648 cpu:               0.0 elap:               0.0
 (Enter /Users/yarger/Applications/g16/l301.exe)
 Standard basis: 6-31+G(d) (6D, 7F)
 Ernie: Thresh=  0.10000D-02 Tol=  0.10000D-05 Strict=F.
 There are   137 symmetry adapted cartesian basis functions of A   symmetry.
 There are   137 symmetry adapted basis functions of A   symmetry.
   137 basis functions,   232 primitive gaussians,   137 cartesian basis functions
    28 alpha electrons       28 beta electrons
       nuclear repulsion energy       330.1600775340 Hartrees.
 IExCor=  402 DFT=T Ex+Corr=B3LYP ExCW=0 ScaHFX=  0.200000
 ScaDFX=  0.800000  0.720000  1.000000  0.810000 ScalE2=  1.000000  1.000000
 IRadAn=      5 IRanWt=     -1 IRanGd=            0 ICorTp=0 IEmpDi=  4
 NAtoms=    9 NActive=    9 NUniq=    9 SFac= 1.00D+00 NAtFMM=   60 NAOKFM=F Big=F
 Integral buffers will be    131072 words long.
 Raffenetti 2 integral format.
 Two-electron integral symmetry is turned on.
 Leave Link  301 at Thu Apr  2 13:32:43 2026, MaxMem=  2147483648 cpu:               0.2 elap:               0.0
 (Enter /Users/yarger/Applications/g16/l302.exe)
 NPDir=0 NMtPBC=     1 NCelOv=     1 NCel=       1 NClECP=     1 NCelD=      1
         NCelK=      1 NCelE2=     1 NClLst=     1 CellRange=     0.0.
 One-electron integrals computed using PRISM.
 One-electron integral symmetry used in STVInt
 NBasis=   137 RedAO= T EigKep=  6.47D-05  NBF=   137
 NBsUse=   137 1.00D-06 EigRej= -1.00D+00 NBFU=   137
 Precomputing XC quadrature grid using
 IXCGrd= 4 IRadAn=           5 IRanWt=          -1 IRanGd=           0 AccXCQ= 0.00D+00.
 Generated NRdTot=       0 NPtTot=           0 NUsed=           0 NTot=          32
 NSgBfM=   137   137   137   137   137 MxSgAt=     9 MxSgA2=     9.
 Leave Link  302 at Thu Apr  2 13:32:43 2026, MaxMem=  2147483648 cpu:               0.8 elap:               0.1
 (Enter /Users/yarger/Applications/g16/l303.exe)
 DipDrv:  MaxL=1.
 Leave Link  303 at Thu Apr  2 13:32:43 2026, MaxMem=  2147483648 cpu:               0.1 elap:               0.0
 (Enter /Users/yarger/Applications/g16/l401.exe)
 Initial guess from the checkpoint file:  "2223Tetrafluoropropene_Opt_Freq_DFT_B3LYP_631pd_Gaussian16.chk"
 B after Tr=     0.000000    0.000000    0.000000
         Rot=    1.000000    0.000001    0.000000   -0.000157 Ang=   0.02 deg.
 Guess basis will be translated and rotated to current coordinates.
 JPrj=2 DoOrth=T DoCkMO=T.
 Leave Link  401 at Thu Apr  2 13:32:43 2026, MaxMem=  2147483648 cpu:               0.4 elap:               0.1
 (Enter /Users/yarger/Applications/g16/l502.exe)
 Keep R1 ints in memory in canonical form, NReq=52385408.
 FoFCou: FMM=F IPFlag=           0 FMFlag=           0 FMFlg1=           0
         NFxFlg=           0 DoJE=F BraDBF=F KetDBF=F FulRan=T
         wScrn=  0.000000 ICntrl=       600 IOpCl=  0 I1Cent=           0 NGrid=           0
         NMat0=    1 NMatS0=   9453 NMatT0=    0 NMatD0=    1 NMtDS0=    0 NMtDT0=    0
 Symmetry not used in FoFCou.
 Two-electron integral symmetry not used.
 Closed shell SCF:
 Using DIIS extrapolation, IDIIS=  1040.
 NGot=  2147483648 LenX=  2102759234 LenY=  2102740024
 Requested convergence on RMS density matrix=1.00D-08 within 128 cycles.
 Requested convergence on MAX density matrix=1.00D-06.
 Requested convergence on             energy=1.00D-06.
 No special actions if energy rises.

 Cycle   1  Pass 1  IDiag  1:
 E= -514.887103615204    
 DIIS: error= 6.00D-05 at cycle   1 NSaved=   1.
 NSaved= 1 IEnMin= 1 EnMin= -514.887103615204     IErMin= 1 ErrMin= 6.00D-05
 ErrMax= 6.00D-05  0.00D+00 EMaxC= 1.00D-01 BMatC= 9.32D-07 BMatP= 9.32D-07
 IDIUse=1 WtCom= 1.00D+00 WtEn= 0.00D+00
 Coeff-Com:  0.100D+01
 Coeff:      0.100D+01
 Gap=     0.674 Goal=   None    Shift=    0.000
 RMSDP=1.56D-05 MaxDP=2.73D-04              OVMax= 2.60D-04

 Cycle   2  Pass 1  IDiag  1:
 E= -514.887104894732     Delta-E=       -0.000001279527 Rises=F Damp=F
 DIIS: error= 2.20D-05 at cycle   2 NSaved=   2.
 NSaved= 2 IEnMin= 2 EnMin= -514.887104894732     IErMin= 2 ErrMin= 2.20D-05
 ErrMax= 2.20D-05  0.00D+00 EMaxC= 1.00D-01 BMatC= 7.65D-08 BMatP= 9.32D-07
 IDIUse=1 WtCom= 1.00D+00 WtEn= 0.00D+00
 Coeff-Com:  0.879D-01 0.912D+00
 Coeff:      0.879D-01 0.912D+00
 Gap=     0.258 Goal=   None    Shift=    0.000
 RMSDP=3.22D-06 MaxDP=9.43D-05 DE=-1.28D-06 OVMax= 7.99D-05

 Cycle   3  Pass 1  IDiag  1:
 E= -514.887104876444     Delta-E=        0.000000018287 Rises=F Damp=F
 DIIS: error= 3.11D-05 at cycle   3 NSaved=   3.
 NSaved= 3 IEnMin= 2 EnMin= -514.887104894732     IErMin= 2 ErrMin= 2.20D-05
 ErrMax= 3.11D-05  0.00D+00 EMaxC= 1.00D-01 BMatC= 1.12D-07 BMatP= 7.65D-08
 IDIUse=1 WtCom= 1.00D+00 WtEn= 0.00D+00
 Coeff-Com: -0.222D-01 0.557D+00 0.466D+00
 Coeff:     -0.222D-01 0.557D+00 0.466D+00
 Gap=     0.258 Goal=   None    Shift=    0.000
 RMSDP=1.81D-06 MaxDP=5.74D-05 DE= 1.83D-08 OVMax= 5.07D-05

 Cycle   4  Pass 1  IDiag  1:
 E= -514.887104944927     Delta-E=       -0.000000068483 Rises=F Damp=F
 DIIS: error= 2.65D-06 at cycle   4 NSaved=   4.
 NSaved= 4 IEnMin= 4 EnMin= -514.887104944927     IErMin= 4 ErrMin= 2.65D-06
 ErrMax= 2.65D-06  0.00D+00 EMaxC= 1.00D-01 BMatC= 1.57D-09 BMatP= 7.65D-08
 IDIUse=1 WtCom= 1.00D+00 WtEn= 0.00D+00
 Coeff-Com: -0.104D-01 0.130D+00 0.172D+00 0.709D+00
 Coeff:     -0.104D-01 0.130D+00 0.172D+00 0.709D+00
 Gap=     0.258 Goal=   None    Shift=    0.000
 RMSDP=3.87D-07 MaxDP=7.61D-06 DE=-6.85D-08 OVMax= 1.66D-05

 Cycle   5  Pass 1  IDiag  1:
 E= -514.887104945972     Delta-E=       -0.000000001045 Rises=F Damp=F
 DIIS: error= 7.76D-07 at cycle   5 NSaved=   5.
 NSaved= 5 IEnMin= 5 EnMin= -514.887104945972     IErMin= 5 ErrMin= 7.76D-07
 ErrMax= 7.76D-07  0.00D+00 EMaxC= 1.00D-01 BMatC= 1.85D-10 BMatP= 1.57D-09
 IDIUse=1 WtCom= 1.00D+00 WtEn= 0.00D+00
 Coeff-Com: -0.404D-02 0.421D-01 0.692D-01 0.363D+00 0.530D+00
 Coeff:     -0.404D-02 0.421D-01 0.692D-01 0.363D+00 0.530D+00
 Gap=     0.258 Goal=   None    Shift=    0.000
 RMSDP=1.19D-07 MaxDP=4.68D-06 DE=-1.05D-09 OVMax= 9.77D-06

 Cycle   6  Pass 1  IDiag  1:
 E= -514.887104946116     Delta-E=       -0.000000000144 Rises=F Damp=F
 DIIS: error= 3.01D-07 at cycle   6 NSaved=   6.
 NSaved= 6 IEnMin= 6 EnMin= -514.887104946116     IErMin= 6 ErrMin= 3.01D-07
 ErrMax= 3.01D-07  0.00D+00 EMaxC= 1.00D-01 BMatC= 2.84D-11 BMatP= 1.85D-10
 IDIUse=1 WtCom= 1.00D+00 WtEn= 0.00D+00
 Coeff-Com: -0.103D-02 0.506D-02 0.169D-01 0.122D+00 0.312D+00 0.545D+00
 Coeff:     -0.103D-02 0.506D-02 0.169D-01 0.122D+00 0.312D+00 0.545D+00
 Gap=     0.258 Goal=   None    Shift=    0.000
 RMSDP=4.16D-08 MaxDP=1.69D-06 DE=-1.44D-10 OVMax= 3.33D-06

 Cycle   7  Pass 1  IDiag  1:
 E= -514.887104946150     Delta-E=       -0.000000000034 Rises=F Damp=F
 DIIS: error= 9.23D-08 at cycle   7 NSaved=   7.
 NSaved= 7 IEnMin= 7 EnMin= -514.887104946150     IErMin= 7 ErrMin= 9.23D-08
 ErrMax= 9.23D-08  0.00D+00 EMaxC= 1.00D-01 BMatC= 2.41D-12 BMatP= 2.84D-11
 IDIUse=1 WtCom= 1.00D+00 WtEn= 0.00D+00
 Coeff-Com: -0.398D-04-0.252D-02 0.173D-03 0.171D-01 0.994D-01 0.285D+00
 Coeff-Com:  0.601D+00
 Coeff:     -0.398D-04-0.252D-02 0.173D-03 0.171D-01 0.994D-01 0.285D+00
 Coeff:      0.601D+00
 Gap=     0.258 Goal=   None    Shift=    0.000
 RMSDP=1.21D-08 MaxDP=3.28D-07 DE=-3.37D-11 OVMax= 6.59D-07

 Cycle   8  Pass 1  IDiag  1:
 E= -514.887104946144     Delta-E=        0.000000000006 Rises=F Damp=F
 DIIS: error= 3.25D-08 at cycle   8 NSaved=   8.
 NSaved= 8 IEnMin= 7 EnMin= -514.887104946150     IErMin= 8 ErrMin= 3.25D-08
 ErrMax= 3.25D-08  0.00D+00 EMaxC= 1.00D-01 BMatC= 1.56D-13 BMatP= 2.41D-12
 IDIUse=1 WtCom= 1.00D+00 WtEn= 0.00D+00
 Coeff-Com:  0.421D-04-0.158D-02-0.950D-03 0.181D-02 0.316D-01 0.104D+00
 Coeff-Com:  0.292D+00 0.573D+00
 Coeff:      0.421D-04-0.158D-02-0.950D-03 0.181D-02 0.316D-01 0.104D+00
 Coeff:      0.292D+00 0.573D+00
 Gap=     0.258 Goal=   None    Shift=    0.000
 RMSDP=2.49D-09 MaxDP=6.63D-08 DE= 5.68D-12 OVMax= 6.11D-08

 SCF Done:  E(RB3LYP) =  -514.887104946     A.U. after    8 cycles
            NFock=  8  Conv=0.25D-08     -V/T= 2.0080
 KE= 5.108022856454D+02 PE=-1.878318635439D+03 EE= 5.224691673130D+02
 Leave Link  502 at Thu Apr  2 13:32:46 2026, MaxMem=  2147483648 cpu:              16.3 elap:               2.3
 (Enter /Users/yarger/Applications/g16/l701.exe)
 ... and contract with generalized density number  0.
 Compute integral first derivatives.
 Leave Link  701 at Thu Apr  2 13:32:46 2026, MaxMem=  2147483648 cpu:               0.5 elap:               0.1
 (Enter /Users/yarger/Applications/g16/l702.exe)
 L702 exits ... SP integral derivatives will be done elsewhere.
 Leave Link  702 at Thu Apr  2 13:32:46 2026, MaxMem=  2147483648 cpu:               0.1 elap:               0.0
 (Enter /Users/yarger/Applications/g16/l703.exe)
 Integral derivatives from FoFJK, PRISM(SPDF).
 Compute integral first derivatives, UseDBF=F ICtDFT=           0.
 Calling FoFJK, ICntrl=      2127 FMM=F ISym2X=0 I1Cent= 0 IOpClX= 0 NMat=1 NMatS=1 NMatT=0.
 FoFJK:  IHMeth= 1 ICntrl=    2127 DoSepK=F KAlg= 0 I1Cent=           0 FoldK=F
 IRaf=         0 NMat=       1 IRICut=       1 DoRegI=T DoRafI=F ISym2E= 0 IDoP0=0 IntGTp=1.
 FoFCou: FMM=F IPFlag=           0 FMFlag=      100000 FMFlg1=         800
         NFxFlg=           0 DoJE=F BraDBF=F KetDBF=F FulRan=T
         wScrn=  0.000000 ICntrl=      2127 IOpCl=  0 I1Cent=           0 NGrid=           0
         NMat0=    1 NMatS0=      1 NMatT0=    0 NMatD0=    1 NMtDS0=    0 NMtDT0=    0
 Symmetry not used in FoFCou.
 Leave Link  703 at Thu Apr  2 13:32:47 2026, MaxMem=  2147483648 cpu:               6.4 elap:               0.9
 (Enter /Users/yarger/Applications/g16/l716.exe)
 Dipole        = 6.67168262D-01-6.00964659D-01-4.96617932D-06
 ***** Axes restored to original set *****
 -------------------------------------------------------------------
 Center     Atomic                   Forces (Hartrees/Bohr)
 Number     Number              X              Y              Z
 -------------------------------------------------------------------
      1        6           0.000007254   -0.000018557    0.000000073
      2        1           0.000009830    0.000020903    0.000000029
      3        1          -0.000013680   -0.000005410   -0.000000017
      4        6          -0.000020501    0.000025763    0.000000056
      5        6           0.000018568   -0.000160260    0.000000045
      6        9           0.000059489    0.000121800    0.000000037
      7        9          -0.000040641    0.000023833    0.000134629
      8        9          -0.000040715    0.000023716   -0.000134749
      9        9           0.000020395   -0.000031788   -0.000000102
 -------------------------------------------------------------------
 Cartesian Forces:  Max     0.000160260 RMS     0.000057343
 Leave Link  716 at Thu Apr  2 13:32:47 2026, MaxMem=  2147483648 cpu:               0.1 elap:               0.0
 (Enter /Users/yarger/Applications/g16/l103.exe)

 GradGradGradGradGradGradGradGradGradGradGradGradGradGradGradGradGradGrad
 Berny optimization.
 Using GEDIIS/GDIIS optimizer.
 FormGI is forming the generalized inverse of G from B-inverse, IUseBI=4.
 Internal  Forces:  Max     0.000135530 RMS     0.000047497
 Search for a local minimum.
 Step number   5 out of a maximum of   40
 All quantities printed in internal units (Hartrees-Bohrs-Radians)
 RMS Force = .47497D-04 SwitMx=.10000D-02 MixMth= 2
 Mixed Optimization -- En-DIIS/RFO-DIIS
 Swapping is turned off.
 Update second derivatives using D2CorX and points    1    2    3    4    5
 DE= -2.17D-06 DEPred=-2.21D-06 R= 9.82D-01
 TightC=F SS=  1.41D+00  RLast= 6.03D-03 DXNew= 8.4853D-01 1.8085D-02
 Trust test= 9.82D-01 RLast= 6.03D-03 DXMaxT set to 5.05D-01
 ITU=  1  1  1  1  0
     Eigenvalues ---    0.00610   0.01687   0.03046   0.03046   0.10477
     Eigenvalues ---    0.10744   0.12096   0.16135   0.24526   0.25000
     Eigenvalues ---    0.25050   0.25640   0.30941   0.35145   0.35384
     Eigenvalues ---    0.41921   0.54370   0.56547   0.58434   0.59670
     Eigenvalues ---    0.60867
 En-DIIS/RFO-DIIS/Sim-DIIS IScMMF=       -3 using points:     5    4    3
 RFO step:  Lambda=-1.78900285D-07.
 NNeg= 0 NGDIIS= 3 SimSw=  2.50D-01 Rises=F DC= -2.17D-06 SmlDif=  1.00D-05
 NRisDI= 0 DoIntr=F SqrtH=F CThrHd= 10.0 CDAdj=  3.0
 RMS Error=  0.1604859190D-03 NUsed= 3 OKEnD=F EnDIS=F
 InvSVX:  RCond= 1.70D-06 Info=           0 Equed=N FErr=  2.15D-15 BErr=  6.68D-18
 DidBck=F Rises=F RFO-DIIS coefs:    0.89758    0.14170   -0.03928
 Iteration  1 RMS(Cart)=  0.00023931 RMS(Int)=  0.00000005
 Iteration  2 RMS(Cart)=  0.00000003 RMS(Int)=  0.00000005
 ITry= 1 IFail=0 DXMaxC= 4.65D-04 DCOld= 1.00D+10 DXMaxT= 5.05D-01 DXLimC= 3.00D+00 Rises=F
 Variable       Old X    -DE/DX   Delta X   Delta X   Delta X     New X
                                 (Linear)    (Quad)   (Total)
    R1        2.04847   0.00002  -0.00001   0.00005   0.00003   2.04850
    R2        2.04917  -0.00001  -0.00000  -0.00004  -0.00004   2.04913
    R3        2.50380  -0.00000   0.00002  -0.00001   0.00001   2.50381
    R4        2.87344   0.00000  -0.00012   0.00016   0.00003   2.87348
    R5        2.54812   0.00004   0.00003   0.00003   0.00006   2.54818
    R6        2.53667  -0.00014  -0.00008  -0.00016  -0.00024   2.53643
    R7        2.56122   0.00013  -0.00007   0.00028   0.00021   2.56142
    R8        2.56122   0.00013  -0.00007   0.00028   0.00021   2.56142
    A1        2.07590  -0.00001   0.00008   0.00001   0.00008   2.07599
    A2        2.09633   0.00003  -0.00003   0.00009   0.00007   2.09639
    A3        2.11096  -0.00002  -0.00005  -0.00010  -0.00015   2.11081
    A4        2.17908   0.00004  -0.00006   0.00022   0.00016   2.17924
    A5        2.13474  -0.00003   0.00015  -0.00026  -0.00012   2.13462
    A6        1.96937  -0.00001  -0.00008   0.00004  -0.00004   1.96932
    A7        1.94940  -0.00003  -0.00008  -0.00008  -0.00015   1.94924
    A8        1.94086   0.00000   0.00013  -0.00010   0.00004   1.94090
    A9        1.94086   0.00000   0.00013  -0.00010   0.00004   1.94090
   A10        1.88421  -0.00001  -0.00012  -0.00000  -0.00013   1.88408
   A11        1.88421  -0.00001  -0.00012  -0.00001  -0.00013   1.88408
   A12        1.86070   0.00005   0.00004   0.00030   0.00034   1.86104
    D1        0.00000   0.00000  -0.00000   0.00000   0.00000   0.00000
    D2        3.14159   0.00000   0.00000   0.00000   0.00000  -3.14159
    D3       -3.14159   0.00000  -0.00000   0.00000   0.00000  -3.14159
    D4       -0.00000   0.00000   0.00000  -0.00000  -0.00000  -0.00000
    D5       -3.14157   0.00000  -0.00000   0.00001   0.00001  -3.14156
    D6       -1.03534  -0.00003  -0.00012  -0.00011  -0.00023  -1.03557
    D7        1.03539   0.00003   0.00011   0.00014   0.00025   1.03564
    D8        0.00003   0.00000  -0.00000   0.00001   0.00001   0.00004
    D9        2.10625  -0.00003  -0.00012  -0.00011  -0.00023   2.10602
   D10       -2.10620   0.00003   0.00011   0.00014   0.00025  -2.10595
         Item               Value     Threshold  Converged?
 Maximum Force            0.000136     0.000015     NO 
 RMS     Force            0.000047     0.000010     NO 
 Maximum Displacement     0.000465     0.000060     NO 
 RMS     Displacement     0.000239     0.000040     NO 
 Predicted change in Energy=-8.861649D-08
 Lowest energy point so far.  Saving SCF results.
 GradGradGradGradGradGradGradGradGradGradGradGradGradGradGradGradGradGrad

 Leave Link  103 at Thu Apr  2 13:32:47 2026, MaxMem=  2147483648 cpu:               0.2 elap:               0.0
 (Enter /Users/yarger/Applications/g16/l202.exe)
                          Input orientation:                          
 ---------------------------------------------------------------------
 Center     Atomic      Atomic             Coordinates (Angstroms)
 Number     Number       Type             X           Y           Z
 ---------------------------------------------------------------------
      1          6           0        1.733033    1.068928    0.000006
      2          1           0        1.301404    2.063309    0.000022
      3          1           0        2.812429    0.965353   -0.000000
      4          6           0        0.946378    0.002770   -0.000004
      5          6           0       -0.573637    0.044174   -0.000001
      6          9           0       -1.103337   -1.189105    0.000030
      7          9           0       -1.046182    0.701788    1.086958
      8          9           0       -1.046189    0.701735   -1.086990
      9          9           0        1.435622   -1.253785   -0.000024
 ---------------------------------------------------------------------
                    Distance matrix (angstroms):
                    1          2          3          4          5
     1  C    0.000000
     2  H    1.084019   0.000000
     3  H    1.084354   1.867807   0.000000
     4  C    1.324960   2.090901   2.099694   0.000000
     5  C    2.524054   2.755483   3.509132   1.520578   0.000000
     6  F    3.625426   4.044871   4.469330   2.371054   1.342222
     7  F    3.006708   2.923411   4.017440   2.374955   1.355447
     8  F    3.006737   2.923469   4.017459   2.374956   1.355447
     9  F    2.341677   3.319809   2.611546   1.348440   2.392032
                    6          7          8          9
     6  F    0.000000
     7  F    2.181779   0.000000
     8  F    2.181778   2.173949   0.000000
     9  F    2.539783   3.341429   3.341398   0.000000
 Stoichiometry    C3H2F4
 Framework group  C1[X(C3H2F4)]
 Deg. of freedom    21
 Full point group                 C1      NOp   1
 RotChk:  IX=0 Diff= 5.39D-05
 Largest Abelian subgroup         C1      NOp   1
 Largest concise Abelian subgroup C1      NOp   1
                         Standard orientation:                         
 ---------------------------------------------------------------------
 Center     Atomic      Atomic             Coordinates (Angstroms)
 Number     Number       Type             X           Y           Z
 ---------------------------------------------------------------------
      1          6           0        1.679856   -1.119871   -0.000010
      2          1           0        1.214793   -2.099061   -0.000025
      3          1           0        2.762141   -1.052917   -0.000003
      4          6           0        0.929765   -0.027679    0.000001
      5          6           0       -0.590780   -0.017573   -0.000002
      6          9           0       -1.078403    1.232940   -0.000034
      7          9           0       -1.085329   -0.658804   -1.086962
      8          9           0       -1.085334   -0.658751    1.086987
      9          9           0        1.461290    1.211583    0.000020
 ---------------------------------------------------------------------
 Rotational constants (GHZ):           3.6666536           2.4018696           1.9553898
 Leave Link  202 at Thu Apr  2 13:32:47 2026, MaxMem=  2147483648 cpu:               0.0 elap:               0.0
 (Enter /Users/yarger/Applications/g16/l301.exe)
 Standard basis: 6-31+G(d) (6D, 7F)
 Ernie: Thresh=  0.10000D-02 Tol=  0.10000D-05 Strict=F.
 There are   137 symmetry adapted cartesian basis functions of A   symmetry.
 There are   137 symmetry adapted basis functions of A   symmetry.
   137 basis functions,   232 primitive gaussians,   137 cartesian basis functions
    28 alpha electrons       28 beta electrons
       nuclear repulsion energy       330.1543978831 Hartrees.
 IExCor=  402 DFT=T Ex+Corr=B3LYP ExCW=0 ScaHFX=  0.200000
 ScaDFX=  0.800000  0.720000  1.000000  0.810000 ScalE2=  1.000000  1.000000
 IRadAn=      5 IRanWt=     -1 IRanGd=            0 ICorTp=0 IEmpDi=  4
 NAtoms=    9 NActive=    9 NUniq=    9 SFac= 1.00D+00 NAtFMM=   60 NAOKFM=F Big=F
 Integral buffers will be    131072 words long.
 Raffenetti 2 integral format.
 Two-electron integral symmetry is turned on.
 Leave Link  301 at Thu Apr  2 13:32:47 2026, MaxMem=  2147483648 cpu:               0.2 elap:               0.0
 (Enter /Users/yarger/Applications/g16/l302.exe)
 NPDir=0 NMtPBC=     1 NCelOv=     1 NCel=       1 NClECP=     1 NCelD=      1
         NCelK=      1 NCelE2=     1 NClLst=     1 CellRange=     0.0.
 One-electron integrals computed using PRISM.
 One-electron integral symmetry used in STVInt
 NBasis=   137 RedAO= T EigKep=  6.47D-05  NBF=   137
 NBsUse=   137 1.00D-06 EigRej= -1.00D+00 NBFU=   137
 Precomputing XC quadrature grid using
 IXCGrd= 4 IRadAn=           5 IRanWt=          -1 IRanGd=           0 AccXCQ= 0.00D+00.
 Generated NRdTot=       0 NPtTot=           0 NUsed=           0 NTot=          32
 NSgBfM=   137   137   137   137   137 MxSgAt=     9 MxSgA2=     9.
 Leave Link  302 at Thu Apr  2 13:32:47 2026, MaxMem=  2147483648 cpu:               0.9 elap:               0.2
 (Enter /Users/yarger/Applications/g16/l303.exe)
 DipDrv:  MaxL=1.
 Leave Link  303 at Thu Apr  2 13:32:47 2026, MaxMem=  2147483648 cpu:               0.1 elap:               0.0
 (Enter /Users/yarger/Applications/g16/l401.exe)
 Initial guess from the checkpoint file:  "2223Tetrafluoropropene_Opt_Freq_DFT_B3LYP_631pd_Gaussian16.chk"
 B after Tr=     0.000000   -0.000000   -0.000000
         Rot=    1.000000    0.000001    0.000000    0.000010 Ang=   0.00 deg.
 Guess basis will be translated and rotated to current coordinates.
 JPrj=2 DoOrth=T DoCkMO=T.
 Leave Link  401 at Thu Apr  2 13:32:47 2026, MaxMem=  2147483648 cpu:               0.5 elap:               0.1
 (Enter /Users/yarger/Applications/g16/l502.exe)
 Keep R1 ints in memory in canonical form, NReq=52385408.
 FoFCou: FMM=F IPFlag=           0 FMFlag=           0 FMFlg1=           0
         NFxFlg=           0 DoJE=F BraDBF=F KetDBF=F FulRan=T
         wScrn=  0.000000 ICntrl=       600 IOpCl=  0 I1Cent=           0 NGrid=           0
         NMat0=    1 NMatS0=   9453 NMatT0=    0 NMatD0=    1 NMtDS0=    0 NMtDT0=    0
 Symmetry not used in FoFCou.
 Two-electron integral symmetry not used.
 Closed shell SCF:
 Using DIIS extrapolation, IDIIS=  1040.
 NGot=  2147483648 LenX=  2102759234 LenY=  2102740024
 Requested convergence on RMS density matrix=1.00D-08 within 128 cycles.
 Requested convergence on MAX density matrix=1.00D-06.
 Requested convergence on             energy=1.00D-06.
 No special actions if energy rises.

 Cycle   1  Pass 1  IDiag  1:
 E= -514.887104937600    
 DIIS: error= 1.51D-05 at cycle   1 NSaved=   1.
 NSaved= 1 IEnMin= 1 EnMin= -514.887104937600     IErMin= 1 ErrMin= 1.51D-05
 ErrMax= 1.51D-05  0.00D+00 EMaxC= 1.00D-01 BMatC= 6.18D-08 BMatP= 6.18D-08
 IDIUse=1 WtCom= 1.00D+00 WtEn= 0.00D+00
 Coeff-Com:  0.100D+01
 Coeff:      0.100D+01
 Gap=     0.674 Goal=   None    Shift=    0.000
 RMSDP=3.68D-06 MaxDP=4.87D-05              OVMax= 9.02D-05

 Cycle   2  Pass 1  IDiag  1:
 E= -514.887105029514     Delta-E=       -0.000000091914 Rises=F Damp=F
 DIIS: error= 3.64D-06 at cycle   2 NSaved=   2.
 NSaved= 2 IEnMin= 2 EnMin= -514.887105029514     IErMin= 2 ErrMin= 3.64D-06
 ErrMax= 3.64D-06  0.00D+00 EMaxC= 1.00D-01 BMatC= 1.69D-09 BMatP= 6.18D-08
 IDIUse=1 WtCom= 1.00D+00 WtEn= 0.00D+00
 Coeff-Com: -0.176D-01 0.102D+01
 Coeff:     -0.176D-01 0.102D+01
 Gap=     0.258 Goal=   None    Shift=    0.000
 RMSDP=6.63D-07 MaxDP=1.50D-05 DE=-9.19D-08 OVMax= 3.39D-05

 Cycle   3  Pass 1  IDiag  1:
 E= -514.887105028829     Delta-E=        0.000000000685 Rises=F Damp=F
 DIIS: error= 6.14D-06 at cycle   3 NSaved=   3.
 NSaved= 3 IEnMin= 2 EnMin= -514.887105029514     IErMin= 2 ErrMin= 3.64D-06
 ErrMax= 6.14D-06  0.00D+00 EMaxC= 1.00D-01 BMatC= 3.14D-09 BMatP= 1.69D-09
 IDIUse=1 WtCom= 1.00D+00 WtEn= 0.00D+00
 Coeff-Com: -0.344D-01 0.612D+00 0.423D+00
 Coeff:     -0.344D-01 0.612D+00 0.423D+00
 Gap=     0.258 Goal=   None    Shift=    0.000
 RMSDP=3.71D-07 MaxDP=1.13D-05 DE= 6.85D-10 OVMax= 2.61D-05

 Cycle   4  Pass 1  IDiag  1:
 E= -514.887105031129     Delta-E=       -0.000000002300 Rises=F Damp=F
 DIIS: error= 7.41D-07 at cycle   4 NSaved=   4.
 NSaved= 4 IEnMin= 4 EnMin= -514.887105031129     IErMin= 4 ErrMin= 7.41D-07
 ErrMax= 7.41D-07  0.00D+00 EMaxC= 1.00D-01 BMatC= 1.05D-10 BMatP= 1.69D-09
 IDIUse=1 WtCom= 1.00D+00 WtEn= 0.00D+00
 Coeff-Com: -0.130D-01 0.167D+00 0.194D+00 0.652D+00
 Coeff:     -0.130D-01 0.167D+00 0.194D+00 0.652D+00
 Gap=     0.258 Goal=   None    Shift=    0.000
 RMSDP=8.82D-08 MaxDP=3.30D-06 DE=-2.30D-09 OVMax= 6.68D-06

 Cycle   5  Pass 1  IDiag  1:
 E= -514.887105031216     Delta-E=       -0.000000000087 Rises=F Damp=F
 DIIS: error= 2.38D-07 at cycle   5 NSaved=   5.
 NSaved= 5 IEnMin= 5 EnMin= -514.887105031216     IErMin= 5 ErrMin= 2.38D-07
 ErrMax= 2.38D-07  0.00D+00 EMaxC= 1.00D-01 BMatC= 1.38D-11 BMatP= 1.05D-10
 IDIUse=1 WtCom= 1.00D+00 WtEn= 0.00D+00
 Coeff-Com: -0.434D-02 0.460D-01 0.732D-01 0.356D+00 0.529D+00
 Coeff:     -0.434D-02 0.460D-01 0.732D-01 0.356D+00 0.529D+00
 Gap=     0.258 Goal=   None    Shift=    0.000
 RMSDP=2.68D-08 MaxDP=1.22D-06 DE=-8.73D-11 OVMax= 2.12D-06

 Cycle   6  Pass 1  IDiag  1:
 E= -514.887105031225     Delta-E=       -0.000000000009 Rises=F Damp=F
 DIIS: error= 6.26D-08 at cycle   6 NSaved=   6.
 NSaved= 6 IEnMin= 6 EnMin= -514.887105031225     IErMin= 6 ErrMin= 6.26D-08
 ErrMax= 6.26D-08  0.00D+00 EMaxC= 1.00D-01 BMatC= 1.16D-12 BMatP= 1.38D-11
 IDIUse=1 WtCom= 1.00D+00 WtEn= 0.00D+00
 Coeff-Com: -0.490D-03 0.126D-02 0.112D-01 0.936D-01 0.269D+00 0.626D+00
 Coeff:     -0.490D-03 0.126D-02 0.112D-01 0.936D-01 0.269D+00 0.626D+00
 Gap=     0.258 Goal=   None    Shift=    0.000
 RMSDP=8.95D-09 MaxDP=2.94D-07 DE=-9.09D-12 OVMax= 4.68D-07

 SCF Done:  E(RB3LYP) =  -514.887105031     A.U. after    6 cycles
            NFock=  6  Conv=0.89D-08     -V/T= 2.0080
 KE= 5.108019390425D+02 PE=-1.878307065964D+03 EE= 5.224636240072D+02
 Leave Link  502 at Thu Apr  2 13:32:49 2026, MaxMem=  2147483648 cpu:              13.6 elap:               2.1
 (Enter /Users/yarger/Applications/g16/l701.exe)
 ... and contract with generalized density number  0.
 Compute integral first derivatives.
 Leave Link  701 at Thu Apr  2 13:32:49 2026, MaxMem=  2147483648 cpu:               0.5 elap:               0.1
 (Enter /Users/yarger/Applications/g16/l702.exe)
 L702 exits ... SP integral derivatives will be done elsewhere.
 Leave Link  702 at Thu Apr  2 13:32:50 2026, MaxMem=  2147483648 cpu:               0.1 elap:               0.0
 (Enter /Users/yarger/Applications/g16/l703.exe)
 Integral derivatives from FoFJK, PRISM(SPDF).
 Compute integral first derivatives, UseDBF=F ICtDFT=           0.
 Calling FoFJK, ICntrl=      2127 FMM=F ISym2X=0 I1Cent= 0 IOpClX= 0 NMat=1 NMatS=1 NMatT=0.
 FoFJK:  IHMeth= 1 ICntrl=    2127 DoSepK=F KAlg= 0 I1Cent=           0 FoldK=F
 IRaf=         0 NMat=       1 IRICut=       1 DoRegI=T DoRafI=F ISym2E= 0 IDoP0=0 IntGTp=1.
 FoFCou: FMM=F IPFlag=           0 FMFlag=      100000 FMFlg1=         800
         NFxFlg=           0 DoJE=F BraDBF=F KetDBF=F FulRan=T
         wScrn=  0.000000 ICntrl=      2127 IOpCl=  0 I1Cent=           0 NGrid=           0
         NMat0=    1 NMatS0=      1 NMatT0=    0 NMatD0=    1 NMtDS0=    0 NMtDT0=    0
 Symmetry not used in FoFCou.
 Leave Link  703 at Thu Apr  2 13:32:50 2026, MaxMem=  2147483648 cpu:               6.5 elap:               0.9
 (Enter /Users/yarger/Applications/g16/l716.exe)
 Dipole        = 6.67174665D-01-6.00902582D-01-7.91421266D-06
 ***** Axes restored to original set *****
 -------------------------------------------------------------------
 Center     Atomic                   Forces (Hartrees/Bohr)
 Number     Number              X              Y              Z
 -------------------------------------------------------------------
      1        6          -0.000022530   -0.000018037    0.000000109
      2        1           0.000015574    0.000008608    0.000000035
      3        1           0.000003115    0.000004580   -0.000000027
      4        6          -0.000012863    0.000043822    0.000000100
      5        6           0.000027729   -0.000124911    0.000000071
      6        9           0.000011853    0.000034044    0.000000057
      7        9          -0.000014743    0.000034280    0.000020810
      8        9          -0.000014855    0.000034126   -0.000020998
      9        9           0.000006720   -0.000016512   -0.000000156
 -------------------------------------------------------------------
 Cartesian Forces:  Max     0.000124911 RMS     0.000030372
 Leave Link  716 at Thu Apr  2 13:32:51 2026, MaxMem=  2147483648 cpu:               0.1 elap:               0.0
 (Enter /Users/yarger/Applications/g16/l103.exe)

 GradGradGradGradGradGradGradGradGradGradGradGradGradGradGradGradGradGrad
 Berny optimization.
 Using GEDIIS/GDIIS optimizer.
 FormGI is forming the generalized inverse of G from B-inverse, IUseBI=4.
 Internal  Forces:  Max     0.000038672 RMS     0.000015578
 Search for a local minimum.
 Step number   6 out of a maximum of   40
 All quantities printed in internal units (Hartrees-Bohrs-Radians)
 RMS Force = .15578D-04 SwitMx=.10000D-02 MixMth= 2
 Mixed Optimization -- En-DIIS/RFO-DIIS
 Swapping is turned off.
 Update second derivatives using D2CorX and points    1    2    3    4    5
                                                      6
 DE= -8.51D-08 DEPred=-8.86D-08 R= 9.60D-01
 Trust test= 9.60D-01 RLast= 7.95D-04 DXMaxT set to 5.05D-01
 ITU=  0  1  1  1  1  0
     Eigenvalues ---    0.00610   0.01687   0.03046   0.03046   0.10747
     Eigenvalues ---    0.10822   0.15439   0.17185   0.22324   0.24997
     Eigenvalues ---    0.25000   0.25591   0.31537   0.35222   0.35428
     Eigenvalues ---    0.42023   0.45145   0.56547   0.58427   0.59274
     Eigenvalues ---    0.60049
 En-DIIS/RFO-DIIS/Sim-DIIS IScMMF=       -3 using points:     6    5    4    3
 RFO step:  Lambda=-2.37934971D-08.
 NNeg= 0 NGDIIS= 4 SimSw=  2.50D-01 Rises=F DC= -8.51D-08 SmlDif=  1.00D-05
 NRisDI= 0 DoIntr=F SqrtH=F CThrHd= 10.0 CDAdj=  3.0
 RMS Error=  0.6760898308D-04 NUsed= 4 OKEnD=F EnDIS=F
 InvSVX:  RCond= 6.28D-08 Info=           0 Equed=N FErr=  3.56D-15 BErr=  9.67D-17
 DIIS inversion failure, remove point   4.
 InvSVX:  RCond= 9.34D-07 Info=           0 Equed=N FErr=  1.68D-15 BErr=  5.52D-17
 RFO-DIIS uses    3 points instead of    4
 DidBck=F Rises=F RFO-DIIS coefs:    0.96259    0.04026   -0.00285    0.00000
 Iteration  1 RMS(Cart)=  0.00008629 RMS(Int)=  0.00000001
 Iteration  2 RMS(Cart)=  0.00000001 RMS(Int)=  0.00000000
 ITry= 1 IFail=0 DXMaxC= 2.88D-04 DCOld= 1.00D+10 DXMaxT= 5.05D-01 DXLimC= 3.00D+00 Rises=F
 Variable       Old X    -DE/DX   Delta X   Delta X   Delta X     New X
                                 (Linear)    (Quad)   (Total)
    R1        2.04850   0.00000  -0.00000   0.00001   0.00001   2.04851
    R2        2.04913   0.00000   0.00000  -0.00000   0.00000   2.04913
    R3        2.50381  -0.00001   0.00000  -0.00001  -0.00001   2.50381
    R4        2.87348  -0.00001  -0.00000  -0.00004  -0.00004   2.87343
    R5        2.54818   0.00002  -0.00000   0.00004   0.00004   2.54822
    R6        2.53643  -0.00004   0.00001  -0.00012  -0.00011   2.53632
    R7        2.56142   0.00004  -0.00001   0.00011   0.00010   2.56153
    R8        2.56142   0.00004  -0.00001   0.00011   0.00010   2.56153
    A1        2.07599  -0.00002   0.00001  -0.00008  -0.00007   2.07591
    A2        2.09639   0.00002  -0.00001   0.00015   0.00014   2.09653
    A3        2.11081  -0.00001   0.00000  -0.00007  -0.00007   2.11074
    A4        2.17924   0.00002  -0.00000   0.00011   0.00011   2.17935
    A5        2.13462  -0.00001   0.00000  -0.00006  -0.00005   2.13457
    A6        1.96932  -0.00001   0.00000  -0.00006  -0.00006   1.96927
    A7        1.94924   0.00001   0.00001   0.00006   0.00007   1.94931
    A8        1.94090  -0.00000  -0.00000  -0.00003  -0.00003   1.94087
    A9        1.94090  -0.00000  -0.00000  -0.00003  -0.00003   1.94087
   A10        1.88408   0.00000   0.00001   0.00004   0.00005   1.88412
   A11        1.88408   0.00000   0.00001   0.00004   0.00005   1.88412
   A12        1.86104  -0.00002  -0.00001  -0.00009  -0.00010   1.86094
    D1        0.00000   0.00000  -0.00000   0.00000   0.00000   0.00001
    D2       -3.14159   0.00000  -0.00000   0.00000   0.00000  -3.14159
    D3       -3.14159   0.00000  -0.00000   0.00000   0.00000  -3.14159
    D4       -0.00000   0.00000   0.00000  -0.00000  -0.00000  -0.00000
    D5       -3.14156   0.00000  -0.00000   0.00002   0.00002  -3.14154
    D6       -1.03557   0.00001   0.00001   0.00009   0.00010  -1.03547
    D7        1.03564  -0.00001  -0.00001  -0.00005  -0.00006   1.03558
    D8        0.00004   0.00000  -0.00000   0.00002   0.00002   0.00006
    D9        2.10602   0.00001   0.00001   0.00009   0.00011   2.10613
   D10       -2.10595  -0.00001  -0.00001  -0.00005  -0.00006  -2.10601
         Item               Value     Threshold  Converged?
 Maximum Force            0.000039     0.000015     NO 
 RMS     Force            0.000016     0.000010     NO 
 Maximum Displacement     0.000288     0.000060     NO 
 RMS     Displacement     0.000086     0.000040     NO 
 Predicted change in Energy=-1.430433D-08
 Lowest energy point so far.  Saving SCF results.
 GradGradGradGradGradGradGradGradGradGradGradGradGradGradGradGradGradGrad

 Leave Link  103 at Thu Apr  2 13:32:51 2026, MaxMem=  2147483648 cpu:               0.1 elap:               0.0
 (Enter /Users/yarger/Applications/g16/l202.exe)
                          Input orientation:                          
 ---------------------------------------------------------------------
 Center     Atomic      Atomic             Coordinates (Angstroms)
 Number     Number       Type             X           Y           Z
 ---------------------------------------------------------------------
      1          6           0        1.733021    1.068952    0.000011
      2          1           0        1.301556    2.063410    0.000037
      3          1           0        2.812407    0.965276    0.000001
      4          6           0        0.946341    0.002816   -0.000007
      5          6           0       -0.573655    0.044088   -0.000002
      6          9           0       -1.103308   -1.189147    0.000045
      7          9           0       -1.046231    0.701798    1.086954
      8          9           0       -1.046243    0.701717   -1.087002
      9          9           0        1.435631   -1.253744   -0.000040
 ---------------------------------------------------------------------
                    Distance matrix (angstroms):
                    1          2          3          4          5
     1  C    0.000000
     2  H    1.084024   0.000000
     3  H    1.084354   1.867771   0.000000
     4  C    1.324957   2.090987   2.099651   0.000000
     5  C    2.524104   2.755735   3.509131   1.520556   0.000000
     6  F    3.625434   4.045058   4.469269   2.371041   1.342162
     7  F    3.006741   2.923608   4.017459   2.374954   1.355501
     8  F    3.006787   2.923700   4.017489   2.374955   1.355502
     9  F    2.341657   3.319862   2.611429   1.348461   2.391986
                    6          7          8          9
     6  F    0.000000
     7  F    2.181811   0.000000
     8  F    2.181810   2.173956   0.000000
     9  F    2.539760   3.341457   3.341409   0.000000
 Stoichiometry    C3H2F4
 Framework group  C1[X(C3H2F4)]
 Deg. of freedom    21
 Full point group                 C1      NOp   1
 RotChk:  IX=0 Diff= 3.59D-05
 Largest Abelian subgroup         C1      NOp   1
 Largest concise Abelian subgroup C1      NOp   1
                         Standard orientation:                         
 ---------------------------------------------------------------------
 Center     Atomic      Atomic             Coordinates (Angstroms)
 Number     Number       Type             X           Y           Z
 ---------------------------------------------------------------------
      1          6           0        1.679887   -1.119855   -0.000017
      2          1           0        1.215010   -2.099139   -0.000043
      3          1           0        2.762164   -1.052772   -0.000007
      4          6           0        0.929743   -0.027703    0.000001
      5          6           0       -0.590779   -0.017505   -0.000004
      6          9           0       -1.078388    1.232950   -0.000051
      7          9           0       -1.085346   -0.658843   -1.086960
      8          9           0       -1.085355   -0.658762    1.086996
      9          9           0        1.461282    1.211576    0.000034
 ---------------------------------------------------------------------
 Rotational constants (GHZ):           3.6666212           2.4018437           1.9553680
 Leave Link  202 at Thu Apr  2 13:32:51 2026, MaxMem=  2147483648 cpu:               0.0 elap:               0.0
 (Enter /Users/yarger/Applications/g16/l301.exe)
 Standard basis: 6-31+G(d) (6D, 7F)
 Ernie: Thresh=  0.10000D-02 Tol=  0.10000D-05 Strict=F.
 There are   137 symmetry adapted cartesian basis functions of A   symmetry.
 There are   137 symmetry adapted basis functions of A   symmetry.
   137 basis functions,   232 primitive gaussians,   137 cartesian basis functions
    28 alpha electrons       28 beta electrons
       nuclear repulsion energy       330.1524910617 Hartrees.
 IExCor=  402 DFT=T Ex+Corr=B3LYP ExCW=0 ScaHFX=  0.200000
 ScaDFX=  0.800000  0.720000  1.000000  0.810000 ScalE2=  1.000000  1.000000
 IRadAn=      5 IRanWt=     -1 IRanGd=            0 ICorTp=0 IEmpDi=  4
 NAtoms=    9 NActive=    9 NUniq=    9 SFac= 1.00D+00 NAtFMM=   60 NAOKFM=F Big=F
 Integral buffers will be    131072 words long.
 Raffenetti 2 integral format.
 Two-electron integral symmetry is turned on.
 Leave Link  301 at Thu Apr  2 13:32:51 2026, MaxMem=  2147483648 cpu:               0.2 elap:               0.0
 (Enter /Users/yarger/Applications/g16/l302.exe)
 NPDir=0 NMtPBC=     1 NCelOv=     1 NCel=       1 NClECP=     1 NCelD=      1
         NCelK=      1 NCelE2=     1 NClLst=     1 CellRange=     0.0.
 One-electron integrals computed using PRISM.
 One-electron integral symmetry used in STVInt
 NBasis=   137 RedAO= T EigKep=  6.47D-05  NBF=   137
 NBsUse=   137 1.00D-06 EigRej= -1.00D+00 NBFU=   137
 Precomputing XC quadrature grid using
 IXCGrd= 4 IRadAn=           5 IRanWt=          -1 IRanGd=           0 AccXCQ= 0.00D+00.
 Generated NRdTot=       0 NPtTot=           0 NUsed=           0 NTot=          32
 NSgBfM=   137   137   137   137   137 MxSgAt=     9 MxSgA2=     9.
 Leave Link  302 at Thu Apr  2 13:32:51 2026, MaxMem=  2147483648 cpu:               0.8 elap:               0.1
 (Enter /Users/yarger/Applications/g16/l303.exe)
 DipDrv:  MaxL=1.
 Leave Link  303 at Thu Apr  2 13:32:51 2026, MaxMem=  2147483648 cpu:               0.1 elap:               0.0
 (Enter /Users/yarger/Applications/g16/l401.exe)
 Initial guess from the checkpoint file:  "2223Tetrafluoropropene_Opt_Freq_DFT_B3LYP_631pd_Gaussian16.chk"
 B after Tr=     0.000000    0.000000    0.000000
         Rot=    1.000000    0.000002    0.000001   -0.000003 Ang=   0.00 deg.
 Guess basis will be translated and rotated to current coordinates.
 JPrj=2 DoOrth=T DoCkMO=T.
 Leave Link  401 at Thu Apr  2 13:32:51 2026, MaxMem=  2147483648 cpu:               0.4 elap:               0.1
 (Enter /Users/yarger/Applications/g16/l502.exe)
 Keep R1 ints in memory in canonical form, NReq=52385408.
 FoFCou: FMM=F IPFlag=           0 FMFlag=           0 FMFlg1=           0
         NFxFlg=           0 DoJE=F BraDBF=F KetDBF=F FulRan=T
         wScrn=  0.000000 ICntrl=       600 IOpCl=  0 I1Cent=           0 NGrid=           0
         NMat0=    1 NMatS0=   9453 NMatT0=    0 NMatD0=    1 NMtDS0=    0 NMtDT0=    0
 Symmetry not used in FoFCou.
 Two-electron integral symmetry not used.
 Closed shell SCF:
 Using DIIS extrapolation, IDIIS=  1040.
 NGot=  2147483648 LenX=  2102759234 LenY=  2102740024
 Requested convergence on RMS density matrix=1.00D-08 within 128 cycles.
 Requested convergence on MAX density matrix=1.00D-06.
 Requested convergence on             energy=1.00D-06.
 No special actions if energy rises.

 Cycle   1  Pass 1  IDiag  1:
 E= -514.887105036408    
 DIIS: error= 6.68D-06 at cycle   1 NSaved=   1.
 NSaved= 1 IEnMin= 1 EnMin= -514.887105036408     IErMin= 1 ErrMin= 6.68D-06
 ErrMax= 6.68D-06  0.00D+00 EMaxC= 1.00D-01 BMatC= 9.41D-09 BMatP= 9.41D-09
 IDIUse=1 WtCom= 1.00D+00 WtEn= 0.00D+00
 Coeff-Com:  0.100D+01
 Coeff:      0.100D+01
 Gap=     0.674 Goal=   None    Shift=    0.000
 RMSDP=1.44D-06 MaxDP=2.48D-05              OVMax= 2.83D-05

 Cycle   2  Pass 1  IDiag  1:
 E= -514.887105048927     Delta-E=       -0.000000012519 Rises=F Damp=F
 DIIS: error= 2.97D-06 at cycle   2 NSaved=   2.
 NSaved= 2 IEnMin= 2 EnMin= -514.887105048927     IErMin= 2 ErrMin= 2.97D-06
 ErrMax= 2.97D-06  0.00D+00 EMaxC= 1.00D-01 BMatC= 1.47D-09 BMatP= 9.41D-09
 IDIUse=1 WtCom= 1.00D+00 WtEn= 0.00D+00
 Coeff-Com:  0.171D+00 0.829D+00
 Coeff:      0.171D+00 0.829D+00
 Gap=     0.258 Goal=   None    Shift=    0.000
 RMSDP=3.66D-07 MaxDP=9.32D-06 DE=-1.25D-08 OVMax= 9.58D-06

 Cycle   3  Pass 1  IDiag  1:
 E= -514.887105048729     Delta-E=        0.000000000198 Rises=F Damp=F
 DIIS: error= 3.65D-06 at cycle   3 NSaved=   3.
 NSaved= 3 IEnMin= 2 EnMin= -514.887105048927     IErMin= 2 ErrMin= 2.97D-06
 ErrMax= 3.65D-06  0.00D+00 EMaxC= 1.00D-01 BMatC= 1.80D-09 BMatP= 1.47D-09
 IDIUse=1 WtCom= 1.00D+00 WtEn= 0.00D+00
 Coeff-Com: -0.312D-01 0.533D+00 0.498D+00
 Coeff:     -0.312D-01 0.533D+00 0.498D+00
 Gap=     0.258 Goal=   None    Shift=    0.000
 RMSDP=2.17D-07 MaxDP=5.41D-06 DE= 1.98D-10 OVMax= 6.20D-06

 Cycle   4  Pass 1  IDiag  1:
 E= -514.887105049846     Delta-E=       -0.000000001117 Rises=F Damp=F
 DIIS: error= 2.33D-07 at cycle   4 NSaved=   4.
 NSaved= 4 IEnMin= 4 EnMin= -514.887105049846     IErMin= 4 ErrMin= 2.33D-07
 ErrMax= 2.33D-07  0.00D+00 EMaxC= 1.00D-01 BMatC= 1.08D-11 BMatP= 1.47D-09
 IDIUse=1 WtCom= 1.00D+00 WtEn= 0.00D+00
 Coeff-Com: -0.121D-01 0.137D+00 0.168D+00 0.707D+00
 Coeff:     -0.121D-01 0.137D+00 0.168D+00 0.707D+00
 Gap=     0.258 Goal=   None    Shift=    0.000
 RMSDP=3.19D-08 MaxDP=7.42D-07 DE=-1.12D-09 OVMax= 1.41D-06

 Cycle   5  Pass 1  IDiag  1:
 E= -514.887105049858     Delta-E=       -0.000000000012 Rises=F Damp=F
 DIIS: error= 1.27D-07 at cycle   5 NSaved=   5.
 NSaved= 5 IEnMin= 5 EnMin= -514.887105049858     IErMin= 5 ErrMin= 1.27D-07
 ErrMax= 1.27D-07  0.00D+00 EMaxC= 1.00D-01 BMatC= 1.97D-12 BMatP= 1.08D-11
 IDIUse=1 WtCom= 1.00D+00 WtEn= 0.00D+00
 Coeff-Com: -0.447D-02 0.429D-01 0.650D-01 0.391D+00 0.506D+00
 Coeff:     -0.447D-02 0.429D-01 0.650D-01 0.391D+00 0.506D+00
 Gap=     0.258 Goal=   None    Shift=    0.000
 RMSDP=1.18D-08 MaxDP=4.16D-07 DE=-1.19D-11 OVMax= 9.13D-07

 Cycle   6  Pass 1  IDiag  1:
 E= -514.887105049855     Delta-E=        0.000000000003 Rises=F Damp=F
 DIIS: error= 2.74D-08 at cycle   6 NSaved=   6.
 NSaved= 6 IEnMin= 5 EnMin= -514.887105049858     IErMin= 6 ErrMin= 2.74D-08
 ErrMax= 2.74D-08  0.00D+00 EMaxC= 1.00D-01 BMatC= 2.57D-13 BMatP= 1.97D-12
 IDIUse=1 WtCom= 1.00D+00 WtEn= 0.00D+00
 Coeff-Com: -0.101D-02 0.611D-02 0.151D-01 0.123D+00 0.297D+00 0.560D+00
 Coeff:     -0.101D-02 0.611D-02 0.151D-01 0.123D+00 0.297D+00 0.560D+00
 Gap=     0.258 Goal=   None    Shift=    0.000
 RMSDP=3.71D-09 MaxDP=1.50D-07 DE= 2.96D-12 OVMax= 2.81D-07

 SCF Done:  E(RB3LYP) =  -514.887105050     A.U. after    6 cycles
            NFock=  6  Conv=0.37D-08     -V/T= 2.0080
 KE= 5.108018264358D+02 PE=-1.878303251547D+03 EE= 5.224618289992D+02
 Leave Link  502 at Thu Apr  2 13:32:53 2026, MaxMem=  2147483648 cpu:              13.1 elap:               1.8
 (Enter /Users/yarger/Applications/g16/l701.exe)
 ... and contract with generalized density number  0.
 Compute integral first derivatives.
 Leave Link  701 at Thu Apr  2 13:32:53 2026, MaxMem=  2147483648 cpu:               0.5 elap:               0.1
 (Enter /Users/yarger/Applications/g16/l702.exe)
 L702 exits ... SP integral derivatives will be done elsewhere.
 Leave Link  702 at Thu Apr  2 13:32:53 2026, MaxMem=  2147483648 cpu:               0.1 elap:               0.0
 (Enter /Users/yarger/Applications/g16/l703.exe)
 Integral derivatives from FoFJK, PRISM(SPDF).
 Compute integral first derivatives, UseDBF=F ICtDFT=           0.
 Calling FoFJK, ICntrl=      2127 FMM=F ISym2X=0 I1Cent= 0 IOpClX= 0 NMat=1 NMatS=1 NMatT=0.
 FoFJK:  IHMeth= 1 ICntrl=    2127 DoSepK=F KAlg= 0 I1Cent=           0 FoldK=F
 IRaf=         0 NMat=       1 IRICut=       1 DoRegI=T DoRafI=F ISym2E= 0 IDoP0=0 IntGTp=1.
 FoFCou: FMM=F IPFlag=           0 FMFlag=      100000 FMFlg1=         800
         NFxFlg=           0 DoJE=F BraDBF=F KetDBF=F FulRan=T
         wScrn=  0.000000 ICntrl=      2127 IOpCl=  0 I1Cent=           0 NGrid=           0
         NMat0=    1 NMatS0=      1 NMatT0=    0 NMatD0=    1 NMtDS0=    0 NMtDT0=    0
 Symmetry not used in FoFCou.
 Leave Link  703 at Thu Apr  2 13:32:54 2026, MaxMem=  2147483648 cpu:               6.2 elap:               0.8
 (Enter /Users/yarger/Applications/g16/l716.exe)
 Dipole        = 6.67237067D-01-6.00710840D-01-1.33164502D-05
 ***** Axes restored to original set *****
 -------------------------------------------------------------------
 Center     Atomic                   Forces (Hartrees/Bohr)
 Number     Number              X              Y              Z
 -------------------------------------------------------------------
      1        6          -0.000015640   -0.000008815    0.000000170
      2        1           0.000006816   -0.000000167    0.000000057
      3        1           0.000004447    0.000003141   -0.000000042
      4        6          -0.000005578    0.000023178    0.000000150
      5        6           0.000011875   -0.000040751    0.000000120
      6        9           0.000002173    0.000014962    0.000000089
      7        9          -0.000004856    0.000009136    0.000003069
      8        9          -0.000005034    0.000008897   -0.000003370
      9        9           0.000005796   -0.000009582   -0.000000243
 -------------------------------------------------------------------
 Cartesian Forces:  Max     0.000040751 RMS     0.000011147
 Leave Link  716 at Thu Apr  2 13:32:54 2026, MaxMem=  2147483648 cpu:               0.1 elap:               0.0
 (Enter /Users/yarger/Applications/g16/l103.exe)

 GradGradGradGradGradGradGradGradGradGradGradGradGradGradGradGradGradGrad
 Berny optimization.
 Using GEDIIS/GDIIS optimizer.
 FormGI is forming the generalized inverse of G from B-inverse, IUseBI=4.
 Internal  Forces:  Max     0.000014742 RMS     0.000005663
 Search for a local minimum.
 Step number   7 out of a maximum of   40
 All quantities printed in internal units (Hartrees-Bohrs-Radians)
 RMS Force = .56633D-05 SwitMx=.10000D-02 MixMth= 2
 Mixed Optimization -- En-DIIS/RFO-DIIS
 Swapping is turned off.
 Update second derivatives using D2CorX and points    1    2    3    4    5
                                                      6    7
 DE= -1.86D-08 DEPred=-1.43D-08 R= 1.30D+00
 Trust test= 1.30D+00 RLast= 3.70D-04 DXMaxT set to 5.05D-01
 ITU=  0  0  1  1  1  1  0
     Eigenvalues ---    0.00609   0.01687   0.03046   0.03046   0.10746
     Eigenvalues ---    0.10773   0.12683   0.16315   0.21834   0.25000
     Eigenvalues ---    0.25095   0.25763   0.31026   0.35203   0.35477
     Eigenvalues ---    0.41917   0.42274   0.56547   0.58584   0.59616
     Eigenvalues ---    0.60863
 En-DIIS/RFO-DIIS/Sim-DIIS IScMMF=       -3 using points:     7    6    5    4    3
 RFO step:  Lambda=-4.03492896D-09.
 NNeg= 0 NGDIIS= 5 SimSw=  2.50D-01 Rises=F DC= -1.86D-08 SmlDif=  1.00D-05
 NRisDI= 0 DoIntr=F SqrtH=F CThrHd= 10.0 CDAdj=  3.0
 RMS Error=  0.3951212917D-04 NUsed= 5 OKEnD=F EnDIS=F
 InvSVX:  RCond= 6.81D-09 Info=           0 Equed=N FErr=  5.95D-15 BErr=  5.27D-17
 DIIS inversion failure, remove point   5.
 InvSVX:  RCond= 1.44D-08 Info=           0 Equed=N FErr=  3.86D-15 BErr=  8.03D-17
 DIIS inversion failure, remove point   4.
 InvSVX:  RCond= 1.93D-08 Info=           0 Equed=N FErr=  3.30D-15 BErr=  8.20D-17
 DIIS inversion failure, remove point   3.
 InvSVX:  RCond= 3.42D-08 Info=           0 Equed=N FErr=  2.66D-15 BErr=  7.36D-17
 DIIS inversion failure, remove point   2.
 Use linear search instead of GDIIS.
 RFO step:  Lambda= 0.00000000D+00 EMin= 6.08710385D-03
 Quartic linear search produced a step of  0.50950.
 Iteration  1 RMS(Cart)=  0.00005347 RMS(Int)=  0.00000000
 Iteration  2 RMS(Cart)=  0.00000000 RMS(Int)=  0.00000000
 ITry= 1 IFail=0 DXMaxC= 1.29D-04 DCOld= 1.00D+10 DXMaxT= 5.05D-01 DXLimC= 3.00D+00 Rises=F
 Variable       Old X    -DE/DX   Delta X   Delta X   Delta X     New X
                                 (Linear)    (Quad)   (Total)
    R1        2.04851  -0.00000   0.00000  -0.00001  -0.00001   2.04850
    R2        2.04913   0.00000   0.00000   0.00001   0.00001   2.04915
    R3        2.50381  -0.00001  -0.00000  -0.00001  -0.00002   2.50379
    R4        2.87343  -0.00000  -0.00002  -0.00001  -0.00003   2.87340
    R5        2.54822   0.00001   0.00002   0.00001   0.00003   2.54825
    R6        2.53632  -0.00001  -0.00006  -0.00001  -0.00007   2.53625
    R7        2.56153   0.00001   0.00005  -0.00001   0.00005   2.56157
    R8        2.56153   0.00001   0.00005  -0.00001   0.00005   2.56157
    A1        2.07591  -0.00001  -0.00004  -0.00002  -0.00006   2.07585
    A2        2.09653   0.00001   0.00007   0.00001   0.00008   2.09661
    A3        2.11074   0.00000  -0.00003   0.00002  -0.00002   2.11072
    A4        2.17935   0.00000   0.00006  -0.00001   0.00005   2.17940
    A5        2.13457  -0.00000  -0.00003  -0.00001  -0.00003   2.13453
    A6        1.96927  -0.00000  -0.00003   0.00002  -0.00001   1.96925
    A7        1.94931   0.00001   0.00003   0.00003   0.00006   1.94937
    A8        1.94087   0.00000  -0.00002  -0.00000  -0.00002   1.94085
    A9        1.94087   0.00000  -0.00002   0.00000  -0.00002   1.94085
   A10        1.88412  -0.00000   0.00002  -0.00001   0.00001   1.88414
   A11        1.88412  -0.00000   0.00002  -0.00001   0.00001   1.88414
   A12        1.86094  -0.00001  -0.00005  -0.00001  -0.00006   1.86088
    D1        0.00001   0.00000   0.00000   0.00000   0.00001   0.00001
    D2       -3.14159   0.00000   0.00000  -0.00000  -0.00000  -3.14159
    D3       -3.14159   0.00000   0.00000   0.00000   0.00000  -3.14158
    D4       -0.00000   0.00000  -0.00000  -0.00000  -0.00000  -0.00000
    D5       -3.14154   0.00000   0.00001   0.00005   0.00006  -3.14147
    D6       -1.03547   0.00000   0.00005   0.00006   0.00011  -1.03536
    D7        1.03558  -0.00000  -0.00003   0.00005   0.00002   1.03560
    D8        0.00006   0.00000   0.00001   0.00006   0.00007   0.00013
    D9        2.10613   0.00000   0.00005   0.00006   0.00012   2.10625
   D10       -2.10601  -0.00000  -0.00003   0.00005   0.00002  -2.10598
         Item               Value     Threshold  Converged?
 Maximum Force            0.000015     0.000015     YES
 RMS     Force            0.000006     0.000010     YES
 Maximum Displacement     0.000129     0.000060     NO 
 RMS     Displacement     0.000053     0.000040     NO 
 Predicted change in Energy=-2.597611D-09
 Lowest energy point so far.  Saving SCF results.
 GradGradGradGradGradGradGradGradGradGradGradGradGradGradGradGradGradGrad

 Leave Link  103 at Thu Apr  2 13:32:54 2026, MaxMem=  2147483648 cpu:               0.1 elap:               0.0
 (Enter /Users/yarger/Applications/g16/l202.exe)
                          Input orientation:                          
 ---------------------------------------------------------------------
 Center     Atomic      Atomic             Coordinates (Angstroms)
 Number     Number       Type             X           Y           Z
 ---------------------------------------------------------------------
      1          6           0        1.733004    1.068957    0.000026
      2          1           0        1.301624    2.063447    0.000086
      3          1           0        2.812395    0.965255    0.000004
      4          6           0        0.946324    0.002833   -0.000017
      5          6           0       -0.573658    0.044040   -0.000005
      6          9           0       -1.103320   -1.189152    0.000093
      7          9           0       -1.046242    0.701840    1.086924
      8          9           0       -1.046267    0.701675   -1.087022
      9          9           0        1.435657   -1.253729   -0.000092
 ---------------------------------------------------------------------
                    Distance matrix (angstroms):
                    1          2          3          4          5
     1  C    0.000000
     2  H    1.084019   0.000000
     3  H    1.084361   1.867740   0.000000
     4  C    1.324948   2.091021   2.099638   0.000000
     5  C    2.524112   2.755846   3.509130   1.520540   0.000000
     6  F    3.625437   4.045140   4.469261   2.371048   1.342127
     7  F    3.006714   2.923639   4.017445   2.374947   1.355526
     8  F    3.006812   2.923837   4.017509   2.374949   1.355526
     9  F    2.341642   3.319883   2.611379   1.348478   2.391976
                    6          7          8          9
     6  F    0.000000
     7  F    2.181814   0.000000
     8  F    2.181812   2.173947   0.000000
     9  F    2.539798   3.341508   3.341403   0.000000
 Stoichiometry    C3H2F4
 Framework group  C1[X(C3H2F4)]
 Deg. of freedom    21
 Full point group                 C1      NOp   1
 RotChk:  IX=0 Diff= 8.51D-06
 Largest Abelian subgroup         C1      NOp   1
 Largest concise Abelian subgroup C1      NOp   1
                         Standard orientation:                         
 ---------------------------------------------------------------------
 Center     Atomic      Atomic             Coordinates (Angstroms)
 Number     Number       Type             X           Y           Z
 ---------------------------------------------------------------------
      1          6           0        1.679883   -1.119850   -0.000039
      2          1           0        1.215096   -2.099172   -0.000099
      3          1           0        2.762165   -1.052735   -0.000017
      4          6           0        0.929731   -0.027715    0.000004
      5          6           0       -0.590774   -0.017462   -0.000009
      6          9           0       -1.078401    1.232948   -0.000107
      7          9           0       -1.085348   -0.658892   -1.086938
      8          9           0       -1.085368   -0.658727    1.087009
      9          9           0        1.461307    1.211568    0.000078
 ---------------------------------------------------------------------
 Rotational constants (GHZ):           3.6666352           2.4018227           1.9553523
 Leave Link  202 at Thu Apr  2 13:32:54 2026, MaxMem=  2147483648 cpu:               0.0 elap:               0.0
 (Enter /Users/yarger/Applications/g16/l301.exe)
 Standard basis: 6-31+G(d) (6D, 7F)
 Ernie: Thresh=  0.10000D-02 Tol=  0.10000D-05 Strict=F.
 There are   137 symmetry adapted cartesian basis functions of A   symmetry.
 There are   137 symmetry adapted basis functions of A   symmetry.
   137 basis functions,   232 primitive gaussians,   137 cartesian basis functions
    28 alpha electrons       28 beta electrons
       nuclear repulsion energy       330.1518271356 Hartrees.
 IExCor=  402 DFT=T Ex+Corr=B3LYP ExCW=0 ScaHFX=  0.200000
 ScaDFX=  0.800000  0.720000  1.000000  0.810000 ScalE2=  1.000000  1.000000
 IRadAn=      5 IRanWt=     -1 IRanGd=            0 ICorTp=0 IEmpDi=  4
 NAtoms=    9 NActive=    9 NUniq=    9 SFac= 1.00D+00 NAtFMM=   60 NAOKFM=F Big=F
 Integral buffers will be    131072 words long.
 Raffenetti 2 integral format.
 Two-electron integral symmetry is turned on.
 Leave Link  301 at Thu Apr  2 13:32:54 2026, MaxMem=  2147483648 cpu:               0.1 elap:               0.0
 (Enter /Users/yarger/Applications/g16/l302.exe)
 NPDir=0 NMtPBC=     1 NCelOv=     1 NCel=       1 NClECP=     1 NCelD=      1
         NCelK=      1 NCelE2=     1 NClLst=     1 CellRange=     0.0.
 One-electron integrals computed using PRISM.
 One-electron integral symmetry used in STVInt
 NBasis=   137 RedAO= T EigKep=  6.47D-05  NBF=   137
 NBsUse=   137 1.00D-06 EigRej= -1.00D+00 NBFU=   137
 Precomputing XC quadrature grid using
 IXCGrd= 4 IRadAn=           5 IRanWt=          -1 IRanGd=           0 AccXCQ= 0.00D+00.
 Generated NRdTot=       0 NPtTot=           0 NUsed=           0 NTot=          32
 NSgBfM=   137   137   137   137   137 MxSgAt=     9 MxSgA2=     9.
 Leave Link  302 at Thu Apr  2 13:32:54 2026, MaxMem=  2147483648 cpu:               0.8 elap:               0.1
 (Enter /Users/yarger/Applications/g16/l303.exe)
 DipDrv:  MaxL=1.
 Leave Link  303 at Thu Apr  2 13:32:54 2026, MaxMem=  2147483648 cpu:               0.1 elap:               0.0
 (Enter /Users/yarger/Applications/g16/l401.exe)
 Initial guess from the checkpoint file:  "2223Tetrafluoropropene_Opt_Freq_DFT_B3LYP_631pd_Gaussian16.chk"
 B after Tr=    -0.000000   -0.000000   -0.000000
         Rot=    1.000000    0.000006    0.000003    0.000000 Ang=   0.00 deg.
 Guess basis will be translated and rotated to current coordinates.
 JPrj=2 DoOrth=T DoCkMO=T.
 Leave Link  401 at Thu Apr  2 13:32:54 2026, MaxMem=  2147483648 cpu:               0.4 elap:               0.1
 (Enter /Users/yarger/Applications/g16/l502.exe)
 Keep R1 ints in memory in canonical form, NReq=52385408.
 FoFCou: FMM=F IPFlag=           0 FMFlag=           0 FMFlg1=           0
         NFxFlg=           0 DoJE=F BraDBF=F KetDBF=F FulRan=T
         wScrn=  0.000000 ICntrl=       600 IOpCl=  0 I1Cent=           0 NGrid=           0
         NMat0=    1 NMatS0=   9453 NMatT0=    0 NMatD0=    1 NMtDS0=    0 NMtDT0=    0
 Symmetry not used in FoFCou.
 Two-electron integral symmetry not used.
 Closed shell SCF:
 Using DIIS extrapolation, IDIIS=  1040.
 NGot=  2147483648 LenX=  2102759234 LenY=  2102740024
 Requested convergence on RMS density matrix=1.00D-08 within 128 cycles.
 Requested convergence on MAX density matrix=1.00D-06.
 Requested convergence on             energy=1.00D-06.
 No special actions if energy rises.

 Cycle   1  Pass 1  IDiag  1:
 E= -514.887105046295    
 DIIS: error= 4.39D-06 at cycle   1 NSaved=   1.
 NSaved= 1 IEnMin= 1 EnMin= -514.887105046295     IErMin= 1 ErrMin= 4.39D-06
 ErrMax= 4.39D-06  0.00D+00 EMaxC= 1.00D-01 BMatC= 3.98D-09 BMatP= 3.98D-09
 IDIUse=1 WtCom= 1.00D+00 WtEn= 0.00D+00
 Coeff-Com:  0.100D+01
 Coeff:      0.100D+01
 Gap=     0.674 Goal=   None    Shift=    0.000
 RMSDP=9.70D-07 MaxDP=1.46D-05              OVMax= 2.01D-05

 Cycle   2  Pass 1  IDiag  1:
 E= -514.887105052222     Delta-E=       -0.000000005927 Rises=F Damp=F
 DIIS: error= 1.74D-06 at cycle   2 NSaved=   2.
 NSaved= 2 IEnMin= 2 EnMin= -514.887105052222     IErMin= 2 ErrMin= 1.74D-06
 ErrMax= 1.74D-06  0.00D+00 EMaxC= 1.00D-01 BMatC= 4.97D-10 BMatP= 3.98D-09
 IDIUse=1 WtCom= 1.00D+00 WtEn= 0.00D+00
 Coeff-Com:  0.126D+00 0.874D+00
 Coeff:      0.126D+00 0.874D+00
 Gap=     0.258 Goal=   None    Shift=    0.000
 RMSDP=2.34D-07 MaxDP=5.43D-06 DE=-5.93D-09 OVMax= 5.77D-06

 Cycle   3  Pass 1  IDiag  1:
 E= -514.887105052070     Delta-E=        0.000000000152 Rises=F Damp=F
 DIIS: error= 2.30D-06 at cycle   3 NSaved=   3.
 NSaved= 3 IEnMin= 2 EnMin= -514.887105052222     IErMin= 2 ErrMin= 1.74D-06
 ErrMax= 2.30D-06  0.00D+00 EMaxC= 1.00D-01 BMatC= 7.48D-10 BMatP= 4.97D-10
 IDIUse=1 WtCom= 1.00D+00 WtEn= 0.00D+00
 Coeff-Com: -0.385D-01 0.565D+00 0.474D+00
 Coeff:     -0.385D-01 0.565D+00 0.474D+00
 Gap=     0.258 Goal=   None    Shift=    0.000
 RMSDP=1.39D-07 MaxDP=3.12D-06 DE= 1.52D-10 OVMax= 3.78D-06

 Cycle   4  Pass 1  IDiag  1:
 E= -514.887105052546     Delta-E=       -0.000000000476 Rises=F Damp=F
 DIIS: error= 1.09D-07 at cycle   4 NSaved=   4.
 NSaved= 4 IEnMin= 4 EnMin= -514.887105052546     IErMin= 4 ErrMin= 1.09D-07
 ErrMax= 1.09D-07  0.00D+00 EMaxC= 1.00D-01 BMatC= 3.47D-12 BMatP= 4.97D-10
 IDIUse=1 WtCom= 1.00D+00 WtEn= 0.00D+00
 Coeff-Com: -0.121D-01 0.136D+00 0.148D+00 0.729D+00
 Coeff:     -0.121D-01 0.136D+00 0.148D+00 0.729D+00
 Gap=     0.258 Goal=   None    Shift=    0.000
 RMSDP=2.08D-08 MaxDP=6.00D-07 DE=-4.76D-10 OVMax= 1.28D-06

 Cycle   5  Pass 1  IDiag  1:
 E= -514.887105052545     Delta-E=        0.000000000001 Rises=F Damp=F
 DIIS: error= 9.42D-08 at cycle   5 NSaved=   5.
 NSaved= 5 IEnMin= 4 EnMin= -514.887105052546     IErMin= 5 ErrMin= 9.42D-08
 ErrMax= 9.42D-08  0.00D+00 EMaxC= 1.00D-01 BMatC= 1.40D-12 BMatP= 3.47D-12
 IDIUse=1 WtCom= 1.00D+00 WtEn= 0.00D+00
 Coeff-Com: -0.426D-02 0.413D-01 0.583D-01 0.466D+00 0.439D+00
 Coeff:     -0.426D-02 0.413D-01 0.583D-01 0.466D+00 0.439D+00
 Gap=     0.258 Goal=   None    Shift=    0.000
 RMSDP=8.67D-09 MaxDP=3.29D-07 DE= 6.82D-13 OVMax= 7.29D-07

 SCF Done:  E(RB3LYP) =  -514.887105053     A.U. after    5 cycles
            NFock=  5  Conv=0.87D-08     -V/T= 2.0080
 KE= 5.108018140788D+02 PE=-1.878301947415D+03 EE= 5.224612011479D+02
 Leave Link  502 at Thu Apr  2 13:32:56 2026, MaxMem=  2147483648 cpu:              11.4 elap:               1.6
 (Enter /Users/yarger/Applications/g16/l701.exe)
 ... and contract with generalized density number  0.
 Compute integral first derivatives.
 Leave Link  701 at Thu Apr  2 13:32:56 2026, MaxMem=  2147483648 cpu:               0.5 elap:               0.1
 (Enter /Users/yarger/Applications/g16/l702.exe)
 L702 exits ... SP integral derivatives will be done elsewhere.
 Leave Link  702 at Thu Apr  2 13:32:56 2026, MaxMem=  2147483648 cpu:               0.1 elap:               0.0
 (Enter /Users/yarger/Applications/g16/l703.exe)
 Integral derivatives from FoFJK, PRISM(SPDF).
 Compute integral first derivatives, UseDBF=F ICtDFT=           0.
 Calling FoFJK, ICntrl=      2127 FMM=F ISym2X=0 I1Cent= 0 IOpClX= 0 NMat=1 NMatS=1 NMatT=0.
 FoFJK:  IHMeth= 1 ICntrl=    2127 DoSepK=F KAlg= 0 I1Cent=           0 FoldK=F
 IRaf=         0 NMat=       1 IRICut=       1 DoRegI=T DoRafI=F ISym2E= 0 IDoP0=0 IntGTp=1.
 FoFCou: FMM=F IPFlag=           0 FMFlag=      100000 FMFlg1=         800
         NFxFlg=           0 DoJE=F BraDBF=F KetDBF=F FulRan=T
         wScrn=  0.000000 ICntrl=      2127 IOpCl=  0 I1Cent=           0 NGrid=           0
         NMat0=    1 NMatS0=      1 NMatT0=    0 NMatD0=    1 NMtDS0=    0 NMtDT0=    0
 Symmetry not used in FoFCou.
 Leave Link  703 at Thu Apr  2 13:32:57 2026, MaxMem=  2147483648 cpu:               6.2 elap:               0.8
 (Enter /Users/yarger/Applications/g16/l716.exe)
 Dipole        = 6.67272721D-01-6.00627204D-01-2.97198668D-05
 ***** Axes restored to original set *****
 -------------------------------------------------------------------
 Center     Atomic                   Forces (Hartrees/Bohr)
 Number     Number              X              Y              Z
 -------------------------------------------------------------------
      1        6           0.000000656   -0.000000224    0.000000314
      2        1          -0.000000805   -0.000000052    0.000000145
      3        1          -0.000000092    0.000001008   -0.000000111
      4        6          -0.000001166    0.000002019    0.000000468
      5        6          -0.000000867    0.000003372    0.000000261
      6        9          -0.000000016   -0.000000400    0.000000148
      7        9           0.000000776   -0.000001300   -0.000001669
      8        9           0.000000294   -0.000001813    0.000000970
      9        9           0.000001220   -0.000002609   -0.000000524
 -------------------------------------------------------------------
 Cartesian Forces:  Max     0.000003372 RMS     0.000001191
 Leave Link  716 at Thu Apr  2 13:32:57 2026, MaxMem=  2147483648 cpu:               0.1 elap:               0.0
 (Enter /Users/yarger/Applications/g16/l103.exe)

 GradGradGradGradGradGradGradGradGradGradGradGradGradGradGradGradGradGrad
 Berny optimization.
 Using GEDIIS/GDIIS optimizer.
 FormGI is forming the generalized inverse of G from B-inverse, IUseBI=4.
 Internal  Forces:  Max     0.000002921 RMS     0.000000882
 Search for a local minimum.
 Step number   8 out of a maximum of   40
 All quantities printed in internal units (Hartrees-Bohrs-Radians)
 RMS Force = .88214D-06 SwitMx=.10000D-02 MixMth= 2
 Mixed Optimization -- En-DIIS/RFO-DIIS
 Swapping is turned off.
 Update second derivatives using D2CorX and points    1    2    3    4    5
                                                      6    7    8
 DE= -2.69D-09 DEPred=-2.60D-09 R= 1.04D+00
 Trust test= 1.04D+00 RLast= 2.64D-04 DXMaxT set to 5.05D-01
 ITU=  0  0  0  1  1  1  1  0
     Eigenvalues ---    0.00574   0.01686   0.03044   0.03046   0.10735
     Eigenvalues ---    0.10756   0.13101   0.16065   0.21709   0.25005
     Eigenvalues ---    0.25096   0.25881   0.30896   0.35203   0.35499
     Eigenvalues ---    0.41535   0.42556   0.56550   0.58546   0.59641
     Eigenvalues ---    0.60071
 En-DIIS/RFO-DIIS/Sim-DIIS IScMMF=       -3 using points:     8    7    6    5    4    3
 RFO step:  Lambda=-7.47796983D-11.
 NNeg= 0 NGDIIS= 6 SimSw=  2.50D-01 Rises=F DC= -2.69D-09 SmlDif=  1.00D-05
 NRisDI= 0 DoIntr=F SqrtH=F CThrHd= 10.0 CDAdj=  3.0
 RMS Error=  0.2621336459D-04 NUsed= 6 OKEnD=F EnDIS=F
 InvSVX:  RCond= 1.12D-10 Info=           0 Equed=N FErr=  3.99D-13 BErr=  3.92D-17
 DIIS inversion failure, remove point   6.
 InvSVX:  RCond= 1.35D-10 Info=           0 Equed=N FErr=  3.44D-13 BErr=  5.80D-17
 DIIS inversion failure, remove point   5.
 InvSVX:  RCond= 1.96D-10 Info=           0 Equed=N FErr=  2.59D-13 BErr=  3.26D-17
 DIIS inversion failure, remove point   4.
 InvSVX:  RCond= 3.32D-10 Info=           0 Equed=N FErr=  1.69D-13 BErr=  6.78D-17
 DIIS inversion failure, remove point   3.
 InvSVX:  RCond= 1.74D-08 Info=           0 Equed=N FErr=  2.04D-15 BErr=  2.10D-17
 DIIS inversion failure, remove point   2.
 Use linear search instead of GDIIS.
 RFO step:  Lambda= 0.00000000D+00 EMin= 5.73979677D-03
 Quartic linear search produced a step of -0.04041.
 Iteration  1 RMS(Cart)=  0.00003268 RMS(Int)=  0.00000000
 Iteration  2 RMS(Cart)=  0.00000000 RMS(Int)=  0.00000000
 ITry= 1 IFail=0 DXMaxC= 8.07D-05 DCOld= 1.00D+10 DXMaxT= 5.05D-01 DXLimC= 3.00D+00 Rises=F
 Variable       Old X    -DE/DX   Delta X   Delta X   Delta X     New X
                                 (Linear)    (Quad)   (Total)
    R1        2.04850   0.00000   0.00000  -0.00000   0.00000   2.04850
    R2        2.04915  -0.00000  -0.00000   0.00000   0.00000   2.04915
    R3        2.50379   0.00000   0.00000  -0.00000   0.00000   2.50379
    R4        2.87340   0.00000   0.00000  -0.00000  -0.00000   2.87340
    R5        2.54825   0.00000  -0.00000   0.00001   0.00000   2.54826
    R6        2.53625   0.00000   0.00000  -0.00000   0.00000   2.53625
    R7        2.56157  -0.00000  -0.00000  -0.00000  -0.00000   2.56157
    R8        2.56157  -0.00000  -0.00000  -0.00000  -0.00000   2.56157
    A1        2.07585  -0.00000   0.00000  -0.00000  -0.00000   2.07585
    A2        2.09661  -0.00000  -0.00000  -0.00000  -0.00001   2.09661
    A3        2.11072   0.00000   0.00000   0.00001   0.00001   2.11073
    A4        2.17940  -0.00000  -0.00000  -0.00000  -0.00000   2.17939
    A5        2.13453   0.00000   0.00000   0.00000   0.00000   2.13454
    A6        1.96925   0.00000   0.00000   0.00000   0.00000   1.96926
    A7        1.94937   0.00000  -0.00000   0.00000   0.00000   1.94937
    A8        1.94085  -0.00000   0.00000  -0.00000  -0.00000   1.94085
    A9        1.94085   0.00000   0.00000   0.00000   0.00000   1.94085
   A10        1.88414  -0.00000  -0.00000   0.00000  -0.00000   1.88414
   A11        1.88414  -0.00000  -0.00000  -0.00000  -0.00000   1.88413
   A12        1.86088   0.00000   0.00000  -0.00000   0.00000   1.86088
    D1        0.00001   0.00000  -0.00000   0.00001   0.00001   0.00002
    D2       -3.14159   0.00000   0.00000  -0.00000  -0.00000  -3.14159
    D3       -3.14158   0.00000  -0.00000   0.00001   0.00001  -3.14157
    D4       -0.00000   0.00000   0.00000  -0.00000  -0.00000  -0.00000
    D5       -3.14147   0.00000  -0.00000   0.00005   0.00005  -3.14142
    D6       -1.03536   0.00000  -0.00000   0.00006   0.00005  -1.03530
    D7        1.03560   0.00000  -0.00000   0.00005   0.00005   1.03565
    D8        0.00013   0.00000  -0.00000   0.00006   0.00006   0.00019
    D9        2.10625   0.00000  -0.00000   0.00006   0.00006   2.10631
   D10       -2.10598   0.00000  -0.00000   0.00006   0.00006  -2.10592
         Item               Value     Threshold  Converged?
 Maximum Force            0.000003     0.000015     YES
 RMS     Force            0.000001     0.000010     YES
 Maximum Displacement     0.000081     0.000060     NO 
 RMS     Displacement     0.000033     0.000040     YES
 Predicted change in Energy=-9.582620D-11
 Lowest energy point so far.  Saving SCF results.
 GradGradGradGradGradGradGradGradGradGradGradGradGradGradGradGradGradGrad

 Leave Link  103 at Thu Apr  2 13:32:57 2026, MaxMem=  2147483648 cpu:               0.1 elap:               0.0
 (Enter /Users/yarger/Applications/g16/l202.exe)
                          Input orientation:                          
 ---------------------------------------------------------------------
 Center     Atomic      Atomic             Coordinates (Angstroms)
 Number     Number       Type             X           Y           Z
 ---------------------------------------------------------------------
      1          6           0        1.733004    1.068955    0.000038
      2          1           0        1.301616    2.063442    0.000127
      3          1           0        2.812396    0.965263    0.000005
      4          6           0        0.946326    0.002829   -0.000024
      5          6           0       -0.573656    0.044043   -0.000007
      6          9           0       -1.103323   -1.189149    0.000132
      7          9           0       -1.046232    0.701877    1.086902
      8          9           0       -1.046270    0.701642   -1.087043
      9          9           0        1.435658   -1.253735   -0.000134
 ---------------------------------------------------------------------
                    Distance matrix (angstroms):
                    1          2          3          4          5
     1  C    0.000000
     2  H    1.084019   0.000000
     3  H    1.084361   1.867740   0.000000
     4  C    1.324948   2.091017   2.099642   0.000000
     5  C    2.524109   2.755834   3.509131   1.520540   0.000000
     6  F    3.625435   4.045130   4.469267   2.371048   1.342128
     7  F    3.006688   2.923582   4.017429   2.374945   1.355524
     8  F    3.006830   2.923869   4.017521   2.374949   1.355525
     9  F    2.341646   3.319884   2.611391   1.348481   2.391980
                    6          7          8          9
     6  F    0.000000
     7  F    2.181812   0.000000
     8  F    2.181810   2.173945   0.000000
     9  F    2.539801   3.341533   3.341382   0.000000
 Stoichiometry    C3H2F4
 Framework group  C1[X(C3H2F4)]
 Deg. of freedom    21
 Full point group                 C1      NOp   1
 RotChk:  IX=0 Diff= 4.76D-06
 Largest Abelian subgroup         C1      NOp   1
 Largest concise Abelian subgroup C1      NOp   1
                         Standard orientation:                         
 ---------------------------------------------------------------------
 Center     Atomic      Atomic             Coordinates (Angstroms)
 Number     Number       Type             X           Y           Z
 ---------------------------------------------------------------------
      1          6           0        1.679878   -1.119854   -0.000058
      2          1           0        1.215080   -2.099171   -0.000147
      3          1           0        2.762161   -1.052752   -0.000024
      4          6           0        0.929732   -0.027715    0.000004
      5          6           0       -0.590774   -0.017463   -0.000013
      6          9           0       -1.078401    1.232948   -0.000152
      7          9           0       -1.085343   -0.658926   -1.086922
      8          9           0       -1.085372   -0.658690    1.087023
      9          9           0        1.461310    1.211569    0.000115
 ---------------------------------------------------------------------
 Rotational constants (GHZ):           3.6666347           2.4018241           1.9553522
 Leave Link  202 at Thu Apr  2 13:32:57 2026, MaxMem=  2147483648 cpu:               0.0 elap:               0.0
 (Enter /Users/yarger/Applications/g16/l301.exe)
 Standard basis: 6-31+G(d) (6D, 7F)
 Ernie: Thresh=  0.10000D-02 Tol=  0.10000D-05 Strict=F.
 There are   137 symmetry adapted cartesian basis functions of A   symmetry.
 There are   137 symmetry adapted basis functions of A   symmetry.
   137 basis functions,   232 primitive gaussians,   137 cartesian basis functions
    28 alpha electrons       28 beta electrons
       nuclear repulsion energy       330.1518600667 Hartrees.
 IExCor=  402 DFT=T Ex+Corr=B3LYP ExCW=0 ScaHFX=  0.200000
 ScaDFX=  0.800000  0.720000  1.000000  0.810000 ScalE2=  1.000000  1.000000
 IRadAn=      5 IRanWt=     -1 IRanGd=            0 ICorTp=0 IEmpDi=  4
 NAtoms=    9 NActive=    9 NUniq=    9 SFac= 1.00D+00 NAtFMM=   60 NAOKFM=F Big=F
 Integral buffers will be    131072 words long.
 Raffenetti 2 integral format.
 Two-electron integral symmetry is turned on.
 Leave Link  301 at Thu Apr  2 13:32:57 2026, MaxMem=  2147483648 cpu:               0.2 elap:               0.0
 (Enter /Users/yarger/Applications/g16/l302.exe)
 NPDir=0 NMtPBC=     1 NCelOv=     1 NCel=       1 NClECP=     1 NCelD=      1
         NCelK=      1 NCelE2=     1 NClLst=     1 CellRange=     0.0.
 One-electron integrals computed using PRISM.
 One-electron integral symmetry used in STVInt
 NBasis=   137 RedAO= T EigKep=  6.47D-05  NBF=   137
 NBsUse=   137 1.00D-06 EigRej= -1.00D+00 NBFU=   137
 Precomputing XC quadrature grid using
 IXCGrd= 4 IRadAn=           5 IRanWt=          -1 IRanGd=           0 AccXCQ= 0.00D+00.
 Generated NRdTot=       0 NPtTot=           0 NUsed=           0 NTot=          32
 NSgBfM=   137   137   137   137   137 MxSgAt=     9 MxSgA2=     9.
 Leave Link  302 at Thu Apr  2 13:32:57 2026, MaxMem=  2147483648 cpu:               0.9 elap:               0.1
 (Enter /Users/yarger/Applications/g16/l303.exe)
 DipDrv:  MaxL=1.
 Leave Link  303 at Thu Apr  2 13:32:57 2026, MaxMem=  2147483648 cpu:               0.1 elap:               0.0
 (Enter /Users/yarger/Applications/g16/l401.exe)
 Initial guess from the checkpoint file:  "2223Tetrafluoropropene_Opt_Freq_DFT_B3LYP_631pd_Gaussian16.chk"
 B after Tr=    -0.000000    0.000000    0.000000
         Rot=    1.000000    0.000005    0.000002    0.000001 Ang=   0.00 deg.
 Guess basis will be translated and rotated to current coordinates.
 JPrj=2 DoOrth=T DoCkMO=T.
 Leave Link  401 at Thu Apr  2 13:32:57 2026, MaxMem=  2147483648 cpu:               0.4 elap:               0.1
 (Enter /Users/yarger/Applications/g16/l502.exe)
 Keep R1 ints in memory in canonical form, NReq=52385408.
 FoFCou: FMM=F IPFlag=           0 FMFlag=           0 FMFlg1=           0
         NFxFlg=           0 DoJE=F BraDBF=F KetDBF=F FulRan=T
         wScrn=  0.000000 ICntrl=       600 IOpCl=  0 I1Cent=           0 NGrid=           0
         NMat0=    1 NMatS0=   9453 NMatT0=    0 NMatD0=    1 NMtDS0=    0 NMtDT0=    0
 Symmetry not used in FoFCou.
 Two-electron integral symmetry not used.
 Closed shell SCF:
 Using DIIS extrapolation, IDIIS=  1040.
 NGot=  2147483648 LenX=  2102759234 LenY=  2102740024
 Requested convergence on RMS density matrix=1.00D-08 within 128 cycles.
 Requested convergence on MAX density matrix=1.00D-06.
 Requested convergence on             energy=1.00D-06.
 No special actions if energy rises.

 Cycle   1  Pass 1  IDiag  1:
 E= -514.887105051160    
 DIIS: error= 1.69D-06 at cycle   1 NSaved=   1.
 NSaved= 1 IEnMin= 1 EnMin= -514.887105051160     IErMin= 1 ErrMin= 1.69D-06
 ErrMax= 1.69D-06  0.00D+00 EMaxC= 1.00D-01 BMatC= 8.38D-10 BMatP= 8.38D-10
 IDIUse=1 WtCom= 1.00D+00 WtEn= 0.00D+00
 Coeff-Com:  0.100D+01
 Coeff:      0.100D+01
 Gap=     0.674 Goal=   None    Shift=    0.000
 RMSDP=4.38D-07 MaxDP=1.06D-05              OVMax= 1.27D-05

 Cycle   2  Pass 1  IDiag  1:
 E= -514.887105052763     Delta-E=       -0.000000001602 Rises=F Damp=F
 DIIS: error= 1.84D-07 at cycle   2 NSaved=   2.
 NSaved= 2 IEnMin= 2 EnMin= -514.887105052763     IErMin= 2 ErrMin= 1.84D-07
 ErrMax= 1.84D-07  0.00D+00 EMaxC= 1.00D-01 BMatC= 1.23D-11 BMatP= 8.38D-10
 IDIUse=1 WtCom= 1.00D+00 WtEn= 0.00D+00
 Coeff-Com: -0.709D-01 0.107D+01
 Coeff:     -0.709D-01 0.107D+01
 Gap=     0.258 Goal=   None    Shift=    0.000
 RMSDP=7.58D-08 MaxDP=2.19D-06 DE=-1.60D-09 OVMax= 2.16D-06

 Cycle   3  Pass 1  IDiag  1:
 E= -514.887105052779     Delta-E=       -0.000000000016 Rises=F Damp=F
 DIIS: error= 1.04D-07 at cycle   3 NSaved=   3.
 NSaved= 3 IEnMin= 3 EnMin= -514.887105052779     IErMin= 3 ErrMin= 1.04D-07
 ErrMax= 1.04D-07  0.00D+00 EMaxC= 1.00D-01 BMatC= 3.52D-12 BMatP= 1.23D-11
 IDIUse=1 WtCom= 1.00D+00 WtEn= 0.00D+00
 Coeff-Com: -0.320D-01 0.398D+00 0.634D+00
 Coeff:     -0.320D-01 0.398D+00 0.634D+00
 Gap=     0.258 Goal=   None    Shift=    0.000
 RMSDP=2.41D-08 MaxDP=6.55D-07 DE=-1.64D-11 OVMax= 9.01D-07

 Cycle   4  Pass 1  IDiag  1:
 E= -514.887105052770     Delta-E=        0.000000000009 Rises=F Damp=F
 DIIS: error= 6.64D-08 at cycle   4 NSaved=   4.
 NSaved= 4 IEnMin= 3 EnMin= -514.887105052779     IErMin= 4 ErrMin= 6.64D-08
 ErrMax= 6.64D-08  0.00D+00 EMaxC= 1.00D-01 BMatC= 1.22D-12 BMatP= 3.52D-12
 IDIUse=1 WtCom= 1.00D+00 WtEn= 0.00D+00
 Coeff-Com: -0.116D-01 0.133D+00 0.385D+00 0.494D+00
 Coeff:     -0.116D-01 0.133D+00 0.385D+00 0.494D+00
 Gap=     0.258 Goal=   None    Shift=    0.000
 RMSDP=7.43D-09 MaxDP=2.41D-07 DE= 8.64D-12 OVMax= 4.84D-07

 SCF Done:  E(RB3LYP) =  -514.887105053     A.U. after    4 cycles
            NFock=  4  Conv=0.74D-08     -V/T= 2.0080
 KE= 5.108018155041D+02 PE=-1.878302019670D+03 EE= 5.224612390464D+02
 Leave Link  502 at Thu Apr  2 13:32:59 2026, MaxMem=  2147483648 cpu:               9.4 elap:               1.3
 (Enter /Users/yarger/Applications/g16/l701.exe)
 ... and contract with generalized density number  0.
 Compute integral first derivatives.
 Leave Link  701 at Thu Apr  2 13:32:59 2026, MaxMem=  2147483648 cpu:               0.5 elap:               0.1
 (Enter /Users/yarger/Applications/g16/l702.exe)
 L702 exits ... SP integral derivatives will be done elsewhere.
 Leave Link  702 at Thu Apr  2 13:32:59 2026, MaxMem=  2147483648 cpu:               0.1 elap:               0.0
 (Enter /Users/yarger/Applications/g16/l703.exe)
 Integral derivatives from FoFJK, PRISM(SPDF).
 Compute integral first derivatives, UseDBF=F ICtDFT=           0.
 Calling FoFJK, ICntrl=      2127 FMM=F ISym2X=0 I1Cent= 0 IOpClX= 0 NMat=1 NMatS=1 NMatT=0.
 FoFJK:  IHMeth= 1 ICntrl=    2127 DoSepK=F KAlg= 0 I1Cent=           0 FoldK=F
 IRaf=         0 NMat=       1 IRICut=       1 DoRegI=T DoRafI=F ISym2E= 0 IDoP0=0 IntGTp=1.
 FoFCou: FMM=F IPFlag=           0 FMFlag=      100000 FMFlg1=         800
         NFxFlg=           0 DoJE=F BraDBF=F KetDBF=F FulRan=T
         wScrn=  0.000000 ICntrl=      2127 IOpCl=  0 I1Cent=           0 NGrid=           0
         NMat0=    1 NMatS0=      1 NMatT0=    0 NMatD0=    1 NMtDS0=    0 NMtDT0=    0
 Symmetry not used in FoFCou.
 Leave Link  703 at Thu Apr  2 13:33:00 2026, MaxMem=  2147483648 cpu:               6.3 elap:               0.9
 (Enter /Users/yarger/Applications/g16/l716.exe)
 Dipole        = 6.67269377D-01-6.00638180D-01-4.39392148D-05
 ***** Axes restored to original set *****
 -------------------------------------------------------------------
 Center     Atomic                   Forces (Hartrees/Bohr)
 Number     Number              X              Y              Z
 -------------------------------------------------------------------
      1        6           0.000000493   -0.000000218    0.000000515
      2        1          -0.000000607    0.000000128    0.000000185
      3        1          -0.000000229    0.000000617   -0.000000125
      4        6          -0.000000171    0.000000641    0.000000432
      5        6          -0.000000564    0.000001537    0.000000388
      6        9           0.000000135   -0.000000748    0.000000277
      7        9           0.000000535   -0.000000361   -0.000000890
      8        9          -0.000000013   -0.000001092   -0.000000052
      9        9           0.000000421   -0.000000504   -0.000000730
 -------------------------------------------------------------------
 Cartesian Forces:  Max     0.000001537 RMS     0.000000574
 Leave Link  716 at Thu Apr  2 13:33:00 2026, MaxMem=  2147483648 cpu:               0.1 elap:               0.0
 (Enter /Users/yarger/Applications/g16/l103.exe)

 GradGradGradGradGradGradGradGradGradGradGradGradGradGradGradGradGradGrad
 Berny optimization.
 Using GEDIIS/GDIIS optimizer.
 FormGI is forming the generalized inverse of G from B-inverse, IUseBI=4.
 Internal  Forces:  Max     0.000000977 RMS     0.000000413
 Search for a local minimum.
 Step number   9 out of a maximum of   40
 All quantities printed in internal units (Hartrees-Bohrs-Radians)
 RMS Force = .41275D-06 SwitMx=.10000D-02 MixMth= 2
 Mixed Optimization -- En-DIIS/RFO-DIIS
 Swapping is turned off.
 Update second derivatives using D2CorX and points    1    2    3    4    5
                                                      6    7    8    9
 DE= -2.25D-10 DEPred=-9.58D-11 R= 2.35D+00
 Trust test= 2.35D+00 RLast= 1.39D-04 DXMaxT set to 5.05D-01
 ITU=  0  0  0  0  1  1  1  1  0
     Eigenvalues ---   -0.21079   0.00083   0.01681   0.03017   0.03047
     Eigenvalues ---    0.10722   0.10740   0.15012   0.19563   0.24052
     Eigenvalues ---    0.24873   0.25824   0.30200   0.34770   0.35228
     Eigenvalues ---    0.36029   0.41771   0.42562   0.56460   0.59148
     Eigenvalues ---    0.60069
 Eigenvalue     1 is  -2.11D-01 should be greater than     0.000000 Eigenvector:
                          R5        A4        A3        A2        R8
   1                   -0.43147   0.39352  -0.36044   0.34366   0.32395
                          R7        A5        D6        A6        D9
   1                    0.31524  -0.21857   0.18016  -0.17494   0.17410
 Use linear search instead of GDIIS.
 RFO step:  Lambda=-2.10785594D-01 EMin=-2.10785591D-01
 I=     1 Eig=   -2.11D-01 Dot1= -6.70D-07
 I=     1 Stepn= -6.00D-01 RXN=   6.00D-01 EDone=F
 Mixed    1 eigenvectors in step.  Raw Step.Grad=  6.70D-07.
 RFO eigenvector is Hessian eigenvector with negative curvature.
 Taking step of  6.00D-01 in eigenvector direction(s).  Step.Grad= -9.41D-08.
 Skip linear search -- no minimum in search direction.
 Maximum step size (   0.505) exceeded in Quadratic search.
    -- Step size not scaled.
 Iteration  1 RMS(Cart)=  0.19893423 RMS(Int)=  0.02525320
 Iteration  2 RMS(Cart)=  0.04312660 RMS(Int)=  0.00104519
 Iteration  3 RMS(Cart)=  0.00079492 RMS(Int)=  0.00085052
 Iteration  4 RMS(Cart)=  0.00000062 RMS(Int)=  0.00085052
 ITry= 1 IFail=0 DXMaxC= 5.66D-01 DCOld= 1.00D+10 DXMaxT= 5.05D-01 DXLimC= 3.00D+00 Rises=F
 Variable       Old X    -DE/DX   Delta X   Delta X   Delta X     New X
                                 (Linear)    (Quad)   (Total)
    R1        2.04850   0.00000   0.00000  -0.00765  -0.00765   2.04085
    R2        2.04915  -0.00000   0.00000   0.00855   0.00855   2.05769
    R3        2.50379  -0.00000   0.00000   0.03297   0.03297   2.53676
    R4        2.87340   0.00000   0.00000  -0.00014  -0.00014   2.87326
    R5        2.54826   0.00000   0.00000   0.25888   0.25888   2.80714
    R6        2.53625   0.00000   0.00000   0.03647   0.03647   2.57273
    R7        2.56157  -0.00000   0.00000  -0.18915  -0.18915   2.37242
    R8        2.56157  -0.00000   0.00000  -0.19437  -0.19437   2.36720
    A1        2.07585   0.00000   0.00000  -0.01007  -0.01007   2.06578
    A2        2.09661  -0.00000   0.00000  -0.20620  -0.20620   1.89040
    A3        2.11073   0.00000   0.00000   0.21626   0.21626   2.32698
    A4        2.17939  -0.00000   0.00000  -0.23611  -0.23611   1.94328
    A5        2.13454   0.00000   0.00000   0.13114   0.13114   2.26568
    A6        1.96926   0.00000   0.00000   0.10497   0.10496   2.07422
    A7        1.94937  -0.00000   0.00000   0.01255   0.01277   1.96214
    A8        1.94085  -0.00000   0.00000   0.03406   0.03228   1.97313
    A9        1.94085   0.00000   0.00000   0.04240   0.04064   1.98150
   A10        1.88414   0.00000   0.00000  -0.07027  -0.07008   1.81406
   A11        1.88413  -0.00000   0.00000  -0.07330  -0.07309   1.81105
   A12        1.86088   0.00000   0.00000   0.05024   0.04715   1.90804
    D1        0.00002   0.00000   0.00000  -0.00508  -0.00503  -0.00501
    D2       -3.14159   0.00000   0.00000  -0.00904  -0.00909   3.13250
    D3       -3.14157   0.00000   0.00000   0.00234   0.00239  -3.13918
    D4       -0.00000   0.00000   0.00000  -0.00162  -0.00167  -0.00168
    D5       -3.14142   0.00000   0.00000  -0.05058  -0.05055   3.09121
    D6       -1.03530   0.00000   0.00000  -0.10809  -0.10926  -1.14456
    D7        1.03565   0.00000   0.00000   0.00503   0.00627   1.04193
    D8        0.00019   0.00000   0.00000  -0.04694  -0.04699  -0.04680
    D9        2.10631   0.00000   0.00000  -0.10446  -0.10570   2.00061
   D10       -2.10592   0.00000   0.00000   0.00866   0.00984  -2.09609
         Item               Value     Threshold  Converged?
 Maximum Force            0.000001     0.000015     YES
 RMS     Force            0.000000     0.000010     YES
 Maximum Displacement     0.566429     0.000060     NO 
 RMS     Displacement     0.231628     0.000040     NO 
 Predicted change in Energy=-3.791860D-02
 Lowest energy point so far.  Saving SCF results.
 GradGradGradGradGradGradGradGradGradGradGradGradGradGradGradGradGradGrad

 Leave Link  103 at Thu Apr  2 13:33:00 2026, MaxMem=  2147483648 cpu:               0.2 elap:               0.0
 (Enter /Users/yarger/Applications/g16/l202.exe)
                          Input orientation:                          
 ---------------------------------------------------------------------
 Center     Atomic      Atomic             Coordinates (Angstroms)
 Number     Number       Type             X           Y           Z
 ---------------------------------------------------------------------
      1          6           0        1.701388    1.024873   -0.008054
      2          1           0        1.001875    1.847317   -0.032574
      3          1           0        2.766434    1.251448   -0.010845
      4          6           0        1.003672   -0.121761    0.013044
      5          6           0       -0.493803    0.141428    0.002327
      6          9           0       -1.222722   -1.007646   -0.040023
      7          9           0       -0.898955    0.718430    1.041090
      8          9           0       -0.882489    0.778234   -1.003945
      9          9           0        1.484119   -1.527157    0.038976
 ---------------------------------------------------------------------
                    Distance matrix (angstroms):
                    1          2          3          4          5
     1  C    0.000000
     2  H    1.079969   0.000000
     3  H    1.088883   1.862579   0.000000
     4  C    1.342394   1.969608   2.234637   0.000000
     5  C    2.366315   2.268993   3.444047   1.520465   0.000000
     6  F    3.561260   3.619352   4.584509   2.396756   1.361428
     7  F    2.820708   2.457702   3.850422   2.320084   1.255432
     8  F    2.780117   2.374306   3.811144   2.324191   1.252670
     9  F    2.561694   3.409509   3.060630   1.485476   2.587990
                    6          7          8          9
     6  F    0.000000
     7  F    2.062273   0.000000
     8  F    2.057734   2.045976   0.000000
     9  F    2.757376   3.424315   3.464584   0.000000
 Stoichiometry    C3H2F4
 Framework group  C1[X(C3H2F4)]
 Deg. of freedom    21
 Full point group                 C1      NOp   1
 RotChk:  IX=2 Diff= 2.57D-01
 Largest Abelian subgroup         C1      NOp   1
 Largest concise Abelian subgroup C1      NOp   1
                         Standard orientation:                         
 ---------------------------------------------------------------------
 Center     Atomic      Atomic             Coordinates (Angstroms)
 Number     Number       Type             X           Y           Z
 ---------------------------------------------------------------------
      1          6           0        1.385112   -1.351146    0.004073
      2          1           0        0.526143   -2.005715    0.010885
      3          1           0        2.377295   -1.799726    0.008126
      4          6           0        0.948127   -0.081876   -0.000504
      5          6           0       -0.571066   -0.019687   -0.001671
      6          9           0       -1.038553    1.257611    0.057081
      7          9           0       -1.081110   -0.480349   -1.052268
      8          9           0       -1.095106   -0.574868    0.991475
      9          9           0        1.717382    1.188905    0.000333
 ---------------------------------------------------------------------
 Rotational constants (GHZ):           3.7261633           2.4580144           1.9312457
 Leave Link  202 at Thu Apr  2 13:33:00 2026, MaxMem=  2147483648 cpu:               0.0 elap:               0.0
 (Enter /Users/yarger/Applications/g16/l301.exe)
 Standard basis: 6-31+G(d) (6D, 7F)
 Ernie: Thresh=  0.10000D-02 Tol=  0.10000D-05 Strict=F.
 There are   137 symmetry adapted cartesian basis functions of A   symmetry.
 There are   137 symmetry adapted basis functions of A   symmetry.
   137 basis functions,   232 primitive gaussians,   137 cartesian basis functions
    28 alpha electrons       28 beta electrons
       nuclear repulsion energy       333.9655690932 Hartrees.
 IExCor=  402 DFT=T Ex+Corr=B3LYP ExCW=0 ScaHFX=  0.200000
 ScaDFX=  0.800000  0.720000  1.000000  0.810000 ScalE2=  1.000000  1.000000
 IRadAn=      5 IRanWt=     -1 IRanGd=            0 ICorTp=0 IEmpDi=  4
 NAtoms=    9 NActive=    9 NUniq=    9 SFac= 1.00D+00 NAtFMM=   60 NAOKFM=F Big=F
 Integral buffers will be    131072 words long.
 Raffenetti 2 integral format.
 Two-electron integral symmetry is turned on.
 Leave Link  301 at Thu Apr  2 13:33:00 2026, MaxMem=  2147483648 cpu:               0.1 elap:               0.0
 (Enter /Users/yarger/Applications/g16/l302.exe)
 NPDir=0 NMtPBC=     1 NCelOv=     1 NCel=       1 NClECP=     1 NCelD=      1
         NCelK=      1 NCelE2=     1 NClLst=     1 CellRange=     0.0.
 One-electron integrals computed using PRISM.
 One-electron integral symmetry used in STVInt
 NBasis=   137 RedAO= T EigKep=  9.29D-05  NBF=   137
 NBsUse=   137 1.00D-06 EigRej= -1.00D+00 NBFU=   137
 Precomputing XC quadrature grid using
 IXCGrd= 4 IRadAn=           5 IRanWt=          -1 IRanGd=           0 AccXCQ= 0.00D+00.
 Generated NRdTot=       0 NPtTot=           0 NUsed=           0 NTot=          32
 NSgBfM=   137   137   137   137   137 MxSgAt=     9 MxSgA2=     9.
 Leave Link  302 at Thu Apr  2 13:33:00 2026, MaxMem=  2147483648 cpu:               0.8 elap:               0.1
 (Enter /Users/yarger/Applications/g16/l303.exe)
 DipDrv:  MaxL=1.
 Leave Link  303 at Thu Apr  2 13:33:00 2026, MaxMem=  2147483648 cpu:               0.1 elap:               0.0
 (Enter /Users/yarger/Applications/g16/l401.exe)
 Initial guess from the checkpoint file:  "2223Tetrafluoropropene_Opt_Freq_DFT_B3LYP_631pd_Gaussian16.chk"
 B after Tr=    -0.000000   -0.000000    0.000000
         Rot=    0.998327   -0.013549    0.001300    0.056190 Ang=  -6.63 deg.
 Guess basis will be translated and rotated to current coordinates.
 JPrj=2 DoOrth=T DoCkMO=T.
 Generating alternative initial guess.
 ExpMin= 4.38D-02 ExpMax= 7.00D+03 ExpMxC= 1.05D+03 IAcc=2 IRadAn=         4 AccDes= 0.00D+00
 Harris functional with IExCor=  402 and IRadAn=       4 diagonalized for initial guess.
 HarFok:  IExCor=  402 AccDes= 0.00D+00 IRadAn=         4 IDoV= 1 UseB2=F ITyADJ=14
 ICtDFT=  3500011 ScaDFX=  1.000000  1.000000  1.000000  1.000000
 FoFCou: FMM=F IPFlag=           0 FMFlag=      100000 FMFlg1=           0
         NFxFlg=           0 DoJE=T BraDBF=F KetDBF=T FulRan=T
         wScrn=  0.000000 ICntrl=       500 IOpCl=  0 I1Cent=   200000004 NGrid=           0
         NMat0=    1 NMatS0=      1 NMatT0=    0 NMatD0=    1 NMtDS0=    0 NMtDT0=    0
 Petite list used in FoFCou.
 Harris En= -514.818359613679    
 Leave Link  401 at Thu Apr  2 13:33:00 2026, MaxMem=  2147483648 cpu:               1.5 elap:               0.2
 (Enter /Users/yarger/Applications/g16/l502.exe)
 Keep R1 ints in memory in canonical form, NReq=52385408.
 FoFCou: FMM=F IPFlag=           0 FMFlag=           0 FMFlg1=           0
         NFxFlg=           0 DoJE=F BraDBF=F KetDBF=F FulRan=T
         wScrn=  0.000000 ICntrl=       600 IOpCl=  0 I1Cent=           0 NGrid=           0
         NMat0=    1 NMatS0=   9453 NMatT0=    0 NMatD0=    1 NMtDS0=    0 NMtDT0=    0
 Symmetry not used in FoFCou.
 Two-electron integral symmetry not used.
 Closed shell SCF:
 Using DIIS extrapolation, IDIIS=  1040.
 NGot=  2147483648 LenX=  2102759234 LenY=  2102740024
 Requested convergence on RMS density matrix=1.00D-08 within 128 cycles.
 Requested convergence on MAX density matrix=1.00D-06.
 Requested convergence on             energy=1.00D-06.
 No special actions if energy rises.

 Cycle   1  Pass 1  IDiag  1:
 E= -514.788692517412    
 DIIS: error= 1.17D-02 at cycle   1 NSaved=   1.
 NSaved= 1 IEnMin= 1 EnMin= -514.788692517412     IErMin= 1 ErrMin= 1.17D-02
 ErrMax= 1.17D-02  0.00D+00 EMaxC= 1.00D-01 BMatC= 3.56D-02 BMatP= 3.56D-02
 IDIUse=3 WtCom= 8.83D-01 WtEn= 1.17D-01
 Coeff-Com:  0.100D+01
 Coeff-En:   0.100D+01
 Coeff:      0.100D+01
 Recover alternate guess density for next cycle.
 RMSDP=3.53D-03 MaxDP=9.53D-02              OVMax= 0.00D+00

 Cycle   2  Pass 1  IDiag  1:
 E= -514.717341454063     Delta-E=        0.071351063349 Rises=F Damp=F
 Switch densities from cycles 1 and 2 for lowest energy.
 DIIS: error= 2.03D-02 at cycle   2 NSaved=   2.
 NSaved= 2 IEnMin= 1 EnMin= -514.788692517412     IErMin= 1 ErrMin= 1.17D-02
 ErrMax= 2.03D-02  0.00D+00 EMaxC= 1.00D+00 BMatC= 1.57D-01 BMatP= 3.56D-02
 IDIUse=1 WtCom= 1.00D+00 WtEn= 0.00D+00
 Coeff-Com:  0.836D+00 0.164D+00
 Coeff:      0.836D+00 0.164D+00
 Gap=     0.252 Goal=   None    Shift=    0.000
 RMSDP=3.00D-03 MaxDP=4.91D-02 DE= 7.14D-02 OVMax= 1.68D-01

 Cycle   3  Pass 1  IDiag  1:
 E= -514.828242241780     Delta-E=       -0.110900787717 Rises=F Damp=F
 DIIS: error= 6.45D-03 at cycle   3 NSaved=   3.
 NSaved= 3 IEnMin= 3 EnMin= -514.828242241780     IErMin= 3 ErrMin= 6.45D-03
 ErrMax= 6.45D-03  0.00D+00 EMaxC= 1.00D+00 BMatC= 1.46D-02 BMatP= 3.56D-02
 IDIUse=1 WtCom= 1.00D+00 WtEn= 0.00D+00
 Coeff-Com:  0.536D-01 0.209D+00 0.737D+00
 Coeff:      0.536D-01 0.209D+00 0.737D+00
 Gap=     0.261 Goal=   None    Shift=    0.000
 RMSDP=9.27D-04 MaxDP=2.68D-02 DE=-1.11D-01 OVMax= 5.47D-02

 Cycle   4  Pass 1  IDiag  1:
 E= -514.839271522263     Delta-E=       -0.011029280483 Rises=F Damp=F
 DIIS: error= 2.72D-03 at cycle   4 NSaved=   4.
 NSaved= 4 IEnMin= 4 EnMin= -514.839271522263     IErMin= 4 ErrMin= 2.72D-03
 ErrMax= 2.72D-03  0.00D+00 EMaxC= 1.00D+00 BMatC= 1.58D-03 BMatP= 1.46D-02
 IDIUse=1 WtCom= 1.00D+00 WtEn= 0.00D+00
 Coeff-Com: -0.126D-01 0.837D-01 0.369D+00 0.560D+00
 Coeff:     -0.126D-01 0.837D-01 0.369D+00 0.560D+00
 Gap=     0.263 Goal=   None    Shift=    0.000
 RMSDP=3.04D-04 MaxDP=8.33D-03 DE=-1.10D-02 OVMax= 1.35D-02

 Cycle   5  Pass 1  IDiag  1:
 E= -514.840387420652     Delta-E=       -0.001115898389 Rises=F Damp=F
 DIIS: error= 6.38D-04 at cycle   5 NSaved=   5.
 NSaved= 5 IEnMin= 5 EnMin= -514.840387420652     IErMin= 5 ErrMin= 6.38D-04
 ErrMax= 6.38D-04  0.00D+00 EMaxC= 1.00D+00 BMatC= 1.39D-04 BMatP= 1.58D-03
 IDIUse=1 WtCom= 1.00D+00 WtEn= 0.00D+00
 Coeff-Com: -0.926D-02 0.150D-01 0.978D-01 0.280D+00 0.617D+00
 Coeff:     -0.926D-02 0.150D-01 0.978D-01 0.280D+00 0.617D+00
 Gap=     0.263 Goal=   None    Shift=    0.000
 RMSDP=7.85D-05 MaxDP=1.52D-03 DE=-1.12D-03 OVMax= 1.65D-03

 Cycle   6  Pass 1  IDiag  1:
 E= -514.840477669728     Delta-E=       -0.000090249076 Rises=F Damp=F
 DIIS: error= 1.66D-04 at cycle   6 NSaved=   6.
 NSaved= 6 IEnMin= 6 EnMin= -514.840477669728     IErMin= 6 ErrMin= 1.66D-04
 ErrMax= 1.66D-04  0.00D+00 EMaxC= 1.00D+00 BMatC= 7.11D-06 BMatP= 1.39D-04
 IDIUse=1 WtCom= 1.00D+00 WtEn= 0.00D+00
 Coeff-Com: -0.234D-02 0.143D-02 0.215D-01 0.913D-01 0.271D+00 0.617D+00
 Coeff:     -0.234D-02 0.143D-02 0.215D-01 0.913D-01 0.271D+00 0.617D+00
 Gap=     0.263 Goal=   None    Shift=    0.000
 RMSDP=2.05D-05 MaxDP=3.97D-04 DE=-9.02D-05 OVMax= 3.90D-04

 Cycle   7  Pass 1  IDiag  1:
 E= -514.840482613535     Delta-E=       -0.000004943807 Rises=F Damp=F
 DIIS: error= 7.21D-05 at cycle   7 NSaved=   7.
 NSaved= 7 IEnMin= 7 EnMin= -514.840482613535     IErMin= 7 ErrMin= 7.21D-05
 ErrMax= 7.21D-05  0.00D+00 EMaxC= 1.00D+00 BMatC= 5.26D-07 BMatP= 7.11D-06
 IDIUse=1 WtCom= 1.00D+00 WtEn= 0.00D+00
 Coeff-Com: -0.582D-03-0.232D-03 0.473D-02 0.293D-01 0.101D+00 0.302D+00
 Coeff-Com:  0.564D+00
 Coeff:     -0.582D-03-0.232D-03 0.473D-02 0.293D-01 0.101D+00 0.302D+00
 Coeff:      0.564D+00
 Gap=     0.263 Goal=   None    Shift=    0.000
 RMSDP=4.87D-06 MaxDP=1.67D-04 DE=-4.94D-06 OVMax= 1.65D-04

 Cycle   8  Pass 1  IDiag  1:
 E= -514.840482889250     Delta-E=       -0.000000275714 Rises=F Damp=F
 DIIS: error= 2.25D-05 at cycle   8 NSaved=   8.
 NSaved= 8 IEnMin= 8 EnMin= -514.840482889250     IErMin= 8 ErrMin= 2.25D-05
 ErrMax= 2.25D-05  0.00D+00 EMaxC= 1.00D+00 BMatC= 9.70D-08 BMatP= 5.26D-07
 IDIUse=1 WtCom= 1.00D+00 WtEn= 0.00D+00
 Coeff-Com: -0.182D-03-0.238D-03 0.777D-03 0.841D-02 0.330D-01 0.116D+00
 Coeff-Com:  0.350D+00 0.492D+00
 Coeff:     -0.182D-03-0.238D-03 0.777D-03 0.841D-02 0.330D-01 0.116D+00
 Coeff:      0.350D+00 0.492D+00
 Gap=     0.263 Goal=   None    Shift=    0.000
 RMSDP=2.03D-06 MaxDP=5.41D-05 DE=-2.76D-07 OVMax= 6.66D-05

 Cycle   9  Pass 1  IDiag  1:
 E= -514.840482958044     Delta-E=       -0.000000068795 Rises=F Damp=F
 DIIS: error= 2.73D-06 at cycle   9 NSaved=   9.
 NSaved= 9 IEnMin= 9 EnMin= -514.840482958044     IErMin= 9 ErrMin= 2.73D-06
 ErrMax= 2.73D-06  0.00D+00 EMaxC= 1.00D+00 BMatC= 1.96D-09 BMatP= 9.70D-08
 IDIUse=1 WtCom= 1.00D+00 WtEn= 0.00D+00
 Coeff-Com: -0.306D-04-0.625D-04-0.353D-04 0.108D-02 0.542D-02 0.234D-01
 Coeff-Com:  0.954D-01 0.176D+00 0.699D+00
 Coeff:     -0.306D-04-0.625D-04-0.353D-04 0.108D-02 0.542D-02 0.234D-01
 Coeff:      0.954D-01 0.176D+00 0.699D+00
 Gap=     0.263 Goal=   None    Shift=    0.000
 RMSDP=4.37D-07 MaxDP=1.39D-05 DE=-6.88D-08 OVMax= 2.39D-05

 Cycle  10  Pass 1  IDiag  1:
 E= -514.840482959232     Delta-E=       -0.000000001188 Rises=F Damp=F
 DIIS: error= 1.52D-06 at cycle  10 NSaved=  10.
 NSaved=10 IEnMin=10 EnMin= -514.840482959232     IErMin=10 ErrMin= 1.52D-06
 ErrMax= 1.52D-06  0.00D+00 EMaxC= 1.00D+00 BMatC= 6.61D-10 BMatP= 1.96D-09
 IDIUse=1 WtCom= 1.00D+00 WtEn= 0.00D+00
 Coeff-Com:  0.528D-05-0.577D-05-0.138D-03-0.513D-03-0.140D-02-0.219D-02
 Coeff-Com:  0.895D-02 0.331D-01 0.396D+00 0.566D+00
 Coeff:      0.528D-05-0.577D-05-0.138D-03-0.513D-03-0.140D-02-0.219D-02
 Coeff:      0.895D-02 0.331D-01 0.396D+00 0.566D+00
 Gap=     0.263 Goal=   None    Shift=    0.000
 RMSDP=1.70D-07 MaxDP=5.19D-06 DE=-1.19D-09 OVMax= 9.90D-06

 Cycle  11  Pass 1  IDiag  1:
 E= -514.840482959738     Delta-E=       -0.000000000506 Rises=F Damp=F
 DIIS: error= 3.13D-07 at cycle  11 NSaved=  11.
 NSaved=11 IEnMin=11 EnMin= -514.840482959738     IErMin=11 ErrMin= 3.13D-07
 ErrMax= 3.13D-07  0.00D+00 EMaxC= 1.00D+00 BMatC= 3.30D-11 BMatP= 6.61D-10
 IDIUse=1 WtCom= 1.00D+00 WtEn= 0.00D+00
 Coeff-Com:  0.629D-05-0.372D-05-0.716D-04-0.271D-03-0.834D-03-0.167D-02
 Coeff-Com:  0.108D-02 0.986D-02 0.171D+00 0.281D+00 0.539D+00
 Coeff:      0.629D-05-0.372D-05-0.716D-04-0.271D-03-0.834D-03-0.167D-02
 Coeff:      0.108D-02 0.986D-02 0.171D+00 0.281D+00 0.539D+00
 Gap=     0.263 Goal=   None    Shift=    0.000
 RMSDP=5.09D-08 MaxDP=2.11D-06 DE=-5.06D-10 OVMax= 3.48D-06

 Cycle  12  Pass 1  IDiag  1:
 E= -514.840482959761     Delta-E=       -0.000000000023 Rises=F Damp=F
 DIIS: error= 1.62D-07 at cycle  12 NSaved=  12.
 NSaved=12 IEnMin=12 EnMin= -514.840482959761     IErMin=12 ErrMin= 1.62D-07
 ErrMax= 1.62D-07  0.00D+00 EMaxC= 1.00D+00 BMatC= 4.72D-12 BMatP= 3.30D-11
 IDIUse=1 WtCom= 1.00D+00 WtEn= 0.00D+00
 Coeff-Com:  0.156D-05 0.258D-06-0.185D-04-0.707D-04-0.267D-03-0.622D-03
 Coeff-Com: -0.987D-03 0.349D-03 0.336D-01 0.620D-01 0.288D+00 0.618D+00
 Coeff:      0.156D-05 0.258D-06-0.185D-04-0.707D-04-0.267D-03-0.622D-03
 Coeff:     -0.987D-03 0.349D-03 0.336D-01 0.620D-01 0.288D+00 0.618D+00
 Gap=     0.263 Goal=   None    Shift=    0.000
 RMSDP=1.63D-08 MaxDP=5.72D-07 DE=-2.27D-11 OVMax= 8.66D-07

 Cycle  13  Pass 1  IDiag  1:
 E= -514.840482959769     Delta-E=       -0.000000000008 Rises=F Damp=F
 DIIS: error= 1.10D-08 at cycle  13 NSaved=  13.
 NSaved=13 IEnMin=13 EnMin= -514.840482959769     IErMin=13 ErrMin= 1.10D-08
 ErrMax= 1.10D-08  0.00D+00 EMaxC= 1.00D+00 BMatC= 5.07D-14 BMatP= 4.72D-12
 IDIUse=1 WtCom= 1.00D+00 WtEn= 0.00D+00
 Coeff-Com:  0.723D-07 0.225D-06-0.265D-06 0.137D-05-0.907D-05-0.345D-04
 Coeff-Com: -0.293D-03-0.547D-03-0.337D-02-0.550D-02 0.382D-01 0.112D+00
 Coeff-Com:  0.860D+00
 Coeff:      0.723D-07 0.225D-06-0.265D-06 0.137D-05-0.907D-05-0.345D-04
 Coeff:     -0.293D-03-0.547D-03-0.337D-02-0.550D-02 0.382D-01 0.112D+00
 Coeff:      0.860D+00
 Gap=     0.263 Goal=   None    Shift=    0.000
 RMSDP=2.84D-09 MaxDP=3.82D-08 DE=-8.19D-12 OVMax= 5.86D-08

 SCF Done:  E(RB3LYP) =  -514.840482960     A.U. after   13 cycles
            NFock= 13  Conv=0.28D-08     -V/T= 2.0073
 KE= 5.111058728305D+02 PE=-1.886003165582D+03 EE= 5.260912406983D+02
 Leave Link  502 at Thu Apr  2 13:33:04 2026, MaxMem=  2147483648 cpu:              24.9 elap:               3.4
 (Enter /Users/yarger/Applications/g16/l701.exe)
 ... and contract with generalized density number  0.
 Compute integral first derivatives.
 Leave Link  701 at Thu Apr  2 13:33:04 2026, MaxMem=  2147483648 cpu:               0.5 elap:               0.1
 (Enter /Users/yarger/Applications/g16/l702.exe)
 L702 exits ... SP integral derivatives will be done elsewhere.
 Leave Link  702 at Thu Apr  2 13:33:04 2026, MaxMem=  2147483648 cpu:               0.1 elap:               0.0
 (Enter /Users/yarger/Applications/g16/l703.exe)
 Integral derivatives from FoFJK, PRISM(SPDF).
 Compute integral first derivatives, UseDBF=F ICtDFT=           0.
 Calling FoFJK, ICntrl=      2127 FMM=F ISym2X=0 I1Cent= 0 IOpClX= 0 NMat=1 NMatS=1 NMatT=0.
 FoFJK:  IHMeth= 1 ICntrl=    2127 DoSepK=F KAlg= 0 I1Cent=           0 FoldK=F
 IRaf=         0 NMat=       1 IRICut=       1 DoRegI=T DoRafI=F ISym2E= 0 IDoP0=0 IntGTp=1.
 FoFCou: FMM=F IPFlag=           0 FMFlag=      100000 FMFlg1=         800
         NFxFlg=           0 DoJE=F BraDBF=F KetDBF=F FulRan=T
         wScrn=  0.000000 ICntrl=      2127 IOpCl=  0 I1Cent=           0 NGrid=           0
         NMat0=    1 NMatS0=      1 NMatT0=    0 NMatD0=    1 NMtDS0=    0 NMtDT0=    0
 Symmetry not used in FoFCou.
 Leave Link  703 at Thu Apr  2 13:33:05 2026, MaxMem=  2147483648 cpu:               6.2 elap:               0.8
 (Enter /Users/yarger/Applications/g16/l716.exe)
 Dipole        = 3.91776476D-01-1.13999802D+00-1.20724886D-03
 ***** Axes restored to original set *****
 -------------------------------------------------------------------
 Center     Atomic                   Forces (Hartrees/Bohr)
 Number     Number              X              Y              Z
 -------------------------------------------------------------------
      1        6           0.001487737   -0.025478109    0.000287063
      2        1           0.007630854    0.012341069   -0.000017607
      3        1          -0.003255264   -0.008528986    0.000384546
      4        6           0.034709067   -0.027875901   -0.000966042
      5        6           0.021467978   -0.118702814    0.000647706
      6        9           0.002194007   -0.030995668   -0.000475503
      7        9          -0.020575315    0.058247910    0.089157323
      8        9          -0.018985922    0.065316671   -0.088016655
      9        9          -0.024673141    0.075675827   -0.001000831
 -------------------------------------------------------------------
 Cartesian Forces:  Max     0.118702814 RMS     0.042566307
 Leave Link  716 at Thu Apr  2 13:33:05 2026, MaxMem=  2147483648 cpu:               0.1 elap:               0.0
 (Enter /Users/yarger/Applications/g16/l103.exe)

 GradGradGradGradGradGradGradGradGradGradGradGradGradGradGradGradGradGrad
 Berny optimization.
 Using GEDIIS/GDIIS optimizer.
 FormGI is forming the generalized inverse of G from B-inverse, IUseBI=4.
 Internal  Forces:  Max     0.109799306 RMS     0.035962126
 Search for a local minimum.
 Step number  10 out of a maximum of   40
 All quantities printed in internal units (Hartrees-Bohrs-Radians)
 RMS Force = .35962D-01 SwitMx=.10000D-02 MixMth= 1
 Mixed Optimization -- RFO/linear search
 Update second derivatives using D2CorX and points    1    2    3    4    5
                                                      6    7    8   10    9
 ITU=  0  0  0  0  0  1  1  1  1  0
 Use linear search instead of GDIIS.
     Eigenvalues ---   -0.01531   0.01526   0.01882   0.03041   0.03051
     Eigenvalues ---    0.10680   0.10717   0.13502   0.15972   0.24649
     Eigenvalues ---    0.24887   0.25285   0.27042   0.31108   0.35208
     Eigenvalues ---    0.35467   0.41222   0.45280   0.56461   0.60060
     Eigenvalues ---    0.68132
 Eigenvalue     1 is  -1.53D-02 should be greater than     0.000000 Eigenvector:
                          R5        D9        D8        D10       D6
   1                   -0.41235  -0.38314  -0.34565  -0.32330  -0.32012
                          R6        D5        D7        R8        A8
   1                    0.31518  -0.28263  -0.26029  -0.13803   0.13556
 RFO step:  Lambda=-1.53144382D-02 EMin=-1.53144352D-02
 I=     1 Eig=   -1.53D-02 Dot1= -6.27D-07
 I=     1 Stepn= -6.00D-01 RXN=   6.00D-01 EDone=F
 Mixed    1 eigenvectors in step.  Raw Step.Grad=  6.27D-07.
 RFO eigenvector is Hessian eigenvector with negative curvature.
 Taking step of  6.00D-01 in eigenvector direction(s).  Step.Grad=  4.28D-08.
 Quartic linear search produced a step of -0.99999.
 Iteration  1 RMS(Cart)=  0.22423329 RMS(Int)=  0.04856633
 Iteration  2 RMS(Cart)=  0.05260638 RMS(Int)=  0.00335523
 Iteration  3 RMS(Cart)=  0.00200822 RMS(Int)=  0.00275662
 Iteration  4 RMS(Cart)=  0.00001017 RMS(Int)=  0.00275662
 Iteration  5 RMS(Cart)=  0.00000009 RMS(Int)=  0.00275662
 ITry= 1 IFail=0 DXMaxC= 5.20D-01 DCOld= 1.00D+10 DXMaxT= 5.05D-01 DXLimC= 3.00D+00 Rises=F
 Variable       Old X    -DE/DX   Delta X   Delta X   Delta X     New X
                                 (Linear)    (Quad)   (Total)
    R1        2.04085   0.00446   0.00765   0.01145   0.01911   2.05995
    R2        2.05769  -0.00496  -0.00855  -0.00567  -0.01422   2.04347
    R3        2.53676  -0.01547  -0.03297   0.00677  -0.02620   2.51056
    R4        2.87326   0.01113   0.00014  -0.03680  -0.03666   2.83661
    R5        2.80714  -0.07959  -0.25888   0.24741  -0.01147   2.79567
    R6        2.57273   0.02500  -0.03647  -0.18911  -0.22558   2.34714
    R7        2.37242   0.10718   0.18915   0.07764   0.26679   2.63921
    R8        2.36720   0.10980   0.19437   0.08282   0.27718   2.64439
    A1        2.06578  -0.00413   0.01007  -0.01566  -0.00560   2.06017
    A2        1.89040   0.02405   0.20620  -0.01000   0.19618   2.08659
    A3        2.32698  -0.01991  -0.21625   0.02570  -0.19058   2.13641
    A4        1.94328   0.05577   0.23611   0.04140   0.27734   2.22062
    A5        2.26568  -0.02947  -0.13114  -0.03413  -0.16540   2.10028
    A6        2.07422  -0.02630  -0.10496  -0.00742  -0.11257   1.96165
    A7        1.96214  -0.02176  -0.01277   0.03070   0.01837   1.98051
    A8        1.97313  -0.01347  -0.03228  -0.08134  -0.11777   1.85536
    A9        1.98150  -0.01532  -0.04064  -0.05849  -0.10329   1.87820
   A10        1.81406   0.02309   0.07008   0.04430   0.11496   1.92902
   A11        1.81105   0.02433   0.07309   0.02493   0.09833   1.90938
   A12        1.90804   0.00955  -0.04715   0.05873   0.00135   1.90939
    D1       -0.00501  -0.00001   0.00503   0.04842   0.05274   0.04773
    D2        3.13250   0.00044   0.00909   0.00541   0.01521  -3.13547
    D3       -3.13918  -0.00040  -0.00239   0.04153   0.03843  -3.10076
    D4       -0.00168   0.00004   0.00167  -0.00148   0.00090  -0.00077
    D5        3.09121   0.00022   0.05055   0.16958   0.21973  -2.97224
    D6       -1.14456   0.00560   0.10926   0.19207   0.29618  -0.84838
    D7        1.04193  -0.00527  -0.00627   0.15617   0.15393   1.19586
    D8       -0.04680  -0.00014   0.04699   0.20739   0.25499   0.20819
    D9        2.00061   0.00524   0.10569   0.22988   0.33144   2.33205
   D10       -2.09609  -0.00563  -0.00984   0.19398   0.18919  -1.90689
         Item               Value     Threshold  Converged?
 Maximum Force            0.109799     0.000015     NO 
 RMS     Force            0.035962     0.000010     NO 
 Maximum Displacement     0.519917     0.000060     NO 
 RMS     Displacement     0.254700     0.000040     NO 
 Predicted change in Energy=-4.359408D-03
 GradGradGradGradGradGradGradGradGradGradGradGradGradGradGradGradGradGrad

 Leave Link  103 at Thu Apr  2 13:33:05 2026, MaxMem=  2147483648 cpu:               0.1 elap:               0.0
 (Enter /Users/yarger/Applications/g16/l202.exe)
                          Input orientation:                          
 ---------------------------------------------------------------------
 Center     Atomic      Atomic             Coordinates (Angstroms)
 Number     Number       Type             X           Y           Z
 ---------------------------------------------------------------------
      1          6           0        1.707922    1.074054    0.046780
      2          1           0        1.277004    2.070432    0.145858
      3          1           0        2.784974    0.988073    0.003166
      4          6           0        0.906380    0.015997   -0.008323
      5          6           0       -0.594682    0.012646   -0.006122
      6          9           0       -1.086731   -1.120039    0.126593
      7          9           0       -0.987077    0.843306    1.045806
      8          9           0       -1.021123    0.565479   -1.218847
      9          9           0        1.472851   -1.344783   -0.134914
 ---------------------------------------------------------------------
                    Distance matrix (angstroms):
                    1          2          3          4          5
     1  C    0.000000
     2  H    1.090080   0.000000
     3  H    1.081359   1.861675   0.000000
     4  C    1.328529   2.093283   2.115226   0.000000
     5  C    2.536014   2.785818   3.517616   1.501067   0.000000
     6  F    3.553941   3.970732   4.410156   2.298102   1.242056
     7  F    2.883456   2.727967   3.916175   2.319657   1.396611
     8  F    3.050925   3.067358   4.019736   2.341488   1.399349
     9  F    2.437016   3.432329   2.680103   1.479404   2.476670
                    6          7          8          9
     6  F    0.000000
     7  F    2.170164   0.000000
     8  F    2.157657   2.281885   0.000000
     9  F    2.582703   3.497582   3.323238   0.000000
 Stoichiometry    C3H2F4
 Framework group  C1[X(C3H2F4)]
 Deg. of freedom    21
 Full point group                 C1      NOp   1
 RotChk:  IX=0 Diff= 2.42D-01
 Largest Abelian subgroup         C1      NOp   1
 Largest concise Abelian subgroup C1      NOp   1
                         Standard orientation:                         
 ---------------------------------------------------------------------
 Center     Atomic      Atomic             Coordinates (Angstroms)
 Number     Number       Type             X           Y           Z
 ---------------------------------------------------------------------
      1          6           0        1.570962   -1.226317    0.039001
      2          1           0        1.047414   -2.182423    0.044767
      3          1           0        2.651763   -1.238399    0.071583
      4          6           0        0.872838   -0.097283   -0.014787
      5          6           0       -0.621224    0.047575   -0.014736
      6          9           0       -1.006407    1.201869   -0.263615
      7          9           0       -1.101866   -0.846526   -0.973948
      8          9           0       -1.083612   -0.334247    1.249616
      9          9           0        1.565814    1.209679   -0.031300
 ---------------------------------------------------------------------
 Rotational constants (GHZ):           3.5216036           2.3786748           1.9598956
 Leave Link  202 at Thu Apr  2 13:33:05 2026, MaxMem=  2147483648 cpu:               0.0 elap:               0.0
 (Enter /Users/yarger/Applications/g16/l301.exe)
 Standard basis: 6-31+G(d) (6D, 7F)
 Ernie: Thresh=  0.10000D-02 Tol=  0.10000D-05 Strict=F.
 There are   137 symmetry adapted cartesian basis functions of A   symmetry.
 There are   137 symmetry adapted basis functions of A   symmetry.
   137 basis functions,   232 primitive gaussians,   137 cartesian basis functions
    28 alpha electrons       28 beta electrons
       nuclear repulsion energy       327.7711966042 Hartrees.
 IExCor=  402 DFT=T Ex+Corr=B3LYP ExCW=0 ScaHFX=  0.200000
 ScaDFX=  0.800000  0.720000  1.000000  0.810000 ScalE2=  1.000000  1.000000
 IRadAn=      5 IRanWt=     -1 IRanGd=            0 ICorTp=0 IEmpDi=  4
 NAtoms=    9 NActive=    9 NUniq=    9 SFac= 1.00D+00 NAtFMM=   60 NAOKFM=F Big=F
 Integral buffers will be    131072 words long.
 Raffenetti 2 integral format.
 Two-electron integral symmetry is turned on.
 Leave Link  301 at Thu Apr  2 13:33:05 2026, MaxMem=  2147483648 cpu:               0.1 elap:               0.0
 (Enter /Users/yarger/Applications/g16/l302.exe)
 NPDir=0 NMtPBC=     1 NCelOv=     1 NCel=       1 NClECP=     1 NCelD=      1
         NCelK=      1 NCelE2=     1 NClLst=     1 CellRange=     0.0.
 One-electron integrals computed using PRISM.
 One-electron integral symmetry used in STVInt
 NBasis=   137 RedAO= T EigKep=  6.12D-05  NBF=   137
 NBsUse=   137 1.00D-06 EigRej= -1.00D+00 NBFU=   137
 Precomputing XC quadrature grid using
 IXCGrd= 4 IRadAn=           5 IRanWt=          -1 IRanGd=           0 AccXCQ= 0.00D+00.
 Generated NRdTot=       0 NPtTot=           0 NUsed=           0 NTot=          32
 NSgBfM=   137   137   137   137   137 MxSgAt=     9 MxSgA2=     9.
 Leave Link  302 at Thu Apr  2 13:33:05 2026, MaxMem=  2147483648 cpu:               0.8 elap:               0.1
 (Enter /Users/yarger/Applications/g16/l303.exe)
 DipDrv:  MaxL=1.
 Leave Link  303 at Thu Apr  2 13:33:05 2026, MaxMem=  2147483648 cpu:               0.1 elap:               0.0
 (Enter /Users/yarger/Applications/g16/l401.exe)
 Lowest energy guess from the checkpoint file:  "2223Tetrafluoropropene_Opt_Freq_DFT_B3LYP_631pd_Gaussian16.chk"
 B after Tr=     0.000000   -0.000000   -0.000000
         Rot=    0.996957    0.073782   -0.000607    0.025135 Ang=   8.94 deg.
 Guess basis will be translated and rotated to current coordinates.
 B after Tr=     0.000000   -0.000000   -0.000000
         Rot=    0.995977    0.083917   -0.003425   -0.031237 Ang=  10.28 deg.
 Guess basis will be translated and rotated to current coordinates.
 CkInt1:  FT= 7.70D-06
 Max alpha theta=  5.406 degrees.
 JPrj=2 DoOrth=T DoCkMO=T.
 Leave Link  401 at Thu Apr  2 13:33:05 2026, MaxMem=  2147483648 cpu:               0.5 elap:               0.1
 (Enter /Users/yarger/Applications/g16/l502.exe)
 Keep R1 ints in memory in canonical form, NReq=52385408.
 FoFCou: FMM=F IPFlag=           0 FMFlag=           0 FMFlg1=           0
         NFxFlg=           0 DoJE=F BraDBF=F KetDBF=F FulRan=T
         wScrn=  0.000000 ICntrl=       600 IOpCl=  0 I1Cent=           0 NGrid=           0
         NMat0=    1 NMatS0=   9453 NMatT0=    0 NMatD0=    1 NMtDS0=    0 NMtDT0=    0
 Symmetry not used in FoFCou.
 Two-electron integral symmetry not used.
 Closed shell SCF:
 Using DIIS extrapolation, IDIIS=  1040.
 NGot=  2147483648 LenX=  2102759234 LenY=  2102740024
 Requested convergence on RMS density matrix=1.00D-08 within 128 cycles.
 Requested convergence on MAX density matrix=1.00D-06.
 Requested convergence on             energy=1.00D-06.
 No special actions if energy rises.

 Cycle   1  Pass 1  IDiag  1:
 E= -514.830779328518    
 DIIS: error= 1.00D-02 at cycle   1 NSaved=   1.
 NSaved= 1 IEnMin= 1 EnMin= -514.830779328518     IErMin= 1 ErrMin= 1.00D-02
 ErrMax= 1.00D-02  0.00D+00 EMaxC= 1.00D-01 BMatC= 2.38D-02 BMatP= 2.38D-02
 IDIUse=3 WtCom= 9.00D-01 WtEn= 1.00D-01
 Coeff-Com:  0.100D+01
 Coeff-En:   0.100D+01
 Coeff:      0.100D+01
 Gap=    24.469 Goal=   None    Shift=    0.000
 GapD=   24.469 DampG=2.000 DampE=0.500 DampFc=1.0000 IDamp=-1.
 RMSDP=2.46D-03 MaxDP=4.79D-02              OVMax= 4.73D-02

 Cycle   2  Pass 1  IDiag  1:
 E= -514.865671231417     Delta-E=       -0.034891902898 Rises=F Damp=F
 DIIS: error= 4.10D-03 at cycle   2 NSaved=   2.
 NSaved= 2 IEnMin= 2 EnMin= -514.865671231417     IErMin= 2 ErrMin= 4.10D-03
 ErrMax= 4.10D-03  0.00D+00 EMaxC= 1.00D-01 BMatC= 2.79D-03 BMatP= 2.38D-02
 IDIUse=3 WtCom= 9.59D-01 WtEn= 4.10D-02
 Coeff-Com:  0.125D+00 0.875D+00
 Coeff-En:   0.000D+00 0.100D+01
 Coeff:      0.119D+00 0.881D+00
 Gap=     0.260 Goal=   None    Shift=    0.000
 RMSDP=6.12D-04 MaxDP=1.50D-02 DE=-3.49D-02 OVMax= 1.51D-02

 Cycle   3  Pass 1  IDiag  1:
 E= -514.864706880162     Delta-E=        0.000964351254 Rises=F Damp=F
 DIIS: error= 5.20D-03 at cycle   3 NSaved=   3.
 NSaved= 3 IEnMin= 2 EnMin= -514.865671231417     IErMin= 2 ErrMin= 4.10D-03
 ErrMax= 5.20D-03  0.00D+00 EMaxC= 1.00D-01 BMatC= 4.55D-03 BMatP= 2.79D-03
 IDIUse=3 WtCom= 1.22D-01 WtEn= 8.78D-01
 Coeff-Com: -0.336D-01 0.573D+00 0.460D+00
 Coeff-En:   0.000D+00 0.590D+00 0.410D+00
 Coeff:     -0.409D-02 0.588D+00 0.417D+00
 Gap=     0.257 Goal=   None    Shift=    0.000
 RMSDP=3.25D-04 MaxDP=9.65D-03 DE= 9.64D-04 OVMax= 8.74D-03

 Cycle   4  Pass 1  IDiag  1:
 E= -514.867598082201     Delta-E=       -0.002891202039 Rises=F Damp=F
 DIIS: error= 2.90D-04 at cycle   4 NSaved=   4.
 NSaved= 4 IEnMin= 4 EnMin= -514.867598082201     IErMin= 4 ErrMin= 2.90D-04
 ErrMax= 2.90D-04  0.00D+00 EMaxC= 1.00D-01 BMatC= 2.33D-05 BMatP= 2.79D-03
 IDIUse=3 WtCom= 9.97D-01 WtEn= 2.90D-03
 Coeff-Com: -0.159D-01 0.176D+00 0.139D+00 0.701D+00
 Coeff-En:   0.000D+00 0.000D+00 0.000D+00 0.100D+01
 Coeff:     -0.158D-01 0.176D+00 0.138D+00 0.702D+00
 Gap=     0.257 Goal=   None    Shift=    0.000
 RMSDP=5.78D-05 MaxDP=1.49D-03 DE=-2.89D-03 OVMax= 1.55D-03

 Cycle   5  Pass 1  IDiag  1:
 E= -514.867612355780     Delta-E=       -0.000014273579 Rises=F Damp=F
 DIIS: error= 1.65D-04 at cycle   5 NSaved=   5.
 NSaved= 5 IEnMin= 5 EnMin= -514.867612355780     IErMin= 5 ErrMin= 1.65D-04
 ErrMax= 1.65D-04  0.00D+00 EMaxC= 1.00D-01 BMatC= 8.86D-06 BMatP= 2.33D-05
 IDIUse=3 WtCom= 9.98D-01 WtEn= 1.65D-03
 Coeff-Com: -0.518D-02 0.437D-01 0.374D-01 0.396D+00 0.528D+00
 Coeff-En:   0.000D+00 0.000D+00 0.000D+00 0.195D+00 0.805D+00
 Coeff:     -0.517D-02 0.436D-01 0.374D-01 0.396D+00 0.529D+00
 Gap=     0.257 Goal=   None    Shift=    0.000
 RMSDP=2.04D-05 MaxDP=5.02D-04 DE=-1.43D-05 OVMax= 7.01D-04

 Cycle   6  Pass 1  IDiag  1:
 E= -514.867618554219     Delta-E=       -0.000006198440 Rises=F Damp=F
 DIIS: error= 3.57D-05 at cycle   6 NSaved=   6.
 NSaved= 6 IEnMin= 6 EnMin= -514.867618554219     IErMin= 6 ErrMin= 3.57D-05
 ErrMax= 3.57D-05  0.00D+00 EMaxC= 1.00D-01 BMatC= 5.72D-07 BMatP= 8.86D-06
 IDIUse=1 WtCom= 1.00D+00 WtEn= 0.00D+00
 Coeff-Com: -0.876D-03 0.186D-02 0.386D-02 0.116D+00 0.254D+00 0.625D+00
 Coeff:     -0.876D-03 0.186D-02 0.386D-02 0.116D+00 0.254D+00 0.625D+00
 Gap=     0.257 Goal=   None    Shift=    0.000
 RMSDP=7.14D-06 MaxDP=1.59D-04 DE=-6.20D-06 OVMax= 2.74D-04

 Cycle   7  Pass 1  IDiag  1:
 E= -514.867618946552     Delta-E=       -0.000000392333 Rises=F Damp=F
 DIIS: error= 1.23D-05 at cycle   7 NSaved=   7.
 NSaved= 7 IEnMin= 7 EnMin= -514.867618946552     IErMin= 7 ErrMin= 1.23D-05
 ErrMax= 1.23D-05  0.00D+00 EMaxC= 1.00D-01 BMatC= 6.04D-08 BMatP= 5.72D-07
 IDIUse=1 WtCom= 1.00D+00 WtEn= 0.00D+00
 Coeff-Com:  0.185D-03-0.454D-02-0.286D-02 0.895D-02 0.614D-01 0.297D+00
 Coeff-Com:  0.640D+00
 Coeff:      0.185D-03-0.454D-02-0.286D-02 0.895D-02 0.614D-01 0.297D+00
 Coeff:      0.640D+00
 Gap=     0.257 Goal=   None    Shift=    0.000
 RMSDP=2.25D-06 MaxDP=6.64D-05 DE=-3.92D-07 OVMax= 1.24D-04

 Cycle   8  Pass 1  IDiag  1:
 E= -514.867618997417     Delta-E=       -0.000000050865 Rises=F Damp=F
 DIIS: error= 3.91D-06 at cycle   8 NSaved=   8.
 NSaved= 8 IEnMin= 8 EnMin= -514.867618997417     IErMin= 8 ErrMin= 3.91D-06
 ErrMax= 3.91D-06  0.00D+00 EMaxC= 1.00D-01 BMatC= 5.16D-09 BMatP= 6.04D-08
 IDIUse=1 WtCom= 1.00D+00 WtEn= 0.00D+00
 Coeff-Com:  0.119D-03-0.226D-02-0.168D-02-0.944D-03 0.189D-01 0.115D+00
 Coeff-Com:  0.318D+00 0.552D+00
 Coeff:      0.119D-03-0.226D-02-0.168D-02-0.944D-03 0.189D-01 0.115D+00
 Coeff:      0.318D+00 0.552D+00
 Gap=     0.257 Goal=   None    Shift=    0.000
 RMSDP=7.05D-07 MaxDP=2.61D-05 DE=-5.09D-08 OVMax= 5.36D-05

 Cycle   9  Pass 1  IDiag  1:
 E= -514.867619001504     Delta-E=       -0.000000004086 Rises=F Damp=F
 DIIS: error= 1.92D-06 at cycle   9 NSaved=   9.
 NSaved= 9 IEnMin= 9 EnMin= -514.867619001504     IErMin= 9 ErrMin= 1.92D-06
 ErrMax= 1.92D-06  0.00D+00 EMaxC= 1.00D-01 BMatC= 1.09D-09 BMatP= 5.16D-09
 IDIUse=1 WtCom= 1.00D+00 WtEn= 0.00D+00
 Coeff-Com:  0.493D-04-0.695D-03-0.649D-03-0.167D-02 0.253D-02 0.229D-01
 Coeff-Com:  0.922D-01 0.338D+00 0.547D+00
 Coeff:      0.493D-04-0.695D-03-0.649D-03-0.167D-02 0.253D-02 0.229D-01
 Coeff:      0.922D-01 0.338D+00 0.547D+00
 Gap=     0.257 Goal=   None    Shift=    0.000
 RMSDP=2.76D-07 MaxDP=9.70D-06 DE=-4.09D-09 OVMax= 1.90D-05

 Cycle  10  Pass 1  IDiag  1:
 E= -514.867619002498     Delta-E=       -0.000000000994 Rises=F Damp=F
 DIIS: error= 4.46D-07 at cycle  10 NSaved=  10.
 NSaved=10 IEnMin=10 EnMin= -514.867619002498     IErMin=10 ErrMin= 4.46D-07
 ErrMax= 4.46D-07  0.00D+00 EMaxC= 1.00D-01 BMatC= 5.86D-11 BMatP= 1.09D-09
 IDIUse=1 WtCom= 1.00D+00 WtEn= 0.00D+00
 Coeff-Com:  0.964D-05-0.729D-04-0.131D-03-0.716D-03-0.921D-03-0.187D-02
 Coeff-Com:  0.939D-02 0.109D+00 0.261D+00 0.625D+00
 Coeff:      0.964D-05-0.729D-04-0.131D-03-0.716D-03-0.921D-03-0.187D-02
 Coeff:      0.939D-02 0.109D+00 0.261D+00 0.625D+00
 Gap=     0.257 Goal=   None    Shift=    0.000
 RMSDP=6.34D-08 MaxDP=1.08D-06 DE=-9.94D-10 OVMax= 2.90D-06

 Cycle  11  Pass 1  IDiag  1:
 E= -514.867619002529     Delta-E=       -0.000000000031 Rises=F Damp=F
 DIIS: error= 1.45D-07 at cycle  11 NSaved=  11.
 NSaved=11 IEnMin=11 EnMin= -514.867619002529     IErMin=11 ErrMin= 1.45D-07
 ErrMax= 1.45D-07  0.00D+00 EMaxC= 1.00D-01 BMatC= 1.02D-11 BMatP= 5.86D-11
 IDIUse=1 WtCom= 1.00D+00 WtEn= 0.00D+00
 Coeff-Com: -0.713D-06 0.458D-04 0.956D-05-0.186D-03-0.883D-03-0.415D-02
 Coeff-Com: -0.696D-02 0.170D-01 0.747D-01 0.354D+00 0.566D+00
 Coeff:     -0.713D-06 0.458D-04 0.956D-05-0.186D-03-0.883D-03-0.415D-02
 Coeff:     -0.696D-02 0.170D-01 0.747D-01 0.354D+00 0.566D+00
 Gap=     0.257 Goal=   None    Shift=    0.000
 RMSDP=2.33D-08 MaxDP=4.60D-07 DE=-3.13D-11 OVMax= 6.39D-07

 Cycle  12  Pass 1  IDiag  1:
 E= -514.867619002542     Delta-E=       -0.000000000013 Rises=F Damp=F
 DIIS: error= 2.07D-08 at cycle  12 NSaved=  12.
 NSaved=12 IEnMin=12 EnMin= -514.867619002542     IErMin=12 ErrMin= 2.07D-08
 ErrMax= 2.07D-08  0.00D+00 EMaxC= 1.00D-01 BMatC= 9.88D-14 BMatP= 1.02D-11
 IDIUse=1 WtCom= 1.00D+00 WtEn= 0.00D+00
 Coeff-Com: -0.658D-06 0.120D-04 0.112D-04 0.124D-04-0.113D-03-0.563D-03
 Coeff-Com: -0.157D-02-0.213D-02-0.122D-02 0.285D-01 0.852D-01 0.892D+00
 Coeff:     -0.658D-06 0.120D-04 0.112D-04 0.124D-04-0.113D-03-0.563D-03
 Coeff:     -0.157D-02-0.213D-02-0.122D-02 0.285D-01 0.852D-01 0.892D+00
 Gap=     0.257 Goal=   None    Shift=    0.000
 RMSDP=5.14D-09 MaxDP=1.48D-07 DE=-1.30D-11 OVMax= 1.73D-07

 SCF Done:  E(RB3LYP) =  -514.867619003     A.U. after   12 cycles
            NFock= 12  Conv=0.51D-08     -V/T= 2.0082
 KE= 5.106884353602D+02 PE=-1.873442873955D+03 EE= 5.201156229879D+02
 Leave Link  502 at Thu Apr  2 13:33:09 2026, MaxMem=  2147483648 cpu:              23.5 elap:               3.2
 (Enter /Users/yarger/Applications/g16/l701.exe)
 ... and contract with generalized density number  0.
 Compute integral first derivatives.
 Leave Link  701 at Thu Apr  2 13:33:09 2026, MaxMem=  2147483648 cpu:               0.5 elap:               0.1
 (Enter /Users/yarger/Applications/g16/l702.exe)
 L702 exits ... SP integral derivatives will be done elsewhere.
 Leave Link  702 at Thu Apr  2 13:33:09 2026, MaxMem=  2147483648 cpu:               0.1 elap:               0.0
 (Enter /Users/yarger/Applications/g16/l703.exe)
 Integral derivatives from FoFJK, PRISM(SPDF).
 Compute integral first derivatives, UseDBF=F ICtDFT=           0.
 Calling FoFJK, ICntrl=      2127 FMM=F ISym2X=0 I1Cent= 0 IOpClX= 0 NMat=1 NMatS=1 NMatT=0.
 FoFJK:  IHMeth= 1 ICntrl=    2127 DoSepK=F KAlg= 0 I1Cent=           0 FoldK=F
 IRaf=         0 NMat=       1 IRICut=       1 DoRegI=T DoRafI=F ISym2E= 0 IDoP0=0 IntGTp=1.
 FoFCou: FMM=F IPFlag=           0 FMFlag=      100000 FMFlg1=         800
         NFxFlg=           0 DoJE=F BraDBF=F KetDBF=F FulRan=T
         wScrn=  0.000000 ICntrl=      2127 IOpCl=  0 I1Cent=           0 NGrid=           0
         NMat0=    1 NMatS0=      1 NMatT0=    0 NMatD0=    1 NMtDS0=    0 NMtDT0=    0
 Symmetry not used in FoFCou.
 Leave Link  703 at Thu Apr  2 13:33:10 2026, MaxMem=  2147483648 cpu:               6.2 elap:               0.8
 (Enter /Users/yarger/Applications/g16/l716.exe)
 Dipole        = 4.28004874D-01-6.40298790D-01-4.37033328D-02
 ***** Axes restored to original set *****
 -------------------------------------------------------------------
 Center     Atomic                   Forces (Hartrees/Bohr)
 Number     Number              X              Y              Z
 -------------------------------------------------------------------
      1        6          -0.006770859   -0.005587633    0.000809388
      2        1           0.000307402   -0.003669811   -0.000470795
      3        1           0.001597931   -0.002287888   -0.000063022
      4        6           0.041565488   -0.042306212   -0.005811244
      5        6           0.041757079    0.083869535   -0.011387217
      6        9          -0.042120751   -0.074997767    0.010524690
      7        9          -0.006919145   -0.008886297   -0.021339048
      8        9          -0.003985747   -0.003460356    0.023150252
      9        9          -0.025431397    0.057326430    0.004586996
 -------------------------------------------------------------------
 Cartesian Forces:  Max     0.083869535 RMS     0.030530915
 Leave Link  716 at Thu Apr  2 13:33:10 2026, MaxMem=  2147483648 cpu:               0.1 elap:               0.0
 (Enter /Users/yarger/Applications/g16/l103.exe)

 GradGradGradGradGradGradGradGradGradGradGradGradGradGradGradGradGradGrad
 Berny optimization.
 Using GEDIIS/GDIIS optimizer.
 FormGI is forming the generalized inverse of G from B-inverse, IUseBI=4.
 Internal  Forces:  Max     0.086204992 RMS     0.021530226
 Search for a local minimum.
 Step number  11 out of a maximum of   40
 All quantities printed in internal units (Hartrees-Bohrs-Radians)
 RMS Force = .21530D-01 SwitMx=.10000D-02 MixMth= 1
 Mixed Optimization -- RFO/linear search
 Update second derivatives using D2CorX and points    1    2    3    4    5
                                                      6    7    8   10   11
                                                      9
 ITU=  0  0  0  0  0  0  1  1  1  1  0
 Use linear search instead of GDIIS.
 Energy rises -- skip Quadratic/GDIIS search.
 Quartic linear search produced a step of -0.99998.
 Iteration  1 RMS(Cart)=  0.12395885 RMS(Int)=  0.01373050
 Iteration  2 RMS(Cart)=  0.01346903 RMS(Int)=  0.00003448
 Iteration  3 RMS(Cart)=  0.00003395 RMS(Int)=  0.00000002
 Iteration  4 RMS(Cart)=  0.00000000 RMS(Int)=  0.00000002
 ITry= 1 IFail=0 DXMaxC= 2.86D-01 DCOld= 1.00D+10 DXMaxT= 5.05D-01 DXLimC= 3.00D+00 Rises=T
 Variable       Old X    -DE/DX   Delta X   Delta X   Delta X     New X
                                 (Linear)    (Quad)   (Total)
    R1        2.05995  -0.00352  -0.01145   0.00000  -0.01145   2.04850
    R2        2.04347   0.00178   0.00567   0.00000   0.00567   2.04915
    R3        2.51056  -0.01212  -0.00677   0.00000  -0.00677   2.50379
    R4        2.83661   0.01128   0.03680   0.00000   0.03680   2.87340
    R5        2.79567  -0.06286  -0.24741   0.00000  -0.24741   2.54826
    R6        2.34714   0.08620   0.18911   0.00000   0.18911   2.53625
    R7        2.63921  -0.01941  -0.07764   0.00000  -0.07764   2.56157
    R8        2.64439  -0.02022  -0.08281   0.00000  -0.08281   2.56157
    A1        2.06017   0.00227   0.01568   0.00000   0.01568   2.07585
    A2        2.08659  -0.00015   0.01002   0.00000   0.01002   2.09661
    A3        2.13641  -0.00212  -0.02568   0.00000  -0.02568   2.11073
    A4        2.22062   0.00782  -0.04123   0.00000  -0.04123   2.17939
    A5        2.10028  -0.00185   0.03426   0.00000   0.03426   2.13454
    A6        1.96165  -0.00596   0.00761   0.00000   0.00761   1.96926
    A7        1.98051   0.00959  -0.03114   0.00000  -0.03114   1.94937
    A8        1.85536   0.01836   0.08549   0.00000   0.08549   1.94085
    A9        1.87820   0.01421   0.06265   0.00000   0.06265   1.94085
   A10        1.92902  -0.01220  -0.04488   0.00000  -0.04488   1.88414
   A11        1.90938  -0.00958  -0.02525   0.00000  -0.02525   1.88413
   A12        1.90939  -0.02032  -0.04850   0.00000  -0.04850   1.86088
    D1        0.04773  -0.00014  -0.04771   0.00000  -0.04771   0.00002
    D2       -3.13547  -0.00013  -0.00612   0.00000  -0.00612  -3.14159
    D3       -3.10076  -0.00016  -0.04082   0.00000  -0.04082  -3.14157
    D4       -0.00077  -0.00015   0.00077   0.00000   0.00077  -0.00000
    D5       -2.97224   0.00080  -0.16917   0.00000  -0.16917  -3.14142
    D6       -0.84838   0.00410  -0.18692   0.00000  -0.18692  -1.03530
    D7        1.19586  -0.00315  -0.16021   0.00000  -0.16021   1.03565
    D8        0.20819   0.00074  -0.20800   0.00000  -0.20800   0.00019
    D9        2.33205   0.00404  -0.22574   0.00000  -0.22574   2.10631
   D10       -1.90689  -0.00321  -0.19903   0.00000  -0.19903  -2.10592
         Item               Value     Threshold  Converged?
 Maximum Force            0.086205     0.000015     NO 
 RMS     Force            0.021530     0.000010     NO 
 Maximum Displacement     0.286346     0.000060     NO 
 RMS     Displacement     0.128694     0.000040     NO 
 Predicted change in Energy=-3.024215D-04
 GradGradGradGradGradGradGradGradGradGradGradGradGradGradGradGradGradGrad

 Leave Link  103 at Thu Apr  2 13:33:10 2026, MaxMem=  2147483648 cpu:               0.1 elap:               0.0
 (Enter /Users/yarger/Applications/g16/l202.exe)
                          Input orientation:                          
 ---------------------------------------------------------------------
 Center     Atomic      Atomic             Coordinates (Angstroms)
 Number     Number       Type             X           Y           Z
 ---------------------------------------------------------------------
      1          6           0        1.732713    1.069448    0.002488
      2          1           0        1.300957    2.063742   -0.005670
      3          1           0        2.812128    0.966199    0.008948
      4          6           0        0.946447    0.003020    0.004461
      5          6           0       -0.573527    0.043611   -0.004046
      6          9           0       -1.102722   -1.189773    0.000523
      7          9           0       -1.052266    0.707686    1.076351
      8          9           0       -1.040456    0.694559   -1.097524
      9          9           0        1.436246   -1.253325    0.014467
 ---------------------------------------------------------------------
                    Distance matrix (angstroms):
                    1          2          3          4          5
     1  C    0.000000
     2  H    1.084020   0.000000
     3  H    1.084361   1.867739   0.000000
     4  C    1.324948   2.091017   2.099643   0.000000
     5  C    2.524109   2.755834   3.509131   1.520540   0.000000
     6  F    3.625434   4.045129   4.469266   2.371047   1.342126
     7  F    3.006686   2.923579   4.017427   2.374944   1.355525
     8  F    3.006831   2.923871   4.017521   2.374949   1.355526
     9  F    2.341648   3.319886   2.611392   1.348483   2.391981
                    6          7          8          9
     6  F    0.000000
     7  F    2.181812   0.000000
     8  F    2.181809   2.173947   0.000000
     9  F    2.539802   3.341536   3.341382   0.000000
 Stoichiometry    C3H2F4
 Framework group  C1[X(C3H2F4)]
 Deg. of freedom    21
 Full point group                 C1      NOp   1
 RotChk:  IX=0 Diff= 1.78D-01
 Largest Abelian subgroup         C1      NOp   1
 Largest concise Abelian subgroup C1      NOp   1
                         Standard orientation:                         
 ---------------------------------------------------------------------
 Center     Atomic      Atomic             Coordinates (Angstroms)
 Number     Number       Type             X           Y           Z
 ---------------------------------------------------------------------
      1          6           0        1.679876   -1.119856    0.000001
      2          1           0        1.215078   -2.099172   -0.000007
      3          1           0        2.762159   -1.052755    0.000014
      4          6           0        0.929731   -0.027716   -0.000008
      5          6           0       -0.590774   -0.017462   -0.000003
      6          9           0       -1.078400    1.232948   -0.000233
      7          9           0       -1.085359   -0.659011   -1.086855
      8          9           0       -1.085356   -0.658603    1.087092
      9          9           0        1.461312    1.211569    0.000001
 ---------------------------------------------------------------------
 Rotational constants (GHZ):           3.6666323           2.4018237           1.9553523
 Leave Link  202 at Thu Apr  2 13:33:10 2026, MaxMem=  2147483648 cpu:               0.0 elap:               0.0
 (Enter /Users/yarger/Applications/g16/l301.exe)
 Standard basis: 6-31+G(d) (6D, 7F)
 Ernie: Thresh=  0.10000D-02 Tol=  0.10000D-05 Strict=F.
 There are   137 symmetry adapted cartesian basis functions of A   symmetry.
 There are   137 symmetry adapted basis functions of A   symmetry.
   137 basis functions,   232 primitive gaussians,   137 cartesian basis functions
    28 alpha electrons       28 beta electrons
       nuclear repulsion energy       330.1518134129 Hartrees.
 IExCor=  402 DFT=T Ex+Corr=B3LYP ExCW=0 ScaHFX=  0.200000
 ScaDFX=  0.800000  0.720000  1.000000  0.810000 ScalE2=  1.000000  1.000000
 IRadAn=      5 IRanWt=     -1 IRanGd=            0 ICorTp=0 IEmpDi=  4
 NAtoms=    9 NActive=    9 NUniq=    9 SFac= 1.00D+00 NAtFMM=   60 NAOKFM=F Big=F
 Integral buffers will be    131072 words long.
 Raffenetti 2 integral format.
 Two-electron integral symmetry is turned on.
 Leave Link  301 at Thu Apr  2 13:33:10 2026, MaxMem=  2147483648 cpu:               0.1 elap:               0.0
 (Enter /Users/yarger/Applications/g16/l302.exe)
 NPDir=0 NMtPBC=     1 NCelOv=     1 NCel=       1 NClECP=     1 NCelD=      1
         NCelK=      1 NCelE2=     1 NClLst=     1 CellRange=     0.0.
 One-electron integrals computed using PRISM.
 One-electron integral symmetry used in STVInt
 NBasis=   137 RedAO= T EigKep=  6.47D-05  NBF=   137
 NBsUse=   137 1.00D-06 EigRej= -1.00D+00 NBFU=   137
 Precomputing XC quadrature grid using
 IXCGrd= 4 IRadAn=           5 IRanWt=          -1 IRanGd=           0 AccXCQ= 0.00D+00.
 Generated NRdTot=       0 NPtTot=           0 NUsed=           0 NTot=          32
 NSgBfM=   137   137   137   137   137 MxSgAt=     9 MxSgA2=     9.
 Leave Link  302 at Thu Apr  2 13:33:10 2026, MaxMem=  2147483648 cpu:               0.8 elap:               0.1
 (Enter /Users/yarger/Applications/g16/l303.exe)
 DipDrv:  MaxL=1.
 Leave Link  303 at Thu Apr  2 13:33:10 2026, MaxMem=  2147483648 cpu:               0.1 elap:               0.0
 (Enter /Users/yarger/Applications/g16/l401.exe)
 Lowest energy guess from the checkpoint file:  "2223Tetrafluoropropene_Opt_Freq_DFT_B3LYP_631pd_Gaussian16.chk"
 B after Tr=     0.000000   -0.000000    0.000000
         Rot=    1.000000    0.000039   -0.000007    0.000000 Ang=   0.00 deg.
 Guess basis will be translated and rotated to current coordinates.
 B after Tr=     0.000000    0.000000    0.000000
         Rot=    0.996960   -0.073743    0.000599   -0.025134 Ang=  -8.94 deg.
 Guess basis will be translated and rotated to current coordinates.
 CkInt1:  FT= 1.60D-05
 Max alpha theta=  4.535 degrees.
 JPrj=2 DoOrth=T DoCkMO=T.
 Leave Link  401 at Thu Apr  2 13:33:10 2026, MaxMem=  2147483648 cpu:               0.5 elap:               0.1
 (Enter /Users/yarger/Applications/g16/l502.exe)
 Keep R1 ints in memory in canonical form, NReq=52385408.
 FoFCou: FMM=F IPFlag=           0 FMFlag=           0 FMFlg1=           0
         NFxFlg=           0 DoJE=F BraDBF=F KetDBF=F FulRan=T
         wScrn=  0.000000 ICntrl=       600 IOpCl=  0 I1Cent=           0 NGrid=           0
         NMat0=    1 NMatS0=   9453 NMatT0=    0 NMatD0=    1 NMtDS0=    0 NMtDT0=    0
 Symmetry not used in FoFCou.
 Two-electron integral symmetry not used.
 Closed shell SCF:
 Using DIIS extrapolation, IDIIS=  1040.
 NGot=  2147483648 LenX=  2102759234 LenY=  2102740024
 Requested convergence on RMS density matrix=1.00D-08 within 128 cycles.
 Requested convergence on MAX density matrix=1.00D-06.
 Requested convergence on             energy=1.00D-06.
 No special actions if energy rises.

 Cycle   1  Pass 1  IDiag  1:
 E= -514.887105052794    
 DIIS: error= 3.58D-08 at cycle   1 NSaved=   1.
 NSaved= 1 IEnMin= 1 EnMin= -514.887105052794     IErMin= 1 ErrMin= 3.58D-08
 ErrMax= 3.58D-08  0.00D+00 EMaxC= 1.00D-01 BMatC= 2.83D-13 BMatP= 2.83D-13
 IDIUse=1 WtCom= 1.00D+00 WtEn= 0.00D+00
 Coeff-Com:  0.100D+01
 Coeff:      0.100D+01
 Gap=    24.495 Goal=   None    Shift=    0.000
 RMSDP=1.39D-08 MaxDP=2.73D-07              OVMax= 2.85D-07

 Cycle   2  Pass 1  IDiag  1:
 E= -514.887105052786     Delta-E=        0.000000000008 Rises=F Damp=F
 DIIS: error= 5.18D-08 at cycle   2 NSaved=   2.
 NSaved= 2 IEnMin= 1 EnMin= -514.887105052794     IErMin= 1 ErrMin= 3.58D-08
 ErrMax= 5.18D-08  0.00D+00 EMaxC= 1.00D-01 BMatC= 2.62D-13 BMatP= 2.83D-13
 IDIUse=1 WtCom= 1.00D+00 WtEn= 0.00D+00
 Coeff-Com:  0.488D+00 0.512D+00
 Coeff:      0.488D+00 0.512D+00
 Gap=     0.258 Goal=   None    Shift=    0.000
 RMSDP=4.39D-09 MaxDP=1.33D-07 DE= 8.19D-12 OVMax= 2.91D-07

 SCF Done:  E(RB3LYP) =  -514.887105053     A.U. after    2 cycles
            NFock=  2  Conv=0.44D-08     -V/T= 2.0080
 KE= 5.108018121164D+02 PE=-1.878301924840D+03 EE= 5.224611942581D+02
 Leave Link  502 at Thu Apr  2 13:33:11 2026, MaxMem=  2147483648 cpu:               5.8 elap:               0.8
 (Enter /Users/yarger/Applications/g16/l701.exe)
 ... and contract with generalized density number  0.
 Compute integral first derivatives.
 Leave Link  701 at Thu Apr  2 13:33:11 2026, MaxMem=  2147483648 cpu:               0.5 elap:               0.1
 (Enter /Users/yarger/Applications/g16/l702.exe)
 L702 exits ... SP integral derivatives will be done elsewhere.
 Leave Link  702 at Thu Apr  2 13:33:11 2026, MaxMem=  2147483648 cpu:               0.1 elap:               0.0
 (Enter /Users/yarger/Applications/g16/l703.exe)
 Integral derivatives from FoFJK, PRISM(SPDF).
 Compute integral first derivatives, UseDBF=F ICtDFT=           0.
 Calling FoFJK, ICntrl=      2127 FMM=F ISym2X=0 I1Cent= 0 IOpClX= 0 NMat=1 NMatS=1 NMatT=0.
 FoFJK:  IHMeth= 1 ICntrl=    2127 DoSepK=F KAlg= 0 I1Cent=           0 FoldK=F
 IRaf=         0 NMat=       1 IRICut=       1 DoRegI=T DoRafI=F ISym2E= 0 IDoP0=0 IntGTp=1.
 FoFCou: FMM=F IPFlag=           0 FMFlag=      100000 FMFlg1=         800
         NFxFlg=           0 DoJE=F BraDBF=F KetDBF=F FulRan=T
         wScrn=  0.000000 ICntrl=      2127 IOpCl=  0 I1Cent=           0 NGrid=           0
         NMat0=    1 NMatS0=      1 NMatT0=    0 NMatD0=    1 NMtDS0=    0 NMtDT0=    0
 Symmetry not used in FoFCou.
 Leave Link  703 at Thu Apr  2 13:33:12 2026, MaxMem=  2147483648 cpu:               6.4 elap:               0.9
 (Enter /Users/yarger/Applications/g16/l716.exe)
 Dipole        = 6.67265799D-01-6.00639145D-01-9.28347775D-06
 ***** Axes restored to original set *****
 -------------------------------------------------------------------
 Center     Atomic                   Forces (Hartrees/Bohr)
 Number     Number              X              Y              Z
 -------------------------------------------------------------------
      1        6           0.000000368   -0.000000330    0.000000548
      2        1          -0.000000601    0.000000064    0.000000184
      3        1          -0.000000199    0.000000579   -0.000000130
      4        6           0.000000589   -0.000000482    0.000000396
      5        6          -0.000000118    0.000002538    0.000000401
      6        9          -0.000000341   -0.000001539    0.000000313
      7        9           0.000000485   -0.000000500   -0.000001369
      8        9          -0.000000050   -0.000001218    0.000000411
      9        9          -0.000000132    0.000000887   -0.000000754
 -------------------------------------------------------------------
 Cartesian Forces:  Max     0.000002538 RMS     0.000000785
 Leave Link  716 at Thu Apr  2 13:33:12 2026, MaxMem=  2147483648 cpu:               0.1 elap:               0.0
 (Enter /Users/yarger/Applications/g16/l103.exe)

 GradGradGradGradGradGradGradGradGradGradGradGradGradGradGradGradGradGrad
 Berny optimization.
 Using GEDIIS/GDIIS optimizer.
 FormGI is forming the generalized inverse of G from B-inverse, IUseBI=4.
 Internal  Forces:  Max     0.000001414 RMS     0.000000535
 Search for a local minimum.
 Step number  12 out of a maximum of   40
 All quantities printed in internal units (Hartrees-Bohrs-Radians)
 RMS Force = .53522D-06 SwitMx=.10000D-02 MixMth= 2
 Mixed Optimization -- En-DIIS/RFO-DIIS
 Update second derivatives using D2CorX and points    1    2    3    4    5
                                                      6    7    8   10   11
                                                     12
 ITU=  0  0  0  0  0  0  0  1  1  1  1  0
 Use linear search instead of GDIIS.
     Eigenvalues ---    0.00001   0.01671   0.03015   0.03046   0.10739
     Eigenvalues ---    0.10765   0.13402   0.15058   0.20729   0.24878
     Eigenvalues ---    0.25200   0.26694   0.30894   0.33131   0.35230
     Eigenvalues ---    0.35478   0.42127   0.49597   0.56461   0.60550
     Eigenvalues ---    0.72409
 RFO step:  Lambda=-3.63430624D-07 EMin= 5.19066638D-06
 Skip linear search -- no minimum in search direction.
 Iteration  1 RMS(Cart)=  0.05997244 RMS(Int)=  0.00153163
 Iteration  2 RMS(Cart)=  0.00167100 RMS(Int)=  0.00000876
 Iteration  3 RMS(Cart)=  0.00000096 RMS(Int)=  0.00000874
 ITry= 1 IFail=0 DXMaxC= 1.50D-01 DCOld= 1.00D+10 DXMaxT= 5.05D-01 DXLimC= 3.00D+00 Rises=F
 Variable       Old X    -DE/DX   Delta X   Delta X   Delta X     New X
                                 (Linear)    (Quad)   (Total)
    R1        2.04850   0.00000   0.00000   0.00054   0.00054   2.04904
    R2        2.04915  -0.00000   0.00000  -0.00036  -0.00036   2.04879
    R3        2.50379  -0.00000   0.00000  -0.00093  -0.00093   2.50286
    R4        2.87340   0.00000   0.00000  -0.00016  -0.00016   2.87324
    R5        2.54826  -0.00000   0.00000   0.00139   0.00139   2.54965
    R6        2.53625   0.00000   0.00000  -0.00084  -0.00084   2.53541
    R7        2.56157  -0.00000   0.00000   0.00084   0.00084   2.56241
    R8        2.56157  -0.00000   0.00000   0.00250   0.00250   2.56408
    A1        2.07585   0.00000   0.00000  -0.00170  -0.00170   2.07415
    A2        2.09661  -0.00000   0.00000  -0.00454  -0.00454   2.09206
    A3        2.11073   0.00000   0.00000   0.00624   0.00624   2.11696
    A4        2.17939  -0.00000   0.00000  -0.00056  -0.00059   2.17880
    A5        2.13454   0.00000   0.00000   0.00058   0.00055   2.13509
    A6        1.96926  -0.00000   0.00000  -0.00002  -0.00005   1.96921
    A7        1.94937  -0.00000   0.00000  -0.00091  -0.00091   1.94846
    A8        1.94085  -0.00000   0.00000  -0.00245  -0.00245   1.93840
    A9        1.94085   0.00000   0.00000   0.00104   0.00105   1.94190
   A10        1.88414   0.00000   0.00000   0.00213   0.00213   1.88627
   A11        1.88413  -0.00000   0.00000  -0.00143  -0.00143   1.88271
   A12        1.86088  -0.00000   0.00000   0.00178   0.00178   1.86267
    D1        0.00002   0.00000   0.00000   0.01516   0.01516   0.01518
    D2       -3.14159   0.00000   0.00000   0.00036   0.00036  -3.14124
    D3       -3.14157   0.00000   0.00000   0.01294   0.01294  -3.12863
    D4       -0.00000   0.00000   0.00000  -0.00186  -0.00187  -0.00187
    D5       -3.14142   0.00000   0.00000   0.09657   0.09657  -3.04485
    D6       -1.03530   0.00000   0.00000   0.09697   0.09698  -0.93833
    D7        1.03565   0.00000   0.00000   0.09829   0.09829   1.13395
    D8        0.00019   0.00000   0.00000   0.11015   0.11015   0.11034
    D9        2.10631   0.00000   0.00000   0.11055   0.11055   2.21686
   D10       -2.10592   0.00000   0.00000   0.11187   0.11187  -1.99405
         Item               Value     Threshold  Converged?
 Maximum Force            0.000001     0.000015     YES
 RMS     Force            0.000001     0.000010     YES
 Maximum Displacement     0.150139     0.000060     NO 
 RMS     Displacement     0.059986     0.000040     NO 
 Predicted change in Energy=-1.941577D-07
 Lowest energy point so far.  Saving SCF results.
 GradGradGradGradGradGradGradGradGradGradGradGradGradGradGradGradGradGrad

 Leave Link  103 at Thu Apr  2 13:33:12 2026, MaxMem=  2147483648 cpu:               0.1 elap:               0.0
 (Enter /Users/yarger/Applications/g16/l202.exe)
                          Input orientation:                          
 ---------------------------------------------------------------------
 Center     Atomic      Atomic             Coordinates (Angstroms)
 Number     Number       Type             X           Y           Z
 ---------------------------------------------------------------------
      1          6           0        1.733048    1.067283    0.025599
      2          1           0        1.297173    2.059081    0.071096
      3          1           0        2.812815    0.970736    0.011034
      4          6           0        0.946599    0.002147   -0.008507
      5          6           0       -0.573269    0.044341   -0.007880
      6          9           0       -1.102330   -1.185939    0.073433
      7          9           0       -1.040103    0.772905    1.036109
      8          9           0       -1.049750    0.628783   -1.135903
      9          9           0        1.435336   -1.254171   -0.064984
 ---------------------------------------------------------------------
                    Distance matrix (angstroms):
                    1          2          3          4          5
     1  C    0.000000
     2  H    1.084307   0.000000
     3  H    1.084173   1.866889   0.000000
     4  C    1.324455   2.088114   2.102692   0.000000
     5  C    2.523218   2.750266   3.510574   1.520453   0.000000
     6  F    3.621970   4.035812   4.470292   2.369888   1.341681
     7  F    2.966168   2.836962   3.991854   2.373241   1.355968
     8  F    3.047185   3.001774   4.043737   2.376785   1.356851
     9  F    2.342218   3.318922   2.617907   1.349217   2.392465
                    6          7          8          9
     6  F    0.000000
     7  F    2.183503   0.000000
     8  F    2.181393   2.176810   0.000000
     9  F    2.542354   3.383672   3.296670   0.000000
 Stoichiometry    C3H2F4
 Framework group  C1[X(C3H2F4)]
 Deg. of freedom    21
 Full point group                 C1      NOp   1
 RotChk:  IX=0 Diff= 6.52D-02
 Largest Abelian subgroup         C1      NOp   1
 Largest concise Abelian subgroup C1      NOp   1
                         Standard orientation:                         
 ---------------------------------------------------------------------
 Center     Atomic      Atomic             Coordinates (Angstroms)
 Number     Number       Type             X           Y           Z
 ---------------------------------------------------------------------
      1          6           0        1.678369   -1.120460    0.001391
      2          1           0        1.208213   -2.097520   -0.004000
      3          1           0        2.760875   -1.061029    0.010301
      4          6           0        0.929450   -0.028098   -0.005455
      5          6           0       -0.590961   -0.017391   -0.001853
      6          9           0       -1.077271    1.226364   -0.131009
      7          9           0       -1.085978   -0.770025   -1.015338
      8          9           0       -1.083978   -0.539800    1.149263
      9          9           0        1.461646    1.211710    0.000328
 ---------------------------------------------------------------------
 Rotational constants (GHZ):           3.6628275           2.4021815           1.9561981
 Leave Link  202 at Thu Apr  2 13:33:12 2026, MaxMem=  2147483648 cpu:               0.0 elap:               0.0
 (Enter /Users/yarger/Applications/g16/l301.exe)
 Standard basis: 6-31+G(d) (6D, 7F)
 Ernie: Thresh=  0.10000D-02 Tol=  0.10000D-05 Strict=F.
 There are   137 symmetry adapted cartesian basis functions of A   symmetry.
 There are   137 symmetry adapted basis functions of A   symmetry.
   137 basis functions,   232 primitive gaussians,   137 cartesian basis functions
    28 alpha electrons       28 beta electrons
       nuclear repulsion energy       330.1073122655 Hartrees.
 IExCor=  402 DFT=T Ex+Corr=B3LYP ExCW=0 ScaHFX=  0.200000
 ScaDFX=  0.800000  0.720000  1.000000  0.810000 ScalE2=  1.000000  1.000000
 IRadAn=      5 IRanWt=     -1 IRanGd=            0 ICorTp=0 IEmpDi=  4
 NAtoms=    9 NActive=    9 NUniq=    9 SFac= 1.00D+00 NAtFMM=   60 NAOKFM=F Big=F
 Integral buffers will be    131072 words long.
 Raffenetti 2 integral format.
 Two-electron integral symmetry is turned on.
 Leave Link  301 at Thu Apr  2 13:33:12 2026, MaxMem=  2147483648 cpu:               0.1 elap:               0.0
 (Enter /Users/yarger/Applications/g16/l302.exe)
 NPDir=0 NMtPBC=     1 NCelOv=     1 NCel=       1 NClECP=     1 NCelD=      1
         NCelK=      1 NCelE2=     1 NClLst=     1 CellRange=     0.0.
 One-electron integrals computed using PRISM.
 One-electron integral symmetry used in STVInt
 NBasis=   137 RedAO= T EigKep=  6.50D-05  NBF=   137
 NBsUse=   137 1.00D-06 EigRej= -1.00D+00 NBFU=   137
 Precomputing XC quadrature grid using
 IXCGrd= 4 IRadAn=           5 IRanWt=          -1 IRanGd=           0 AccXCQ= 0.00D+00.
 Generated NRdTot=       0 NPtTot=           0 NUsed=           0 NTot=          32
 NSgBfM=   137   137   137   137   137 MxSgAt=     9 MxSgA2=     9.
 Leave Link  302 at Thu Apr  2 13:33:13 2026, MaxMem=  2147483648 cpu:               0.8 elap:               0.1
 (Enter /Users/yarger/Applications/g16/l303.exe)
 DipDrv:  MaxL=1.
 Leave Link  303 at Thu Apr  2 13:33:13 2026, MaxMem=  2147483648 cpu:               0.1 elap:               0.0
 (Enter /Users/yarger/Applications/g16/l401.exe)
 Initial guess from the checkpoint file:  "2223Tetrafluoropropene_Opt_Freq_DFT_B3LYP_631pd_Gaussian16.chk"
 B after Tr=     0.000000   -0.000000   -0.000000
         Rot=    0.999467    0.032637   -0.000181    0.000293 Ang=   3.74 deg.
 Guess basis will be translated and rotated to current coordinates.
 JPrj=2 DoOrth=T DoCkMO=T.
 Generating alternative initial guess.
 ExpMin= 4.38D-02 ExpMax= 7.00D+03 ExpMxC= 1.05D+03 IAcc=2 IRadAn=         4 AccDes= 0.00D+00
 Harris functional with IExCor=  402 and IRadAn=       4 diagonalized for initial guess.
 HarFok:  IExCor=  402 AccDes= 0.00D+00 IRadAn=         4 IDoV= 1 UseB2=F ITyADJ=14
 ICtDFT=  3500011 ScaDFX=  1.000000  1.000000  1.000000  1.000000
 FoFCou: FMM=F IPFlag=           0 FMFlag=      100000 FMFlg1=           0
         NFxFlg=           0 DoJE=T BraDBF=F KetDBF=T FulRan=T
         wScrn=  0.000000 ICntrl=       500 IOpCl=  0 I1Cent=   200000004 NGrid=           0
         NMat0=    1 NMatS0=      1 NMatT0=    0 NMatD0=    1 NMtDS0=    0 NMtDT0=    0
 Petite list used in FoFCou.
 Harris En= -514.874443460751    
 Leave Link  401 at Thu Apr  2 13:33:13 2026, MaxMem=  2147483648 cpu:               1.5 elap:               0.2
 (Enter /Users/yarger/Applications/g16/l502.exe)
 Keep R1 ints in memory in canonical form, NReq=52385408.
 FoFCou: FMM=F IPFlag=           0 FMFlag=           0 FMFlg1=           0
         NFxFlg=           0 DoJE=F BraDBF=F KetDBF=F FulRan=T
         wScrn=  0.000000 ICntrl=       600 IOpCl=  0 I1Cent=           0 NGrid=           0
         NMat0=    1 NMatS0=   9453 NMatT0=    0 NMatD0=    1 NMtDS0=    0 NMtDT0=    0
 Symmetry not used in FoFCou.
 Two-electron integral symmetry not used.
 Closed shell SCF:
 Using DIIS extrapolation, IDIIS=  1040.
 NGot=  2147483648 LenX=  2102759234 LenY=  2102740024
 Requested convergence on RMS density matrix=1.00D-08 within 128 cycles.
 Requested convergence on MAX density matrix=1.00D-06.
 Requested convergence on             energy=1.00D-06.
 No special actions if energy rises.

 Cycle   1  Pass 1  IDiag  1:
 E= -514.881684355013    
 DIIS: error= 2.74D-03 at cycle   1 NSaved=   1.
 NSaved= 1 IEnMin= 1 EnMin= -514.881684355013     IErMin= 1 ErrMin= 2.74D-03
 ErrMax= 2.74D-03  0.00D+00 EMaxC= 1.00D-01 BMatC= 2.84D-03 BMatP= 2.84D-03
 IDIUse=3 WtCom= 9.73D-01 WtEn= 2.74D-02
 Coeff-Com:  0.100D+01
 Coeff-En:   0.100D+01
 Coeff:      0.100D+01
 Gap=     0.674 Goal=   None    Shift=    0.000
 GapD=    0.674 DampG=2.000 DampE=1.000 DampFc=2.0000 IDamp=-1.
 RMSDP=8.07D-04 MaxDP=1.92D-02              OVMax= 2.35D-02

 Cycle   2  Pass 1  IDiag  1:
 E= -514.887120380275     Delta-E=       -0.005436025262 Rises=F Damp=F
 DIIS: error= 3.39D-04 at cycle   2 NSaved=   2.
 NSaved= 2 IEnMin= 2 EnMin= -514.887120380275     IErMin= 2 ErrMin= 3.39D-04
 ErrMax= 3.39D-04  0.00D+00 EMaxC= 1.00D-01 BMatC= 4.54D-05 BMatP= 2.84D-03
 IDIUse=3 WtCom= 9.97D-01 WtEn= 3.39D-03
 Coeff-Com: -0.686D-01 0.107D+01
 Coeff-En:   0.000D+00 0.100D+01
 Coeff:     -0.684D-01 0.107D+01
 Gap=     0.258 Goal=   None    Shift=    0.000
 RMSDP=1.48D-04 MaxDP=4.19D-03 DE=-5.44D-03 OVMax= 3.90D-03

 Cycle   3  Pass 1  IDiag  1:
 E= -514.887182901055     Delta-E=       -0.000062520779 Rises=F Damp=F
 DIIS: error= 3.70D-04 at cycle   3 NSaved=   3.
 NSaved= 3 IEnMin= 3 EnMin= -514.887182901055     IErMin= 2 ErrMin= 3.39D-04
 ErrMax= 3.70D-04  0.00D+00 EMaxC= 1.00D-01 BMatC= 2.40D-05 BMatP= 4.54D-05
 IDIUse=3 WtCom= 9.96D-01 WtEn= 3.70D-03
 Coeff-Com: -0.383D-01 0.485D+00 0.553D+00
 Coeff-En:   0.000D+00 0.000D+00 0.100D+01
 Coeff:     -0.381D-01 0.483D+00 0.555D+00
 Gap=     0.258 Goal=   None    Shift=    0.000
 RMSDP=4.70D-05 MaxDP=1.06D-03 DE=-6.25D-05 OVMax= 1.11D-03

 Cycle   4  Pass 1  IDiag  1:
 E= -514.887197113092     Delta-E=       -0.000014212037 Rises=F Damp=F
 DIIS: error= 1.89D-04 at cycle   4 NSaved=   4.
 NSaved= 4 IEnMin= 4 EnMin= -514.887197113092     IErMin= 4 ErrMin= 1.89D-04
 ErrMax= 1.89D-04  0.00D+00 EMaxC= 1.00D-01 BMatC= 4.79D-06 BMatP= 2.40D-05
 IDIUse=3 WtCom= 9.98D-01 WtEn= 1.89D-03
 Coeff-Com: -0.116D-01 0.133D+00 0.323D+00 0.555D+00
 Coeff-En:   0.000D+00 0.000D+00 0.117D+00 0.883D+00
 Coeff:     -0.116D-01 0.133D+00 0.323D+00 0.556D+00
 Gap=     0.258 Goal=   None    Shift=    0.000
 RMSDP=1.40D-05 MaxDP=3.49D-04 DE=-1.42D-05 OVMax= 3.66D-04

 Cycle   5  Pass 1  IDiag  1:
 E= -514.887200166904     Delta-E=       -0.000003053812 Rises=F Damp=F
 DIIS: error= 1.77D-05 at cycle   5 NSaved=   5.
 NSaved= 5 IEnMin= 5 EnMin= -514.887200166904     IErMin= 5 ErrMin= 1.77D-05
 ErrMax= 1.77D-05  0.00D+00 EMaxC= 1.00D-01 BMatC= 7.92D-08 BMatP= 4.79D-06
 IDIUse=1 WtCom= 1.00D+00 WtEn= 0.00D+00
 Coeff-Com: -0.163D-03-0.349D-02 0.490D-01 0.158D+00 0.797D+00
 Coeff:     -0.163D-03-0.349D-02 0.490D-01 0.158D+00 0.797D+00
 Gap=     0.258 Goal=   None    Shift=    0.000
 RMSDP=4.84D-06 MaxDP=1.60D-04 DE=-3.05D-06 OVMax= 1.30D-04

 Cycle   6  Pass 1  IDiag  1:
 E= -514.887200231497     Delta-E=       -0.000000064594 Rises=F Damp=F
 DIIS: error= 5.16D-06 at cycle   6 NSaved=   6.
 NSaved= 6 IEnMin= 6 EnMin= -514.887200231497     IErMin= 6 ErrMin= 5.16D-06
 ErrMax= 5.16D-06  0.00D+00 EMaxC= 1.00D-01 BMatC= 1.18D-08 BMatP= 7.92D-08
 IDIUse=1 WtCom= 1.00D+00 WtEn= 0.00D+00
 Coeff-Com:  0.314D-03-0.689D-02 0.117D-01 0.550D-01 0.374D+00 0.566D+00
 Coeff:      0.314D-03-0.689D-02 0.117D-01 0.550D-01 0.374D+00 0.566D+00
 Gap=     0.258 Goal=   None    Shift=    0.000
 RMSDP=1.13D-06 MaxDP=4.02D-05 DE=-6.46D-08 OVMax= 8.32D-05

 Cycle   7  Pass 1  IDiag  1:
 E= -514.887200238823     Delta-E=       -0.000000007325 Rises=F Damp=F
 DIIS: error= 3.19D-06 at cycle   7 NSaved=   7.
 NSaved= 7 IEnMin= 7 EnMin= -514.887200238823     IErMin= 7 ErrMin= 3.19D-06
 ErrMax= 3.19D-06  0.00D+00 EMaxC= 1.00D-01 BMatC= 3.94D-09 BMatP= 1.18D-08
 IDIUse=1 WtCom= 1.00D+00 WtEn= 0.00D+00
 Coeff-Com:  0.227D-03-0.378D-02-0.254D-02 0.283D-02 0.705D-01 0.376D+00
 Coeff-Com:  0.557D+00
 Coeff:      0.227D-03-0.378D-02-0.254D-02 0.283D-02 0.705D-01 0.376D+00
 Coeff:      0.557D+00
 Gap=     0.258 Goal=   None    Shift=    0.000
 RMSDP=4.73D-07 MaxDP=1.66D-05 DE=-7.33D-09 OVMax= 3.46D-05

 Cycle   8  Pass 1  IDiag  1:
 E= -514.887200242522     Delta-E=       -0.000000003699 Rises=F Damp=F
 DIIS: error= 3.22D-07 at cycle   8 NSaved=   8.
 NSaved= 8 IEnMin= 8 EnMin= -514.887200242522     IErMin= 8 ErrMin= 3.22D-07
 ErrMax= 3.22D-07  0.00D+00 EMaxC= 1.00D-01 BMatC= 3.69D-11 BMatP= 3.94D-09
 IDIUse=1 WtCom= 1.00D+00 WtEn= 0.00D+00
 Coeff-Com:  0.584D-04-0.891D-03-0.116D-02-0.100D-02 0.821D-02 0.101D+00
 Coeff-Com:  0.181D+00 0.713D+00
 Coeff:      0.584D-04-0.891D-03-0.116D-02-0.100D-02 0.821D-02 0.101D+00
 Coeff:      0.181D+00 0.713D+00
 Gap=     0.258 Goal=   None    Shift=    0.000
 RMSDP=6.21D-08 MaxDP=1.87D-06 DE=-3.70D-09 OVMax= 3.96D-06

 Cycle   9  Pass 1  IDiag  1:
 E= -514.887200242533     Delta-E=       -0.000000000011 Rises=F Damp=F
 DIIS: error= 2.87D-07 at cycle   9 NSaved=   9.
 NSaved= 9 IEnMin= 9 EnMin= -514.887200242533     IErMin= 9 ErrMin= 2.87D-07
 ErrMax= 2.87D-07  0.00D+00 EMaxC= 1.00D-01 BMatC= 2.20D-11 BMatP= 3.69D-11
 IDIUse=1 WtCom= 1.00D+00 WtEn= 0.00D+00
 Coeff-Com: -0.420D-05 0.138D-03-0.304D-03-0.127D-02-0.839D-02-0.314D-02
 Coeff-Com:  0.150D-01 0.464D+00 0.534D+00
 Coeff:     -0.420D-05 0.138D-03-0.304D-03-0.127D-02-0.839D-02-0.314D-02
 Coeff:      0.150D-01 0.464D+00 0.534D+00
 Gap=     0.258 Goal=   None    Shift=    0.000
 RMSDP=2.78D-08 MaxDP=7.17D-07 DE=-1.11D-11 OVMax= 1.51D-06

 Cycle  10  Pass 1  IDiag  1:
 E= -514.887200242543     Delta-E=       -0.000000000011 Rises=F Damp=F
 DIIS: error= 2.12D-08 at cycle  10 NSaved=  10.
 NSaved=10 IEnMin=10 EnMin= -514.887200242543     IErMin=10 ErrMin= 2.12D-08
 ErrMax= 2.12D-08  0.00D+00 EMaxC= 1.00D-01 BMatC= 1.63D-13 BMatP= 2.20D-11
 IDIUse=1 WtCom= 1.00D+00 WtEn= 0.00D+00
 Coeff-Com: -0.339D-05 0.783D-04-0.615D-04-0.401D-03-0.313D-02-0.432D-02
 Coeff-Com: -0.715D-03 0.134D+00 0.180D+00 0.695D+00
 Coeff:     -0.339D-05 0.783D-04-0.615D-04-0.401D-03-0.313D-02-0.432D-02
 Coeff:     -0.715D-03 0.134D+00 0.180D+00 0.695D+00
 Gap=     0.258 Goal=   None    Shift=    0.000
 RMSDP=5.08D-09 MaxDP=1.17D-07 DE=-1.07D-11 OVMax= 9.28D-08

 SCF Done:  E(RB3LYP) =  -514.887200243     A.U. after   10 cycles
            NFock= 10  Conv=0.51D-08     -V/T= 2.0080
 KE= 5.107976574280D+02 PE=-1.878209527491D+03 EE= 5.224173575548D+02
 Leave Link  502 at Thu Apr  2 13:33:16 2026, MaxMem=  2147483648 cpu:              19.7 elap:               2.7
 (Enter /Users/yarger/Applications/g16/l701.exe)
 ... and contract with generalized density number  0.
 Compute integral first derivatives.
 Leave Link  701 at Thu Apr  2 13:33:16 2026, MaxMem=  2147483648 cpu:               0.5 elap:               0.1
 (Enter /Users/yarger/Applications/g16/l702.exe)
 L702 exits ... SP integral derivatives will be done elsewhere.
 Leave Link  702 at Thu Apr  2 13:33:16 2026, MaxMem=  2147483648 cpu:               0.1 elap:               0.0
 (Enter /Users/yarger/Applications/g16/l703.exe)
 Integral derivatives from FoFJK, PRISM(SPDF).
 Compute integral first derivatives, UseDBF=F ICtDFT=           0.
 Calling FoFJK, ICntrl=      2127 FMM=F ISym2X=0 I1Cent= 0 IOpClX= 0 NMat=1 NMatS=1 NMatT=0.
 FoFJK:  IHMeth= 1 ICntrl=    2127 DoSepK=F KAlg= 0 I1Cent=           0 FoldK=F
 IRaf=         0 NMat=       1 IRICut=       1 DoRegI=T DoRafI=F ISym2E= 0 IDoP0=0 IntGTp=1.
 FoFCou: FMM=F IPFlag=           0 FMFlag=      100000 FMFlg1=         800
         NFxFlg=           0 DoJE=F BraDBF=F KetDBF=F FulRan=T
         wScrn=  0.000000 ICntrl=      2127 IOpCl=  0 I1Cent=           0 NGrid=           0
         NMat0=    1 NMatS0=      1 NMatT0=    0 NMatD0=    1 NMtDS0=    0 NMtDT0=    0
 Symmetry not used in FoFCou.
 Leave Link  703 at Thu Apr  2 13:33:17 2026, MaxMem=  2147483648 cpu:               6.6 elap:               0.9
 (Enter /Users/yarger/Applications/g16/l716.exe)
 Dipole        = 6.65150144D-01-6.02486306D-01-5.52800607D-03
 ***** Axes restored to original set *****
 -------------------------------------------------------------------
 Center     Atomic                   Forces (Hartrees/Bohr)
 Number     Number              X              Y              Z
 -------------------------------------------------------------------
      1        6          -0.000234018    0.001087792    0.000429325
      2        1           0.000213793   -0.000043343    0.000058211
      3        1           0.000022936   -0.000391460   -0.000042485
      4        6           0.000189552   -0.000858664   -0.000091473
      5        6           0.000312122    0.000410693    0.000146574
      6        9          -0.000306348   -0.000097521    0.000235281
      7        9           0.000102335   -0.000128811   -0.001018944
      8        9          -0.000002132   -0.000439060    0.000653978
      9        9          -0.000298240    0.000460374   -0.000370467
 -------------------------------------------------------------------
 Cartesian Forces:  Max     0.001087792 RMS     0.000429501
 Leave Link  716 at Thu Apr  2 13:33:17 2026, MaxMem=  2147483648 cpu:               0.1 elap:               0.0
 (Enter /Users/yarger/Applications/g16/l103.exe)

 GradGradGradGradGradGradGradGradGradGradGradGradGradGradGradGradGradGrad
 Berny optimization.
 Using GEDIIS/GDIIS optimizer.
 FormGI is forming the generalized inverse of G from B-inverse, IUseBI=4.
 Internal  Forces:  Max     0.000888896 RMS     0.000368719
 Search for a local minimum.
 Step number  13 out of a maximum of   40
 All quantities printed in internal units (Hartrees-Bohrs-Radians)
 RMS Force = .36872D-03 SwitMx=.10000D-02 MixMth= 2
 Mixed Optimization -- En-DIIS/RFO-DIIS
 Swapping is turned off.
 Update second derivatives using D2CorX and points    1    2    3    4    5
                                                      6    7    8   11    9
                                                     12   13
 DE= -9.52D-05 DEPred=-1.94D-07 R= 4.90D+02
 TightC=F SS=  1.41D+00  RLast= 2.56D-01 DXNew= 8.4853D-01 7.6927D-01
 Trust test= 4.90D+02 RLast= 2.56D-01 DXMaxT set to 7.69D-01
 ITU=  1  0  0  0  0  0  0  0  1  1  1  1  0
     Eigenvalues ---   -0.00333   0.00034   0.01672   0.03015   0.03046
     Eigenvalues ---    0.10757   0.12888   0.14809   0.20445   0.23827
     Eigenvalues ---    0.24883   0.25580   0.30023   0.31841   0.34594
     Eigenvalues ---    0.35370   0.35618   0.48375   0.56452   0.60464
     Eigenvalues ---    0.68167
 Eigenvalue     1 is  -3.33D-03 should be greater than     0.000000 Eigenvector:
                          D10       D8        D9        D7        D5
   1                   -0.42739  -0.40804  -0.39707  -0.38426  -0.36491
                          D6        A1        A2        A6        A3
   1                   -0.35395  -0.19666   0.13296   0.06880   0.06371
 Use linear search instead of GDIIS.
 RFO step:  Lambda=-3.52000446D-03 EMin=-3.32924873D-03
 I=     1 Eig=   -3.33D-03 Dot1= -4.91D-04
 I=     1 Stepn= -6.00D-01 RXN=   6.00D-01 EDone=F
 Mixed    1 eigenvectors in step.  Raw Step.Grad=  4.91D-04.
 RFO eigenvector is Hessian eigenvector with negative curvature.
 Taking step of  6.00D-01 in eigenvector direction(s).  Step.Grad= -2.08D-05.
 Skip linear search -- no minimum in search direction.
 Iteration  1 RMS(Cart)=  0.12264869 RMS(Int)=  0.01712891
 Iteration  2 RMS(Cart)=  0.02066164 RMS(Int)=  0.00025975
 Iteration  3 RMS(Cart)=  0.00021892 RMS(Int)=  0.00016012
 Iteration  4 RMS(Cart)=  0.00000003 RMS(Int)=  0.00016012
 ITry= 1 IFail=0 DXMaxC= 3.31D-01 DCOld= 1.00D+10 DXMaxT= 7.69D-01 DXLimC= 3.00D+00 Rises=F
 Variable       Old X    -DE/DX   Delta X   Delta X   Delta X     New X
                                 (Linear)    (Quad)   (Total)
    R1        2.04904  -0.00012   0.00000  -0.00605  -0.00605   2.04299
    R2        2.04879   0.00006   0.00000  -0.00747  -0.00747   2.04132
    R3        2.50286   0.00054   0.00000   0.01385   0.01385   2.51671
    R4        2.87324  -0.00011   0.00000  -0.03205  -0.03205   2.84119
    R5        2.54965  -0.00052   0.00000  -0.03195  -0.03195   2.51770
    R6        2.53541   0.00022   0.00000  -0.01781  -0.01781   2.51760
    R7        2.56241  -0.00089   0.00000  -0.02432  -0.02432   2.53809
    R8        2.56408  -0.00073   0.00000  -0.02024  -0.02024   2.54384
    A1        2.07415   0.00014   0.00000   0.11799   0.11799   2.19214
    A2        2.09206   0.00051   0.00000  -0.07978  -0.07979   2.01228
    A3        2.11696  -0.00065   0.00000  -0.03823  -0.03823   2.07873
    A4        2.17880   0.00022   0.00000   0.00916   0.00907   2.18787
    A5        2.13509   0.00004   0.00000   0.03180   0.03168   2.16677
    A6        1.96921  -0.00026   0.00000  -0.04128  -0.04137   1.92784
    A7        1.94846   0.00035   0.00000  -0.02337  -0.02354   1.92492
    A8        1.93840   0.00023   0.00000  -0.01079  -0.01088   1.92752
    A9        1.94190   0.00031   0.00000  -0.00487  -0.00494   1.93696
   A10        1.88627  -0.00019   0.00000   0.01321   0.01304   1.89931
   A11        1.88271  -0.00027   0.00000   0.00611   0.00596   1.88867
   A12        1.86267  -0.00048   0.00000   0.02264   0.02264   1.88531
    D1        0.01518   0.00007   0.00000   0.03235   0.03264   0.04783
    D2       -3.14124   0.00004   0.00000   0.00358   0.00329  -3.13795
    D3       -3.12863   0.00004   0.00000   0.02594   0.02623  -3.10240
    D4       -0.00187   0.00001   0.00000  -0.00284  -0.00313  -0.00500
    D5       -3.04485   0.00029   0.00000   0.21895   0.21916  -2.82569
    D6       -0.93833   0.00044   0.00000   0.21237   0.21266  -0.72566
    D7        1.13395   0.00019   0.00000   0.23056   0.23072   1.36466
    D8        0.11034   0.00031   0.00000   0.24482   0.24459   0.35493
    D9        2.21686   0.00046   0.00000   0.23824   0.23810   2.45495
   D10       -1.99405   0.00021   0.00000   0.25643   0.25615  -1.73790
         Item               Value     Threshold  Converged?
 Maximum Force            0.000889     0.000015     NO 
 RMS     Force            0.000369     0.000010     NO 
 Maximum Displacement     0.330769     0.000060     NO 
 RMS     Displacement     0.140421     0.000040     NO 
 Predicted change in Energy=-1.090179D-03
 Lowest energy point so far.  Saving SCF results.
 GradGradGradGradGradGradGradGradGradGradGradGradGradGradGradGradGradGrad

 Leave Link  103 at Thu Apr  2 13:33:17 2026, MaxMem=  2147483648 cpu:               0.1 elap:               0.0
 (Enter /Users/yarger/Applications/g16/l202.exe)
                          Input orientation:                          
 ---------------------------------------------------------------------
 Center     Atomic      Atomic             Coordinates (Angstroms)
 Number     Number       Type             X           Y           Z
 ---------------------------------------------------------------------
      1          6           0        1.742001    1.078331    0.078660
      2          1           0        1.238423    2.020738    0.243172
      3          1           0        2.811297    0.939749    0.013302
      4          6           0        0.943213    0.019149   -0.038467
      5          6           0       -0.559675    0.056351   -0.017668
      6          9           0       -1.048397   -1.157110    0.234468
      7          9           0       -0.994793    0.904034    0.928916
      8          9           0       -1.048019    0.468791   -1.202367
      9          9           0        1.375469   -1.224867   -0.240019
 ---------------------------------------------------------------------
                    Distance matrix (angstroms):
                    1          2          3          4          5
     1  C    0.000000
     2  H    1.081105   0.000000
     3  H    1.080217   1.922319   0.000000
     4  C    1.331783   2.042750   2.083248   0.000000
     5  C    2.520205   2.675820   3.484939   1.503492   0.000000
     6  F    3.578798   3.915143   4.398065   2.329075   1.332258
     7  F    2.871125   2.589311   3.914836   2.339811   1.343099
     8  F    3.129981   3.118644   4.073570   2.349861   1.346142
     9  F    2.353853   3.284237   2.609854   1.332309   2.331469
                    6          7          8          9
     6  F    0.000000
     7  F    2.175648   0.000000
     8  F    2.169804   2.175922   0.000000
     9  F    2.470801   3.393637   3.109323   0.000000
 Stoichiometry    C3H2F4
 Framework group  C1[X(C3H2F4)]
 Deg. of freedom    21
 Full point group                 C1      NOp   1
 RotChk:  IX=0 Diff= 1.51D-01
 Largest Abelian subgroup         C1      NOp   1
 Largest concise Abelian subgroup C1      NOp   1
                         Standard orientation:                         
 ---------------------------------------------------------------------
 Center     Atomic      Atomic             Coordinates (Angstroms)
 Number     Number       Type             X           Y           Z
 ---------------------------------------------------------------------
      1          6           0        1.698467   -1.100609    0.007736
      2          1           0        1.177285   -2.047608   -0.010912
      3          1           0        2.770853   -0.973440    0.033922
      4          6           0        0.918553   -0.021313   -0.014653
      5          6           0       -0.584847   -0.033942   -0.003781
      6          9           0       -1.059724    1.139479   -0.419096
      7          9           0       -1.051607   -1.000554   -0.811067
      8          9           0       -1.055946   -0.263407    1.236183
      9          9           0        1.373813    1.230730   -0.001444
 ---------------------------------------------------------------------
 Rotational constants (GHZ):           3.6764461           2.4928489           2.0178671
 Leave Link  202 at Thu Apr  2 13:33:17 2026, MaxMem=  2147483648 cpu:               0.0 elap:               0.0
 (Enter /Users/yarger/Applications/g16/l301.exe)
 Standard basis: 6-31+G(d) (6D, 7F)
 Ernie: Thresh=  0.10000D-02 Tol=  0.10000D-05 Strict=F.
 There are   137 symmetry adapted cartesian basis functions of A   symmetry.
 There are   137 symmetry adapted basis functions of A   symmetry.
   137 basis functions,   232 primitive gaussians,   137 cartesian basis functions
    28 alpha electrons       28 beta electrons
       nuclear repulsion energy       333.6134706903 Hartrees.
 IExCor=  402 DFT=T Ex+Corr=B3LYP ExCW=0 ScaHFX=  0.200000
 ScaDFX=  0.800000  0.720000  1.000000  0.810000 ScalE2=  1.000000  1.000000
 IRadAn=      5 IRanWt=     -1 IRanGd=            0 ICorTp=0 IEmpDi=  4
 NAtoms=    9 NActive=    9 NUniq=    9 SFac= 1.00D+00 NAtFMM=   60 NAOKFM=F Big=F
 Integral buffers will be    131072 words long.
 Raffenetti 2 integral format.
 Two-electron integral symmetry is turned on.
 Leave Link  301 at Thu Apr  2 13:33:17 2026, MaxMem=  2147483648 cpu:               0.1 elap:               0.0
 (Enter /Users/yarger/Applications/g16/l302.exe)
 NPDir=0 NMtPBC=     1 NCelOv=     1 NCel=       1 NClECP=     1 NCelD=      1
         NCelK=      1 NCelE2=     1 NClLst=     1 CellRange=     0.0.
 One-electron integrals computed using PRISM.
 One-electron integral symmetry used in STVInt
 NBasis=   137 RedAO= T EigKep=  6.68D-05  NBF=   137
 NBsUse=   137 1.00D-06 EigRej= -1.00D+00 NBFU=   137
 Precomputing XC quadrature grid using
 IXCGrd= 4 IRadAn=           5 IRanWt=          -1 IRanGd=           0 AccXCQ= 0.00D+00.
 Generated NRdTot=       0 NPtTot=           0 NUsed=           0 NTot=          32
 NSgBfM=   137   137   137   137   137 MxSgAt=     9 MxSgA2=     9.
 Leave Link  302 at Thu Apr  2 13:33:17 2026, MaxMem=  2147483648 cpu:               0.8 elap:               0.2
 (Enter /Users/yarger/Applications/g16/l303.exe)
 DipDrv:  MaxL=1.
 Leave Link  303 at Thu Apr  2 13:33:17 2026, MaxMem=  2147483648 cpu:               0.1 elap:               0.0
 (Enter /Users/yarger/Applications/g16/l401.exe)
 Initial guess from the checkpoint file:  "2223Tetrafluoropropene_Opt_Freq_DFT_B3LYP_631pd_Gaussian16.chk"
 B after Tr=    -0.000000   -0.000000    0.000000
         Rot=    0.997180    0.074445    0.000234   -0.009497 Ang=   8.61 deg.
 Guess basis will be translated and rotated to current coordinates.
 JPrj=2 DoOrth=T DoCkMO=T.
 Generating alternative initial guess.
 ExpMin= 4.38D-02 ExpMax= 7.00D+03 ExpMxC= 1.05D+03 IAcc=2 IRadAn=         4 AccDes= 0.00D+00
 Harris functional with IExCor=  402 and IRadAn=       4 diagonalized for initial guess.
 HarFok:  IExCor=  402 AccDes= 0.00D+00 IRadAn=         4 IDoV= 1 UseB2=F ITyADJ=14
 ICtDFT=  3500011 ScaDFX=  1.000000  1.000000  1.000000  1.000000
 FoFCou: FMM=F IPFlag=           0 FMFlag=      100000 FMFlg1=           0
         NFxFlg=           0 DoJE=T BraDBF=F KetDBF=T FulRan=T
         wScrn=  0.000000 ICntrl=       500 IOpCl=  0 I1Cent=   200000004 NGrid=           0
         NMat0=    1 NMatS0=      1 NMatT0=    0 NMatD0=    1 NMtDS0=    0 NMtDT0=    0
 Petite list used in FoFCou.
 Harris En= -514.869272048125    
 Leave Link  401 at Thu Apr  2 13:33:17 2026, MaxMem=  2147483648 cpu:               1.6 elap:               0.3
 (Enter /Users/yarger/Applications/g16/l502.exe)
 Keep R1 ints in memory in canonical form, NReq=52385408.
 FoFCou: FMM=F IPFlag=           0 FMFlag=           0 FMFlg1=           0
         NFxFlg=           0 DoJE=F BraDBF=F KetDBF=F FulRan=T
         wScrn=  0.000000 ICntrl=       600 IOpCl=  0 I1Cent=           0 NGrid=           0
         NMat0=    1 NMatS0=   9453 NMatT0=    0 NMatD0=    1 NMtDS0=    0 NMtDT0=    0
 Symmetry not used in FoFCou.
 Two-electron integral symmetry not used.
 Closed shell SCF:
 Using DIIS extrapolation, IDIIS=  1040.
 NGot=  2147483648 LenX=  2102759234 LenY=  2102740024
 Requested convergence on RMS density matrix=1.00D-08 within 128 cycles.
 Requested convergence on MAX density matrix=1.00D-06.
 Requested convergence on             energy=1.00D-06.
 No special actions if energy rises.

 Cycle   1  Pass 1  IDiag  1:
 E= -514.855827788668    
 DIIS: error= 6.51D-03 at cycle   1 NSaved=   1.
 NSaved= 1 IEnMin= 1 EnMin= -514.855827788668     IErMin= 1 ErrMin= 6.51D-03
 ErrMax= 6.51D-03  0.00D+00 EMaxC= 1.00D-01 BMatC= 1.58D-02 BMatP= 1.58D-02
 IDIUse=3 WtCom= 9.35D-01 WtEn= 6.51D-02
 Coeff-Com:  0.100D+01
 Coeff-En:   0.100D+01
 Coeff:      0.100D+01
 Gap=     0.677 Goal=   None    Shift=    0.000
 GapD=    0.677 DampG=2.000 DampE=1.000 DampFc=2.0000 IDamp=-1.
 RMSDP=1.99D-03 MaxDP=3.34D-02              OVMax= 5.41D-02

 Cycle   2  Pass 1  IDiag  1:
 E= -514.885169523929     Delta-E=       -0.029341735261 Rises=F Damp=F
 DIIS: error= 8.86D-04 at cycle   2 NSaved=   2.
 NSaved= 2 IEnMin= 2 EnMin= -514.885169523929     IErMin= 2 ErrMin= 8.86D-04
 ErrMax= 8.86D-04  0.00D+00 EMaxC= 1.00D-01 BMatC= 3.65D-04 BMatP= 1.58D-02
 IDIUse=3 WtCom= 9.91D-01 WtEn= 8.86D-03
 Coeff-Com: -0.462D-01 0.105D+01
 Coeff-En:   0.000D+00 0.100D+01
 Coeff:     -0.458D-01 0.105D+01
 Gap=     0.259 Goal=   None    Shift=    0.000
 RMSDP=4.56D-04 MaxDP=1.09D-02 DE=-2.93D-02 OVMax= 9.52D-03

 Cycle   3  Pass 1  IDiag  1:
 E= -514.885340810936     Delta-E=       -0.000171287006 Rises=F Damp=F
 DIIS: error= 1.23D-03 at cycle   3 NSaved=   3.
 NSaved= 3 IEnMin= 3 EnMin= -514.885340810936     IErMin= 2 ErrMin= 8.86D-04
 ErrMax= 1.23D-03  0.00D+00 EMaxC= 1.00D-01 BMatC= 4.85D-04 BMatP= 3.65D-04
 IDIUse=3 WtCom= 2.22D-01 WtEn= 7.78D-01
 Coeff-Com: -0.444D-01 0.588D+00 0.456D+00
 Coeff-En:   0.000D+00 0.326D+00 0.674D+00
 Coeff:     -0.984D-02 0.384D+00 0.625D+00
 Gap=     0.258 Goal=   None    Shift=    0.000
 RMSDP=2.26D-04 MaxDP=5.02D-03 DE=-1.71D-04 OVMax= 5.97D-03

 Cycle   4  Pass 1  IDiag  1:
 E= -514.885541332316     Delta-E=       -0.000200521380 Rises=F Damp=F
 DIIS: error= 7.54D-04 at cycle   4 NSaved=   4.
 NSaved= 4 IEnMin= 4 EnMin= -514.885541332316     IErMin= 4 ErrMin= 7.54D-04
 ErrMax= 7.54D-04  0.00D+00 EMaxC= 1.00D-01 BMatC= 2.10D-04 BMatP= 3.65D-04
 IDIUse=3 WtCom= 9.92D-01 WtEn= 7.54D-03
 Coeff-Com: -0.128D-01 0.132D+00 0.399D+00 0.482D+00
 Coeff-En:   0.000D+00 0.000D+00 0.315D+00 0.685D+00
 Coeff:     -0.127D-01 0.131D+00 0.398D+00 0.484D+00
 Gap=     0.259 Goal=   None    Shift=    0.000
 RMSDP=7.56D-05 MaxDP=2.07D-03 DE=-2.01D-04 OVMax= 2.39D-03

 Cycle   5  Pass 1  IDiag  1:
 E= -514.885678224122     Delta-E=       -0.000136891807 Rises=F Damp=F
 DIIS: error= 3.41D-05 at cycle   5 NSaved=   5.
 NSaved= 5 IEnMin= 5 EnMin= -514.885678224122     IErMin= 5 ErrMin= 3.41D-05
 ErrMax= 3.41D-05  0.00D+00 EMaxC= 1.00D-01 BMatC= 6.62D-07 BMatP= 2.10D-04
 IDIUse=1 WtCom= 1.00D+00 WtEn= 0.00D+00
 Coeff-Com: -0.123D-02 0.371D-02 0.101D+00 0.155D+00 0.742D+00
 Coeff:     -0.123D-02 0.371D-02 0.101D+00 0.155D+00 0.742D+00
 Gap=     0.259 Goal=   None    Shift=    0.000
 RMSDP=1.17D-05 MaxDP=3.46D-04 DE=-1.37D-04 OVMax= 2.88D-04

 Cycle   6  Pass 1  IDiag  1:
 E= -514.885678741450     Delta-E=       -0.000000517327 Rises=F Damp=F
 DIIS: error= 1.55D-05 at cycle   6 NSaved=   6.
 NSaved= 6 IEnMin= 6 EnMin= -514.885678741450     IErMin= 6 ErrMin= 1.55D-05
 ErrMax= 1.55D-05  0.00D+00 EMaxC= 1.00D-01 BMatC= 9.35D-08 BMatP= 6.62D-07
 IDIUse=1 WtCom= 1.00D+00 WtEn= 0.00D+00
 Coeff-Com:  0.240D-03-0.724D-02 0.209D-01 0.411D-01 0.333D+00 0.612D+00
 Coeff:      0.240D-03-0.724D-02 0.209D-01 0.411D-01 0.333D+00 0.612D+00
 Gap=     0.259 Goal=   None    Shift=    0.000
 RMSDP=3.52D-06 MaxDP=1.13D-04 DE=-5.17D-07 OVMax= 2.24D-04

 Cycle   7  Pass 1  IDiag  1:
 E= -514.885678806456     Delta-E=       -0.000000065007 Rises=F Damp=F
 DIIS: error= 8.39D-06 at cycle   7 NSaved=   7.
 NSaved= 7 IEnMin= 7 EnMin= -514.885678806456     IErMin= 7 ErrMin= 8.39D-06
 ErrMax= 8.39D-06  0.00D+00 EMaxC= 1.00D-01 BMatC= 2.55D-08 BMatP= 9.35D-08
 IDIUse=1 WtCom= 1.00D+00 WtEn= 0.00D+00
 Coeff-Com:  0.239D-03-0.463D-02 0.861D-03 0.644D-02 0.109D+00 0.377D+00
 Coeff-Com:  0.512D+00
 Coeff:      0.239D-03-0.463D-02 0.861D-03 0.644D-02 0.109D+00 0.377D+00
 Coeff:      0.512D+00
 Gap=     0.259 Goal=   None    Shift=    0.000
 RMSDP=1.38D-06 MaxDP=4.93D-05 DE=-6.50D-08 OVMax= 1.07D-04

 Cycle   8  Pass 1  IDiag  1:
 E= -514.885678830310     Delta-E=       -0.000000023853 Rises=F Damp=F
 DIIS: error= 2.19D-06 at cycle   8 NSaved=   8.
 NSaved= 8 IEnMin= 8 EnMin= -514.885678830310     IErMin= 8 ErrMin= 2.19D-06
 ErrMax= 2.19D-06  0.00D+00 EMaxC= 1.00D-01 BMatC= 1.62D-09 BMatP= 2.55D-08
 IDIUse=1 WtCom= 1.00D+00 WtEn= 0.00D+00
 Coeff-Com:  0.106D-03-0.168D-02-0.159D-02-0.686D-03 0.219D-01 0.132D+00
 Coeff-Com:  0.263D+00 0.587D+00
 Coeff:      0.106D-03-0.168D-02-0.159D-02-0.686D-03 0.219D-01 0.132D+00
 Coeff:      0.263D+00 0.587D+00
 Gap=     0.259 Goal=   None    Shift=    0.000
 RMSDP=3.68D-07 MaxDP=9.24D-06 DE=-2.39D-08 OVMax= 1.99D-05

 Cycle   9  Pass 1  IDiag  1:
 E= -514.885678831732     Delta-E=       -0.000000001422 Rises=F Damp=F
 DIIS: error= 7.60D-07 at cycle   9 NSaved=   9.
 NSaved= 9 IEnMin= 9 EnMin= -514.885678831732     IErMin= 9 ErrMin= 7.60D-07
 ErrMax= 7.60D-07  0.00D+00 EMaxC= 1.00D-01 BMatC= 1.58D-10 BMatP= 1.62D-09
 IDIUse=1 WtCom= 1.00D+00 WtEn= 0.00D+00
 Coeff-Com:  0.311D-04-0.411D-03-0.914D-03-0.101D-02 0.631D-03 0.342D-01
 Coeff-Com:  0.894D-01 0.300D+00 0.578D+00
 Coeff:      0.311D-04-0.411D-03-0.914D-03-0.101D-02 0.631D-03 0.342D-01
 Coeff:      0.894D-01 0.300D+00 0.578D+00
 Gap=     0.259 Goal=   None    Shift=    0.000
 RMSDP=8.27D-08 MaxDP=2.36D-06 DE=-1.42D-09 OVMax= 2.71D-06

 Cycle  10  Pass 1  IDiag  1:
 E= -514.885678831838     Delta-E=       -0.000000000107 Rises=F Damp=F
 DIIS: error= 2.47D-07 at cycle  10 NSaved=  10.
 NSaved=10 IEnMin=10 EnMin= -514.885678831838     IErMin=10 ErrMin= 2.47D-07
 ErrMax= 2.47D-07  0.00D+00 EMaxC= 1.00D-01 BMatC= 1.56D-11 BMatP= 1.58D-10
 IDIUse=1 WtCom= 1.00D+00 WtEn= 0.00D+00
 Coeff-Com: -0.147D-05 0.767D-04-0.210D-03-0.411D-03-0.351D-02-0.475D-02
 Coeff-Com:  0.203D-02 0.581D-01 0.281D+00 0.668D+00
 Coeff:     -0.147D-05 0.767D-04-0.210D-03-0.411D-03-0.351D-02-0.475D-02
 Coeff:      0.203D-02 0.581D-01 0.281D+00 0.668D+00
 Gap=     0.259 Goal=   None    Shift=    0.000
 RMSDP=2.86D-08 MaxDP=6.77D-07 DE=-1.07D-10 OVMax= 7.53D-07

 Cycle  11  Pass 1  IDiag  1:
 E= -514.885678831846     Delta-E=       -0.000000000008 Rises=F Damp=F
 DIIS: error= 3.85D-08 at cycle  11 NSaved=  11.
 NSaved=11 IEnMin=11 EnMin= -514.885678831846     IErMin=11 ErrMin= 3.85D-08
 ErrMax= 3.85D-08  0.00D+00 EMaxC= 1.00D-01 BMatC= 7.35D-13 BMatP= 1.56D-11
 IDIUse=1 WtCom= 1.00D+00 WtEn= 0.00D+00
 Coeff-Com: -0.185D-05 0.516D-04-0.709D-04-0.163D-03-0.172D-02-0.348D-02
 Coeff-Com: -0.196D-02 0.165D-01 0.112D+00 0.318D+00 0.560D+00
 Coeff:     -0.185D-05 0.516D-04-0.709D-04-0.163D-03-0.172D-02-0.348D-02
 Coeff:     -0.196D-02 0.165D-01 0.112D+00 0.318D+00 0.560D+00
 Gap=     0.259 Goal=   None    Shift=    0.000
 RMSDP=7.27D-09 MaxDP=1.34D-07 DE=-7.96D-12 OVMax= 2.05D-07

 SCF Done:  E(RB3LYP) =  -514.885678832     A.U. after   11 cycles
            NFock= 11  Conv=0.73D-08     -V/T= 2.0077
 KE= 5.109526434308D+02 PE=-1.885286125034D+03 EE= 5.258343320812D+02
 Leave Link  502 at Thu Apr  2 13:33:21 2026, MaxMem=  2147483648 cpu:              22.0 elap:               3.1
 (Enter /Users/yarger/Applications/g16/l701.exe)
 ... and contract with generalized density number  0.
 Compute integral first derivatives.
 Leave Link  701 at Thu Apr  2 13:33:21 2026, MaxMem=  2147483648 cpu:               0.5 elap:               0.1
 (Enter /Users/yarger/Applications/g16/l702.exe)
 L702 exits ... SP integral derivatives will be done elsewhere.
 Leave Link  702 at Thu Apr  2 13:33:21 2026, MaxMem=  2147483648 cpu:               0.1 elap:               0.0
 (Enter /Users/yarger/Applications/g16/l703.exe)
 Integral derivatives from FoFJK, PRISM(SPDF).
 Compute integral first derivatives, UseDBF=F ICtDFT=           0.
 Calling FoFJK, ICntrl=      2127 FMM=F ISym2X=0 I1Cent= 0 IOpClX= 0 NMat=1 NMatS=1 NMatT=0.
 FoFJK:  IHMeth= 1 ICntrl=    2127 DoSepK=F KAlg= 0 I1Cent=           0 FoldK=F
 IRaf=         0 NMat=       1 IRICut=       1 DoRegI=T DoRafI=F ISym2E= 0 IDoP0=0 IntGTp=1.
 FoFCou: FMM=F IPFlag=           0 FMFlag=      100000 FMFlg1=         800
         NFxFlg=           0 DoJE=F BraDBF=F KetDBF=F FulRan=T
         wScrn=  0.000000 ICntrl=      2127 IOpCl=  0 I1Cent=           0 NGrid=           0
         NMat0=    1 NMatS0=      1 NMatT0=    0 NMatD0=    1 NMtDS0=    0 NMtDT0=    0
 Symmetry not used in FoFCou.
 Leave Link  703 at Thu Apr  2 13:33:22 2026, MaxMem=  2147483648 cpu:               6.2 elap:               0.8
 (Enter /Users/yarger/Applications/g16/l716.exe)
 Dipole        = 6.30942007D-01-5.57343339D-01-1.09999481D-02
 ***** Axes restored to original set *****
 -------------------------------------------------------------------
 Center     Atomic                   Forces (Hartrees/Bohr)
 Number     Number              X              Y              Z
 -------------------------------------------------------------------
      1        6          -0.013584863   -0.016029916   -0.000526241
      2        1           0.008246350    0.005981039    0.000575293
      3        1           0.002977701    0.006664671    0.000837381
      4        6           0.005615907    0.011840806    0.000869517
      5        6           0.008803422    0.001181695    0.001321815
      6        9          -0.009227100   -0.008058357    0.002690756
      7        9          -0.007245416    0.006637249    0.004194353
      8        9          -0.006835247    0.002766036   -0.006475275
      9        9           0.011249244   -0.010983224   -0.003487597
 -------------------------------------------------------------------
 Cartesian Forces:  Max     0.016029916 RMS     0.007403997
 Leave Link  716 at Thu Apr  2 13:33:22 2026, MaxMem=  2147483648 cpu:               0.1 elap:               0.0
 (Enter /Users/yarger/Applications/g16/l103.exe)

 GradGradGradGradGradGradGradGradGradGradGradGradGradGradGradGradGradGrad
 Berny optimization.
 Using GEDIIS/GDIIS optimizer.
 FormGI is forming the generalized inverse of G from B-inverse, IUseBI=4.
 Internal  Forces:  Max     0.014585252 RMS     0.006683495
 Search for a local minimum.
 Step number  14 out of a maximum of   40
 All quantities printed in internal units (Hartrees-Bohrs-Radians)
 RMS Force = .66835D-02 SwitMx=.10000D-02 MixMth= 1
 Mixed Optimization -- RFO/linear search
 Update second derivatives using D2CorX and points    1    2    3    4    5
                                                      6    7    8   11    9
                                                     12   14   13
 ITU=  0  1  0  0  0  0  0  0  0  1  1  1  1  0
 Use linear search instead of GDIIS.
     Eigenvalues ---    0.00001   0.01719   0.03014   0.03046   0.11109
     Eigenvalues ---    0.11754   0.13059   0.14985   0.20337   0.24723
     Eigenvalues ---    0.25013   0.27168   0.31194   0.35110   0.35450
     Eigenvalues ---    0.35817   0.45905   0.56154   0.56775   0.60472
     Eigenvalues ---    0.73580
 RFO step:  Lambda=-7.99416522D-04 EMin= 1.14331602D-05
 Quartic linear search produced a step of -0.87634.
 Iteration  1 RMS(Cart)=  0.10733697 RMS(Int)=  0.00503327
 Iteration  2 RMS(Cart)=  0.00549947 RMS(Int)=  0.00021068
 Iteration  3 RMS(Cart)=  0.00001109 RMS(Int)=  0.00021053
 Iteration  4 RMS(Cart)=  0.00000000 RMS(Int)=  0.00021053
 ITry= 1 IFail=0 DXMaxC= 2.61D-01 DCOld= 1.00D+10 DXMaxT= 7.69D-01 DXLimC= 3.00D+00 Rises=F
 Variable       Old X    -DE/DX   Delta X   Delta X   Delta X     New X
                                 (Linear)    (Quad)   (Total)
    R1        2.04299   0.00146   0.00530  -0.00103   0.00427   2.04727
    R2        2.04132   0.00204   0.00655  -0.00183   0.00472   2.04603
    R3        2.51671  -0.00403  -0.01214   0.00010  -0.01203   2.50467
    R4        2.84119   0.01459   0.02809   0.00012   0.02821   2.86940
    R5        2.51770   0.01443   0.02800  -0.01315   0.01485   2.53255
    R6        2.51760   0.01123   0.01561   0.00821   0.02381   2.54141
    R7        2.53809   0.00949   0.02131  -0.00170   0.01961   2.55770
    R8        2.54384   0.00903   0.01773   0.00554   0.02328   2.56712
    A1        2.19214  -0.01168  -0.10340   0.02960  -0.07379   2.11835
    A2        2.01228   0.00895   0.06992  -0.01769   0.05224   2.06452
    A3        2.07873   0.00273   0.03351  -0.01201   0.02150   2.10023
    A4        2.18787  -0.00161  -0.00795  -0.00460  -0.01253   2.17534
    A5        2.16677  -0.00796  -0.02776   0.01029  -0.01743   2.14934
    A6        1.92784   0.00956   0.03625  -0.00729   0.02895   1.95679
    A7        1.92492   0.00809   0.02063  -0.02114  -0.00036   1.92457
    A8        1.92752   0.00497   0.00953  -0.01639  -0.00679   1.92072
    A9        1.93696   0.00369   0.00433  -0.00377   0.00061   1.93757
   A10        1.89931  -0.00570  -0.01143   0.02354   0.01227   1.91158
   A11        1.88867  -0.00537  -0.00522   0.00939   0.00430   1.89297
   A12        1.88531  -0.00635  -0.01984   0.01009  -0.00980   1.87551
    D1        0.04783   0.00004  -0.02861   0.05749   0.02847   0.07630
    D2       -3.13795   0.00005  -0.00288   0.00712   0.00465  -3.13330
    D3       -3.10240   0.00003  -0.02299   0.04605   0.02265  -3.07975
    D4       -0.00500   0.00004   0.00274  -0.00432  -0.00116  -0.00616
    D5       -2.82569   0.00074  -0.19206   0.36184   0.16949  -2.65620
    D6       -0.72566   0.00208  -0.18636   0.36691   0.18017  -0.54550
    D7        1.36466  -0.00022  -0.20219   0.36637   0.16394   1.52861
    D8        0.35493   0.00108  -0.21434   0.40594   0.19191   0.54684
    D9        2.45495   0.00242  -0.20865   0.41102   0.20259   2.65754
   D10       -1.73790   0.00012  -0.22447   0.41047   0.18636  -1.55154
         Item               Value     Threshold  Converged?
 Maximum Force            0.014585     0.000015     NO 
 RMS     Force            0.006683     0.000010     NO 
 Maximum Displacement     0.261429     0.000060     NO 
 RMS     Displacement     0.107759     0.000040     NO 
 Predicted change in Energy=-7.935236D-04
 GradGradGradGradGradGradGradGradGradGradGradGradGradGradGradGradGradGrad

 Leave Link  103 at Thu Apr  2 13:33:22 2026, MaxMem=  2147483648 cpu:               0.1 elap:               0.0
 (Enter /Users/yarger/Applications/g16/l202.exe)
                          Input orientation:                          
 ---------------------------------------------------------------------
 Center     Atomic      Atomic             Coordinates (Angstroms)
 Number     Number       Type             X           Y           Z
 ---------------------------------------------------------------------
      1          6           0        1.732668    1.059868    0.117770
      2          1           0        1.274761    2.006426    0.378598
      3          1           0        2.806331    0.961463    0.018598
      4          6           0        0.944670    0.009582   -0.063031
      5          6           0       -0.572653    0.052141   -0.024027
      6          9           0       -1.062412   -1.139547    0.361536
      7          9           0       -0.987993    1.011492    0.835644
      8          9           0       -1.083177    0.351767   -1.246730
      9          9           0        1.407325   -1.208026   -0.378362
 ---------------------------------------------------------------------
                    Distance matrix (angstroms):
                    1          2          3          4          5
     1  C    0.000000
     2  H    1.083366   0.000000
     3  H    1.082715   1.888717   0.000000
     4  C    1.325417   2.071566   2.092492   0.000000
     5  C    2.519945   2.719242   3.499459   1.518421   0.000000
     6  F    3.565013   3.919160   4.415769   2.351411   1.344858
     7  F    2.814192   2.513731   3.881618   2.355128   1.353476
     8  F    3.208154   3.307486   4.135342   2.372846   1.358460
     9  F    2.344214   3.305037   2.611796   1.340169   2.373581
                    6          7          8          9
     6  F    0.000000
     7  F    2.203925   0.000000
     8  F    2.193392   2.186454   0.000000
     9  F    2.579097   3.483909   3.064248   0.000000
 Stoichiometry    C3H2F4
 Framework group  C1[X(C3H2F4)]
 Deg. of freedom    21
 Full point group                 C1      NOp   1
 RotChk:  IX=3 Diff= 1.07D-01
 Largest Abelian subgroup         C1      NOp   1
 Largest concise Abelian subgroup C1      NOp   1
                         Standard orientation:                         
 ---------------------------------------------------------------------
 Center     Atomic      Atomic             Coordinates (Angstroms)
 Number     Number       Type             X           Y           Z
 ---------------------------------------------------------------------
      1          6           0        1.677377   -1.113204    0.003706
      2          1           0        1.186670   -2.078370   -0.032958
      3          1           0        2.756034   -1.030598    0.047808
      4          6           0        0.923147   -0.023655   -0.023672
      5          6           0       -0.595194   -0.024442   -0.008130
      6          9           0       -1.068034    1.071648   -0.627527
      7          9           0       -1.064998   -1.132275   -0.627717
      8          9           0       -1.069329   -0.037374    1.264835
      9          9           0        1.427397    1.217641    0.007490
 ---------------------------------------------------------------------
 Rotational constants (GHZ):           3.6332575           2.4431506           1.9802697
 Leave Link  202 at Thu Apr  2 13:33:22 2026, MaxMem=  2147483648 cpu:               0.0 elap:               0.0
 (Enter /Users/yarger/Applications/g16/l301.exe)
 Standard basis: 6-31+G(d) (6D, 7F)
 Ernie: Thresh=  0.10000D-02 Tol=  0.10000D-05 Strict=F.
 There are   137 symmetry adapted cartesian basis functions of A   symmetry.
 There are   137 symmetry adapted basis functions of A   symmetry.
   137 basis functions,   232 primitive gaussians,   137 cartesian basis functions
    28 alpha electrons       28 beta electrons
       nuclear repulsion energy       330.8773728414 Hartrees.
 IExCor=  402 DFT=T Ex+Corr=B3LYP ExCW=0 ScaHFX=  0.200000
 ScaDFX=  0.800000  0.720000  1.000000  0.810000 ScalE2=  1.000000  1.000000
 IRadAn=      5 IRanWt=     -1 IRanGd=            0 ICorTp=0 IEmpDi=  4
 NAtoms=    9 NActive=    9 NUniq=    9 SFac= 1.00D+00 NAtFMM=   60 NAOKFM=F Big=F
 Integral buffers will be    131072 words long.
 Raffenetti 2 integral format.
 Two-electron integral symmetry is turned on.
 Leave Link  301 at Thu Apr  2 13:33:22 2026, MaxMem=  2147483648 cpu:               0.2 elap:               0.0
 (Enter /Users/yarger/Applications/g16/l302.exe)
 NPDir=0 NMtPBC=     1 NCelOv=     1 NCel=       1 NClECP=     1 NCelD=      1
         NCelK=      1 NCelE2=     1 NClLst=     1 CellRange=     0.0.
 One-electron integrals computed using PRISM.
 One-electron integral symmetry used in STVInt
 NBasis=   137 RedAO= T EigKep=  6.97D-05  NBF=   137
 NBsUse=   137 1.00D-06 EigRej= -1.00D+00 NBFU=   137
 Precomputing XC quadrature grid using
 IXCGrd= 4 IRadAn=           5 IRanWt=          -1 IRanGd=           0 AccXCQ= 0.00D+00.
 Generated NRdTot=       0 NPtTot=           0 NUsed=           0 NTot=          32
 NSgBfM=   137   137   137   137   137 MxSgAt=     9 MxSgA2=     9.
 Leave Link  302 at Thu Apr  2 13:33:22 2026, MaxMem=  2147483648 cpu:               0.8 elap:               0.1
 (Enter /Users/yarger/Applications/g16/l303.exe)
 DipDrv:  MaxL=1.
 Leave Link  303 at Thu Apr  2 13:33:22 2026, MaxMem=  2147483648 cpu:               0.1 elap:               0.0
 (Enter /Users/yarger/Applications/g16/l401.exe)
 Lowest energy guess from the checkpoint file:  "2223Tetrafluoropropene_Opt_Freq_DFT_B3LYP_631pd_Gaussian16.chk"
 B after Tr=     0.000000   -0.000000    0.000000
         Rot=    0.991677    0.128708    0.000275   -0.003357 Ang=  14.79 deg.
 Guess basis will be translated and rotated to current coordinates.
 B after Tr=     0.000000   -0.000000    0.000000
         Rot=    0.998520    0.054046    0.000247    0.006126 Ang=   6.24 deg.
 Guess basis will be translated and rotated to current coordinates.
 CkInt1:  FT= 1.24D-01
 Max alpha theta=  5.300 degrees.
 JPrj=2 DoOrth=T DoCkMO=T.
 Leave Link  401 at Thu Apr  2 13:33:22 2026, MaxMem=  2147483648 cpu:               0.5 elap:               0.1
 (Enter /Users/yarger/Applications/g16/l502.exe)
 Keep R1 ints in memory in canonical form, NReq=52385408.
 FoFCou: FMM=F IPFlag=           0 FMFlag=           0 FMFlg1=           0
         NFxFlg=           0 DoJE=F BraDBF=F KetDBF=F FulRan=T
         wScrn=  0.000000 ICntrl=       600 IOpCl=  0 I1Cent=           0 NGrid=           0
         NMat0=    1 NMatS0=   9453 NMatT0=    0 NMatD0=    1 NMtDS0=    0 NMtDT0=    0
 Symmetry not used in FoFCou.
 Two-electron integral symmetry not used.
 Closed shell SCF:
 Using DIIS extrapolation, IDIIS=  1040.
 NGot=  2147483648 LenX=  2102759234 LenY=  2102740024
 Requested convergence on RMS density matrix=1.00D-08 within 128 cycles.
 Requested convergence on MAX density matrix=1.00D-06.
 Requested convergence on             energy=1.00D-06.
 No special actions if energy rises.

 Cycle   1  Pass 1  IDiag  1:
 E= -514.811187801013    
 DIIS: error= 8.90D-03 at cycle   1 NSaved=   1.
 NSaved= 1 IEnMin= 1 EnMin= -514.811187801013     IErMin= 1 ErrMin= 8.90D-03
 ErrMax= 8.90D-03  0.00D+00 EMaxC= 1.00D-01 BMatC= 3.98D-02 BMatP= 3.98D-02
 IDIUse=3 WtCom= 9.11D-01 WtEn= 8.90D-02
 Coeff-Com:  0.100D+01
 Coeff-En:   0.100D+01
 Coeff:      0.100D+01
 Gap=    24.139 Goal=   None    Shift=    0.000
 GapD=   24.139 DampG=2.000 DampE=1.000 DampFc=2.0000 IDamp=-1.
 RMSDP=3.00D-03 MaxDP=5.52D-02              OVMax= 8.95D-02

 Cycle   2  Pass 1  IDiag  1:
 E= -514.886951892460     Delta-E=       -0.075764091446 Rises=F Damp=F
 DIIS: error= 1.85D-03 at cycle   2 NSaved=   2.
 NSaved= 2 IEnMin= 2 EnMin= -514.886951892460     IErMin= 2 ErrMin= 1.85D-03
 ErrMax= 1.85D-03  0.00D+00 EMaxC= 1.00D-01 BMatC= 1.33D-03 BMatP= 3.98D-02
 IDIUse=3 WtCom= 9.82D-01 WtEn= 1.85D-02
 Coeff-Com: -0.300D-01 0.103D+01
 Coeff-En:   0.000D+00 0.100D+01
 Coeff:     -0.295D-01 0.103D+01
 Gap=     0.262 Goal=   None    Shift=    0.000
 RMSDP=7.57D-04 MaxDP=1.73D-02 DE=-7.58D-02 OVMax= 1.52D-02

 Cycle   3  Pass 1  IDiag  1:
 E= -514.886947172034     Delta-E=        0.000004720426 Rises=F Damp=F
 DIIS: error= 2.85D-03 at cycle   3 NSaved=   3.
 NSaved= 3 IEnMin= 2 EnMin= -514.886951892460     IErMin= 2 ErrMin= 1.85D-03
 ErrMax= 2.85D-03  0.00D+00 EMaxC= 1.00D-01 BMatC= 2.40D-03 BMatP= 1.33D-03
 IDIUse=3 WtCom= 1.58D-01 WtEn= 8.42D-01
 Coeff-Com: -0.485D-01 0.619D+00 0.430D+00
 Coeff-En:   0.000D+00 0.501D+00 0.499D+00
 Coeff:     -0.766D-02 0.520D+00 0.488D+00
 Gap=     0.261 Goal=   None    Shift=    0.000
 RMSDP=3.40D-04 MaxDP=9.68D-03 DE= 4.72D-06 OVMax= 9.92D-03

 Cycle   4  Pass 1  IDiag  1:
 E= -514.888352536873     Delta-E=       -0.001405364839 Rises=F Damp=F
 DIIS: error= 8.70D-04 at cycle   4 NSaved=   4.
 NSaved= 4 IEnMin= 4 EnMin= -514.888352536873     IErMin= 4 ErrMin= 8.70D-04
 ErrMax= 8.70D-04  0.00D+00 EMaxC= 1.00D-01 BMatC= 2.29D-04 BMatP= 1.33D-03
 IDIUse=3 WtCom= 9.91D-01 WtEn= 8.70D-03
 Coeff-Com: -0.118D-01 0.105D+00 0.262D+00 0.645D+00
 Coeff-En:   0.000D+00 0.000D+00 0.628D-01 0.937D+00
 Coeff:     -0.117D-01 0.104D+00 0.260D+00 0.647D+00
 Gap=     0.261 Goal=   None    Shift=    0.000
 RMSDP=8.45D-05 MaxDP=2.32D-03 DE=-1.41D-03 OVMax= 2.42D-03

 Cycle   5  Pass 1  IDiag  1:
 E= -514.888500723656     Delta-E=       -0.000148186783 Rises=F Damp=F
 DIIS: error= 6.85D-05 at cycle   5 NSaved=   5.
 NSaved= 5 IEnMin= 5 EnMin= -514.888500723656     IErMin= 5 ErrMin= 6.85D-05
 ErrMax= 6.85D-05  0.00D+00 EMaxC= 1.00D-01 BMatC= 1.12D-06 BMatP= 2.29D-04
 IDIUse=1 WtCom= 1.00D+00 WtEn= 0.00D+00
 Coeff-Com: -0.554D-03-0.619D-02 0.454D-01 0.174D+00 0.788D+00
 Coeff:     -0.554D-03-0.619D-02 0.454D-01 0.174D+00 0.788D+00
 Gap=     0.261 Goal=   None    Shift=    0.000
 RMSDP=1.88D-05 MaxDP=5.63D-04 DE=-1.48D-04 OVMax= 3.40D-04

 Cycle   6  Pass 1  IDiag  1:
 E= -514.888501545750     Delta-E=       -0.000000822094 Rises=F Damp=F
 DIIS: error= 3.58D-05 at cycle   6 NSaved=   6.
 NSaved= 6 IEnMin= 6 EnMin= -514.888501545750     IErMin= 6 ErrMin= 3.58D-05
 ErrMax= 3.58D-05  0.00D+00 EMaxC= 1.00D-01 BMatC= 2.99D-07 BMatP= 1.12D-06
 IDIUse=1 WtCom= 1.00D+00 WtEn= 0.00D+00
 Coeff-Com:  0.272D-03-0.896D-02 0.105D-01 0.588D-01 0.417D+00 0.522D+00
 Coeff:      0.272D-03-0.896D-02 0.105D-01 0.588D-01 0.417D+00 0.522D+00
 Gap=     0.261 Goal=   None    Shift=    0.000
 RMSDP=4.34D-06 MaxDP=1.11D-04 DE=-8.22D-07 OVMax= 1.35D-04

 Cycle   7  Pass 1  IDiag  1:
 E= -514.888501725684     Delta-E=       -0.000000179934 Rises=F Damp=F
 DIIS: error= 1.03D-05 at cycle   7 NSaved=   7.
 NSaved= 7 IEnMin= 7 EnMin= -514.888501725684     IErMin= 7 ErrMin= 1.03D-05
 ErrMax= 1.03D-05  0.00D+00 EMaxC= 1.00D-01 BMatC= 3.23D-08 BMatP= 2.99D-07
 IDIUse=1 WtCom= 1.00D+00 WtEn= 0.00D+00
 Coeff-Com:  0.219D-03-0.361D-02-0.203D-02 0.174D-02 0.742D-01 0.272D+00
 Coeff-Com:  0.657D+00
 Coeff:      0.219D-03-0.361D-02-0.203D-02 0.174D-02 0.742D-01 0.272D+00
 Coeff:      0.657D+00
 Gap=     0.261 Goal=   None    Shift=    0.000
 RMSDP=1.53D-06 MaxDP=3.49D-05 DE=-1.80D-07 OVMax= 6.99D-05

 Cycle   8  Pass 1  IDiag  1:
 E= -514.888501748521     Delta-E=       -0.000000022837 Rises=F Damp=F
 DIIS: error= 1.97D-06 at cycle   8 NSaved=   8.
 NSaved= 8 IEnMin= 8 EnMin= -514.888501748521     IErMin= 8 ErrMin= 1.97D-06
 ErrMax= 1.97D-06  0.00D+00 EMaxC= 1.00D-01 BMatC= 1.44D-09 BMatP= 3.23D-08
 IDIUse=1 WtCom= 1.00D+00 WtEn= 0.00D+00
 Coeff-Com:  0.911D-04-0.141D-02-0.126D-02-0.954D-03 0.220D-01 0.117D+00
 Coeff-Com:  0.324D+00 0.540D+00
 Coeff:      0.911D-04-0.141D-02-0.126D-02-0.954D-03 0.220D-01 0.117D+00
 Coeff:      0.324D+00 0.540D+00
 Gap=     0.261 Goal=   None    Shift=    0.000
 RMSDP=3.82D-07 MaxDP=1.58D-05 DE=-2.28D-08 OVMax= 3.14D-05

 Cycle   9  Pass 1  IDiag  1:
 E= -514.888501749639     Delta-E=       -0.000000001118 Rises=F Damp=F
 DIIS: error= 1.03D-06 at cycle   9 NSaved=   9.
 NSaved= 9 IEnMin= 9 EnMin= -514.888501749639     IErMin= 9 ErrMin= 1.03D-06
 ErrMax= 1.03D-06  0.00D+00 EMaxC= 1.00D-01 BMatC= 3.54D-10 BMatP= 1.44D-09
 IDIUse=1 WtCom= 1.00D+00 WtEn= 0.00D+00
 Coeff-Com: -0.595D-06 0.129D-03-0.261D-03-0.121D-02-0.764D-02-0.220D-02
 Coeff-Com:  0.206D-01 0.344D+00 0.647D+00
 Coeff:     -0.595D-06 0.129D-03-0.261D-03-0.121D-02-0.764D-02-0.220D-02
 Coeff:      0.206D-01 0.344D+00 0.647D+00
 Gap=     0.261 Goal=   None    Shift=    0.000
 RMSDP=1.44D-07 MaxDP=5.08D-06 DE=-1.12D-09 OVMax= 1.09D-05

 Cycle  10  Pass 1  IDiag  1:
 E= -514.888501749998     Delta-E=       -0.000000000359 Rises=F Damp=F
 DIIS: error= 1.29D-07 at cycle  10 NSaved=  10.
 NSaved=10 IEnMin=10 EnMin= -514.888501749998     IErMin=10 ErrMin= 1.29D-07
 ErrMax= 1.29D-07  0.00D+00 EMaxC= 1.00D-01 BMatC= 5.86D-12 BMatP= 3.54D-10
 IDIUse=1 WtCom= 1.00D+00 WtEn= 0.00D+00
 Coeff-Com: -0.301D-05 0.981D-04-0.736D-04-0.487D-03-0.392D-02-0.420D-02
 Coeff-Com:  0.290D-03 0.133D+00 0.275D+00 0.600D+00
 Coeff:     -0.301D-05 0.981D-04-0.736D-04-0.487D-03-0.392D-02-0.420D-02
 Coeff:      0.290D-03 0.133D+00 0.275D+00 0.600D+00
 Gap=     0.261 Goal=   None    Shift=    0.000
 RMSDP=2.37D-08 MaxDP=5.28D-07 DE=-3.59D-10 OVMax= 4.88D-07

 Cycle  11  Pass 1  IDiag  1:
 E= -514.888501750000     Delta-E=       -0.000000000002 Rises=F Damp=F
 DIIS: error= 4.01D-08 at cycle  11 NSaved=  11.
 NSaved=11 IEnMin=11 EnMin= -514.888501750000     IErMin=11 ErrMin= 4.01D-08
 ErrMax= 4.01D-08  0.00D+00 EMaxC= 1.00D-01 BMatC= 8.74D-13 BMatP= 5.86D-12
 IDIUse=1 WtCom= 1.00D+00 WtEn= 0.00D+00
 Coeff-Com: -0.136D-05 0.341D-04-0.863D-05-0.109D-03-0.110D-02-0.185D-02
 Coeff-Com: -0.201D-02 0.287D-01 0.654D-01 0.309D+00 0.602D+00
 Coeff:     -0.136D-05 0.341D-04-0.863D-05-0.109D-03-0.110D-02-0.185D-02
 Coeff:     -0.201D-02 0.287D-01 0.654D-01 0.309D+00 0.602D+00
 Gap=     0.261 Goal=   None    Shift=    0.000
 RMSDP=7.25D-09 MaxDP=1.55D-07 DE=-2.05D-12 OVMax= 1.38D-07

 SCF Done:  E(RB3LYP) =  -514.888501750     A.U. after   11 cycles
            NFock= 11  Conv=0.72D-08     -V/T= 2.0080
 KE= 5.108094244375D+02 PE=-1.879722231216D+03 EE= 5.231469321876D+02
 Leave Link  502 at Thu Apr  2 13:33:25 2026, MaxMem=  2147483648 cpu:              22.0 elap:               3.1
 (Enter /Users/yarger/Applications/g16/l701.exe)
 ... and contract with generalized density number  0.
 Compute integral first derivatives.
 Leave Link  701 at Thu Apr  2 13:33:25 2026, MaxMem=  2147483648 cpu:               0.5 elap:               0.1
 (Enter /Users/yarger/Applications/g16/l702.exe)
 L702 exits ... SP integral derivatives will be done elsewhere.
 Leave Link  702 at Thu Apr  2 13:33:25 2026, MaxMem=  2147483648 cpu:               0.1 elap:               0.0
 (Enter /Users/yarger/Applications/g16/l703.exe)
 Integral derivatives from FoFJK, PRISM(SPDF).
 Compute integral first derivatives, UseDBF=F ICtDFT=           0.
 Calling FoFJK, ICntrl=      2127 FMM=F ISym2X=0 I1Cent= 0 IOpClX= 0 NMat=1 NMatS=1 NMatT=0.
 FoFJK:  IHMeth= 1 ICntrl=    2127 DoSepK=F KAlg= 0 I1Cent=           0 FoldK=F
 IRaf=         0 NMat=       1 IRICut=       1 DoRegI=T DoRafI=F ISym2E= 0 IDoP0=0 IntGTp=1.
 FoFCou: FMM=F IPFlag=           0 FMFlag=      100000 FMFlg1=         800
         NFxFlg=           0 DoJE=F BraDBF=F KetDBF=F FulRan=T
         wScrn=  0.000000 ICntrl=      2127 IOpCl=  0 I1Cent=           0 NGrid=           0
         NMat0=    1 NMatS0=      1 NMatT0=    0 NMatD0=    1 NMtDS0=    0 NMtDT0=    0
 Symmetry not used in FoFCou.
 Leave Link  703 at Thu Apr  2 13:33:26 2026, MaxMem=  2147483648 cpu:               6.3 elap:               0.9
 (Enter /Users/yarger/Applications/g16/l716.exe)
 Dipole        = 6.29523399D-01-5.97757088D-01-2.44473072D-02
 ***** Axes restored to original set *****
 -------------------------------------------------------------------
 Center     Atomic                   Forces (Hartrees/Bohr)
 Number     Number              X              Y              Z
 -------------------------------------------------------------------
      1        6          -0.002935771   -0.003318048    0.001303018
      2        1           0.003701793    0.001469794   -0.000301710
      3        1           0.001169953    0.002267197    0.000766390
      4        6          -0.004114182    0.006757525   -0.000647232
      5        6           0.010709742    0.000713155   -0.000294606
      6        9          -0.005101179    0.003317860    0.000145212
      7        9          -0.003977988   -0.003103037   -0.001917769
      8        9          -0.002247176   -0.002806593    0.003612108
      9        9           0.002794809   -0.005297853   -0.002665411
 -------------------------------------------------------------------
 Cartesian Forces:  Max     0.010709742 RMS     0.003640409
 Leave Link  716 at Thu Apr  2 13:33:26 2026, MaxMem=  2147483648 cpu:               0.1 elap:               0.0
 (Enter /Users/yarger/Applications/g16/l103.exe)

 GradGradGradGradGradGradGradGradGradGradGradGradGradGradGradGradGradGrad
 Berny optimization.
 Using GEDIIS/GDIIS optimizer.
 FormGI is forming the generalized inverse of G from B-inverse, IUseBI=4.
 Internal  Forces:  Max     0.007708433 RMS     0.003411754
 Search for a local minimum.
 Step number  15 out of a maximum of   40
 All quantities printed in internal units (Hartrees-Bohrs-Radians)
 RMS Force = .34118D-02 SwitMx=.10000D-02 MixMth= 1
 Mixed Optimization -- RFO/linear search
 Update second derivatives using D2CorX and points   14   13   15
 DE= -1.30D-03 DEPred=-7.94D-04 R= 1.64D+00
 TightC=F SS=  1.41D+00  RLast= 1.03D+00 DXNew= 1.2937D+00 3.0791D+00
 Trust test= 1.64D+00 RLast= 1.03D+00 DXMaxT set to 1.29D+00
 ITU=  1  0  1  0  0  0  0  0  0  0  1  1  1  1  0
 Use linear search instead of GDIIS.
     Eigenvalues ---   -0.52726   0.00008   0.01674   0.03042   0.03057
     Eigenvalues ---    0.07385   0.11144   0.13284   0.14501   0.22540
     Eigenvalues ---    0.23819   0.25484   0.26581   0.29214   0.34773
     Eigenvalues ---    0.35230   0.35476   0.42848   0.56432   0.60398
     Eigenvalues ---    0.67135
 Eigenvalue     1 is  -5.27D-01 should be greater than     0.000000 Eigenvector:
                          R5        A7        A1        A10       A11
   1                    0.41171   0.37871  -0.37580  -0.37387  -0.31237
                          A8        A2        A4        A5        A12
   1                    0.30857   0.25627   0.19359  -0.16017  -0.15868
 RFO step:  Lambda=-5.27858584D-01 EMin=-5.27257303D-01
 I=     1 Eig=   -5.27D-01 Dot1=  1.07D-02
 I=     1 Stepn=  6.00D-01 RXN=   6.00D-01 EDone=F
 Mixed    1 eigenvectors in step.  Raw Step.Grad=  1.07D-02.
 RFO eigenvector is Hessian eigenvector with negative curvature.
 Taking step of  6.00D-01 in eigenvector direction(s).  Step.Grad= -5.04D-04.
 Skip linear search -- no minimum in search direction.
 Iteration  1 RMS(Cart)=  0.17356257 RMS(Int)=  0.02035304
 Iteration  2 RMS(Cart)=  0.02058155 RMS(Int)=  0.00472629
 Iteration  3 RMS(Cart)=  0.00023719 RMS(Int)=  0.00472243
 Iteration  4 RMS(Cart)=  0.00000038 RMS(Int)=  0.00472243
 ITry= 1 IFail=0 DXMaxC= 5.42D-01 DCOld= 1.00D+10 DXMaxT= 1.29D+00 DXLimC= 3.00D+00 Rises=F
 Variable       Old X    -DE/DX   Delta X   Delta X   Delta X     New X
                                 (Linear)    (Quad)   (Total)
    R1        2.04727  -0.00035   0.00000  -0.00372  -0.00372   2.04355
    R2        2.04603   0.00088   0.00000   0.03054   0.03054   2.07657
    R3        2.50467   0.00172   0.00000   0.01240   0.01240   2.51707
    R4        2.86940   0.00060   0.00000   0.01145   0.01145   2.88085
    R5        2.53255   0.00641   0.00000   0.24703   0.24703   2.77958
    R6        2.54141  -0.00104   0.00000   0.00687   0.00687   2.54828
    R7        2.55770  -0.00220   0.00000   0.00448   0.00448   2.56218
    R8        2.56712  -0.00303   0.00000  -0.02212  -0.02212   2.54499
    A1        2.11835  -0.00440   0.00000  -0.22548  -0.22549   1.89286
    A2        2.06452   0.00371   0.00000   0.15376   0.15375   2.21827
    A3        2.10023   0.00069   0.00000   0.07181   0.07180   2.17203
    A4        2.17534   0.00329   0.00000   0.11615   0.11610   2.29144
    A5        2.14934  -0.00247   0.00000  -0.09610  -0.09617   2.05317
    A6        1.95679  -0.00081   0.00000  -0.01907  -0.01911   1.93768
    A7        1.92457   0.00771   0.00000   0.22723   0.21568   2.14025
    A8        1.92072   0.00638   0.00000   0.18514   0.17125   2.09197
    A9        1.93757   0.00362   0.00000   0.07614   0.06890   2.00646
   A10        1.91158  -0.00750   0.00000  -0.22432  -0.23828   1.67330
   A11        1.89297  -0.00655   0.00000  -0.18742  -0.19136   1.70160
   A12        1.87551  -0.00431   0.00000  -0.09521  -0.10226   1.77325
    D1        0.07630  -0.00048   0.00000  -0.02998  -0.02963   0.04667
    D2       -3.13330  -0.00017   0.00000  -0.01147  -0.01182   3.13807
    D3       -3.07975  -0.00041   0.00000  -0.02488  -0.02453  -3.10428
    D4       -0.00616  -0.00011   0.00000  -0.00637  -0.00672  -0.01288
    D5       -2.65620   0.00084   0.00000   0.02422   0.02139  -2.63481
    D6       -0.54550   0.00061   0.00000   0.01169   0.01394  -0.53156
    D7        1.52861   0.00161   0.00000   0.05968   0.06099   1.58960
    D8        0.54684   0.00064   0.00000   0.01089   0.00757   0.55441
    D9        2.65754   0.00041   0.00000  -0.00164   0.00012   2.65766
   D10       -1.55154   0.00141   0.00000   0.04635   0.04717  -1.50436
         Item               Value     Threshold  Converged?
 Maximum Force            0.007708     0.000015     NO 
 RMS     Force            0.003412     0.000010     NO 
 Maximum Displacement     0.542213     0.000060     NO 
 RMS     Displacement     0.182599     0.000040     NO 
 Predicted change in Energy=-1.047402D-01
 Lowest energy point so far.  Saving SCF results.
 GradGradGradGradGradGradGradGradGradGradGradGradGradGradGradGradGradGrad

 Leave Link  103 at Thu Apr  2 13:33:26 2026, MaxMem=  2147483648 cpu:               0.1 elap:               0.0
 (Enter /Users/yarger/Applications/g16/l202.exe)
                          Input orientation:                          
 ---------------------------------------------------------------------
 Center     Atomic      Atomic             Coordinates (Angstroms)
 Number     Number       Type             X           Y           Z
 ---------------------------------------------------------------------
      1          6           0        1.803385    1.086242    0.119230
      2          1           0        1.561688    2.105749    0.386838
      3          1           0        2.894680    1.001497    0.022174
      4          6           0        0.950543    0.078923   -0.060019
      5          6           0       -0.572247    0.028861   -0.008602
      6          9           0       -1.251639   -1.080236    0.347436
      7          9           0       -1.248273    0.873875    0.808259
      8          9           0       -1.188009    0.241230   -1.187363
      9          9           0        1.509390   -1.230974   -0.427957
 ---------------------------------------------------------------------
                    Distance matrix (angstroms):
                    1          2          3          4          5
     1  C    0.000000
     2  H    1.081400   0.000000
     3  H    1.098875   1.768960   0.000000
     4  C    1.331977   2.163609   2.153501   0.000000
     5  C    2.603464   3.003916   3.600910   1.524480   0.000000
     6  F    3.752183   4.250513   4.650953   2.521760   1.348493
     7  F    3.135678   3.096932   4.218800   2.494123   1.355847
     8  F    3.371894   3.676326   4.325429   2.422943   1.346752
     9  F    2.399029   3.435163   2.665628   1.470891   2.469060
                    6          7          8          9
     6  F    0.000000
     7  F    2.007715   0.000000
     8  F    2.026309   2.094368   0.000000
     9  F    2.871800   3.682842   3.165446   0.000000
 Stoichiometry    C3H2F4
 Framework group  C1[X(C3H2F4)]
 Deg. of freedom    21
 Full point group                 C1      NOp   1
 RotChk:  IX=3 Diff= 9.55D-02
 Largest Abelian subgroup         C1      NOp   1
 Largest concise Abelian subgroup C1      NOp   1
                         Standard orientation:                         
 ---------------------------------------------------------------------
 Center     Atomic      Atomic             Coordinates (Angstroms)
 Number     Number       Type             X           Y           Z
 ---------------------------------------------------------------------
      1          6           0        1.845125   -1.101558    0.003830
      2          1           0        1.605818   -2.155862    0.028368
      3          1           0        2.938594   -0.992856    0.009744
      4          6           0        0.986990   -0.083672   -0.037110
      5          6           0       -0.536871   -0.050862   -0.008665
      6          9           0       -1.254312    0.924541   -0.602214
      7          9           0       -1.244210   -1.081952   -0.532920
      8          9           0       -1.080279    0.053734    1.219142
      9          9           0        1.543704    1.277596   -0.060279
 ---------------------------------------------------------------------
 Rotational constants (GHZ):           3.8986861           2.1505140           1.7832019
 Leave Link  202 at Thu Apr  2 13:33:26 2026, MaxMem=  2147483648 cpu:               0.0 elap:               0.0
 (Enter /Users/yarger/Applications/g16/l301.exe)
 Standard basis: 6-31+G(d) (6D, 7F)
 Ernie: Thresh=  0.10000D-02 Tol=  0.10000D-05 Strict=F.
 There are   137 symmetry adapted cartesian basis functions of A   symmetry.
 There are   137 symmetry adapted basis functions of A   symmetry.
   137 basis functions,   232 primitive gaussians,   137 cartesian basis functions
    28 alpha electrons       28 beta electrons
       nuclear repulsion energy       324.7587641360 Hartrees.
 IExCor=  402 DFT=T Ex+Corr=B3LYP ExCW=0 ScaHFX=  0.200000
 ScaDFX=  0.800000  0.720000  1.000000  0.810000 ScalE2=  1.000000  1.000000
 IRadAn=      5 IRanWt=     -1 IRanGd=            0 ICorTp=0 IEmpDi=  4
 NAtoms=    9 NActive=    9 NUniq=    9 SFac= 1.00D+00 NAtFMM=   60 NAOKFM=F Big=F
 Integral buffers will be    131072 words long.
 Raffenetti 2 integral format.
 Two-electron integral symmetry is turned on.
 Leave Link  301 at Thu Apr  2 13:33:26 2026, MaxMem=  2147483648 cpu:               0.2 elap:               0.0
 (Enter /Users/yarger/Applications/g16/l302.exe)
 NPDir=0 NMtPBC=     1 NCelOv=     1 NCel=       1 NClECP=     1 NCelD=      1
         NCelK=      1 NCelE2=     1 NClLst=     1 CellRange=     0.0.
 One-electron integrals computed using PRISM.
 One-electron integral symmetry used in STVInt
 NBasis=   137 RedAO= T EigKep=  6.06D-05  NBF=   137
 NBsUse=   137 1.00D-06 EigRej= -1.00D+00 NBFU=   137
 Precomputing XC quadrature grid using
 IXCGrd= 4 IRadAn=           5 IRanWt=          -1 IRanGd=           0 AccXCQ= 0.00D+00.
 Generated NRdTot=       0 NPtTot=           0 NUsed=           0 NTot=          32
 NSgBfM=   137   137   137   137   137 MxSgAt=     9 MxSgA2=     9.
 Leave Link  302 at Thu Apr  2 13:33:27 2026, MaxMem=  2147483648 cpu:               0.8 elap:               0.1
 (Enter /Users/yarger/Applications/g16/l303.exe)
 DipDrv:  MaxL=1.
 Leave Link  303 at Thu Apr  2 13:33:27 2026, MaxMem=  2147483648 cpu:               0.1 elap:               0.0
 (Enter /Users/yarger/Applications/g16/l401.exe)
 Initial guess from the checkpoint file:  "2223Tetrafluoropropene_Opt_Freq_DFT_B3LYP_631pd_Gaussian16.chk"
 B after Tr=    -0.000000    0.000000   -0.000000
         Rot=    0.999576    0.023362   -0.016391   -0.005839 Ang=   3.34 deg.
 Guess basis will be translated and rotated to current coordinates.
 JPrj=2 DoOrth=T DoCkMO=T.
 Generating alternative initial guess.
 ExpMin= 4.38D-02 ExpMax= 7.00D+03 ExpMxC= 1.05D+03 IAcc=2 IRadAn=         4 AccDes= 0.00D+00
 Harris functional with IExCor=  402 and IRadAn=       4 diagonalized for initial guess.
 HarFok:  IExCor=  402 AccDes= 0.00D+00 IRadAn=         4 IDoV= 1 UseB2=F ITyADJ=14
 ICtDFT=  3500011 ScaDFX=  1.000000  1.000000  1.000000  1.000000
 FoFCou: FMM=F IPFlag=           0 FMFlag=      100000 FMFlg1=           0
         NFxFlg=           0 DoJE=T BraDBF=F KetDBF=T FulRan=T
         wScrn=  0.000000 ICntrl=       500 IOpCl=  0 I1Cent=   200000004 NGrid=           0
         NMat0=    1 NMatS0=      1 NMatT0=    0 NMatD0=    1 NMtDS0=    0 NMtDT0=    0
 Petite list used in FoFCou.
 Harris En= -514.838990603972    
 Leave Link  401 at Thu Apr  2 13:33:27 2026, MaxMem=  2147483648 cpu:               1.5 elap:               0.2
 (Enter /Users/yarger/Applications/g16/l502.exe)
 Keep R1 ints in memory in canonical form, NReq=52385408.
 FoFCou: FMM=F IPFlag=           0 FMFlag=           0 FMFlg1=           0
         NFxFlg=           0 DoJE=F BraDBF=F KetDBF=F FulRan=T
         wScrn=  0.000000 ICntrl=       600 IOpCl=  0 I1Cent=           0 NGrid=           0
         NMat0=    1 NMatS0=   9453 NMatT0=    0 NMatD0=    1 NMtDS0=    0 NMtDT0=    0
 Symmetry not used in FoFCou.
 Two-electron integral symmetry not used.
 Closed shell SCF:
 Using DIIS extrapolation, IDIIS=  1040.
 NGot=  2147483648 LenX=  2102759234 LenY=  2102740024
 Requested convergence on RMS density matrix=1.00D-08 within 128 cycles.
 Requested convergence on MAX density matrix=1.00D-06.
 Requested convergence on             energy=1.00D-06.
 No special actions if energy rises.

 Cycle   1  Pass 1  IDiag  1:
 E= -514.804473766482    
 DIIS: error= 1.25D-02 at cycle   1 NSaved=   1.
 NSaved= 1 IEnMin= 1 EnMin= -514.804473766482     IErMin= 1 ErrMin= 1.25D-02
 ErrMax= 1.25D-02  0.00D+00 EMaxC= 1.00D-01 BMatC= 2.94D-02 BMatP= 2.94D-02
 IDIUse=3 WtCom= 8.75D-01 WtEn= 1.25D-01
 Coeff-Com:  0.100D+01
 Coeff-En:   0.100D+01
 Coeff:      0.100D+01
 Recover alternate guess density for next cycle.
 RMSDP=3.94D-03 MaxDP=9.33D-02              OVMax= 0.00D+00

 Cycle   2  Pass 1  IDiag  1:
 E= -514.704143912886     Delta-E=        0.100329853596 Rises=F Damp=F
 Switch densities from cycles 1 and 2 for lowest energy.
 DIIS: error= 2.29D-02 at cycle   2 NSaved=   2.
 NSaved= 2 IEnMin= 1 EnMin= -514.804473766482     IErMin= 1 ErrMin= 1.25D-02
 ErrMax= 2.29D-02  0.00D+00 EMaxC= 1.00D+00 BMatC= 1.84D-01 BMatP= 2.94D-02
 IDIUse=1 WtCom= 1.00D+00 WtEn= 0.00D+00
 Coeff-Com:  0.918D+00 0.819D-01
 Coeff:      0.918D+00 0.819D-01
 Gap=     0.243 Goal=   None    Shift=    0.000
 RMSDP=3.50D-03 MaxDP=5.41D-02 DE= 1.00D-01 OVMax= 1.55D-01

 Cycle   3  Pass 1  IDiag  1:
 E= -514.839198194659     Delta-E=       -0.135054281773 Rises=F Damp=F
 DIIS: error= 7.02D-03 at cycle   3 NSaved=   3.
 NSaved= 3 IEnMin= 3 EnMin= -514.839198194659     IErMin= 3 ErrMin= 7.02D-03
 ErrMax= 7.02D-03  0.00D+00 EMaxC= 1.00D+00 BMatC= 1.35D-02 BMatP= 2.94D-02
 IDIUse=1 WtCom= 1.00D+00 WtEn= 0.00D+00
 Coeff-Com:  0.478D-01 0.189D+00 0.763D+00
 Coeff:      0.478D-01 0.189D+00 0.763D+00
 Gap=     0.256 Goal=   None    Shift=    0.000
 RMSDP=7.14D-04 MaxDP=1.53D-02 DE=-1.35D-01 OVMax= 2.08D-02

 Cycle   4  Pass 1  IDiag  1:
 E= -514.847053794121     Delta-E=       -0.007855599461 Rises=F Damp=F
 DIIS: error= 4.14D-03 at cycle   4 NSaved=   4.
 NSaved= 4 IEnMin= 4 EnMin= -514.847053794121     IErMin= 4 ErrMin= 4.14D-03
 ErrMax= 4.14D-03  0.00D+00 EMaxC= 1.00D+00 BMatC= 2.51D-03 BMatP= 1.35D-02
 IDIUse=1 WtCom= 1.00D+00 WtEn= 0.00D+00
 Coeff-Com: -0.245D-01 0.991D-01 0.438D+00 0.488D+00
 Coeff:     -0.245D-01 0.991D-01 0.438D+00 0.488D+00
 Gap=     0.255 Goal=   None    Shift=    0.000
 RMSDP=3.41D-04 MaxDP=9.59D-03 DE=-7.86D-03 OVMax= 1.50D-02

 Cycle   5  Pass 1  IDiag  1:
 E= -514.848740167964     Delta-E=       -0.001686373843 Rises=F Damp=F
 DIIS: error= 1.22D-03 at cycle   5 NSaved=   5.
 NSaved= 5 IEnMin= 5 EnMin= -514.848740167964     IErMin= 5 ErrMin= 1.22D-03
 ErrMax= 1.22D-03  0.00D+00 EMaxC= 1.00D+00 BMatC= 1.99D-04 BMatP= 2.51D-03
 IDIUse=1 WtCom= 1.00D+00 WtEn= 0.00D+00
 Coeff-Com: -0.707D-02 0.155D-01 0.108D+00 0.247D+00 0.637D+00
 Coeff:     -0.707D-02 0.155D-01 0.108D+00 0.247D+00 0.637D+00
 Gap=     0.256 Goal=   None    Shift=    0.000
 RMSDP=1.12D-04 MaxDP=2.85D-03 DE=-1.69D-03 OVMax= 6.79D-03

 Cycle   6  Pass 1  IDiag  1:
 E= -514.848884473222     Delta-E=       -0.000144305259 Rises=F Damp=F
 DIIS: error= 2.62D-04 at cycle   6 NSaved=   6.
 NSaved= 6 IEnMin= 6 EnMin= -514.848884473222     IErMin= 6 ErrMin= 2.62D-04
 ErrMax= 2.62D-04  0.00D+00 EMaxC= 1.00D+00 BMatC= 2.24D-05 BMatP= 1.99D-04
 IDIUse=1 WtCom= 1.00D+00 WtEn= 0.00D+00
 Coeff-Com: -0.331D-02 0.212D-02 0.275D-01 0.104D+00 0.355D+00 0.515D+00
 Coeff:     -0.331D-02 0.212D-02 0.275D-01 0.104D+00 0.355D+00 0.515D+00
 Gap=     0.255 Goal=   None    Shift=    0.000
 RMSDP=3.55D-05 MaxDP=8.78D-04 DE=-1.44D-04 OVMax= 1.35D-03

 Cycle   7  Pass 1  IDiag  1:
 E= -514.848902329053     Delta-E=       -0.000017855831 Rises=F Damp=F
 DIIS: error= 4.58D-05 at cycle   7 NSaved=   7.
 NSaved= 7 IEnMin= 7 EnMin= -514.848902329053     IErMin= 7 ErrMin= 4.58D-05
 ErrMax= 4.58D-05  0.00D+00 EMaxC= 1.00D+00 BMatC= 5.08D-07 BMatP= 2.24D-05
 IDIUse=1 WtCom= 1.00D+00 WtEn= 0.00D+00
 Coeff-Com: -0.713D-03-0.394D-03 0.224D-02 0.224D-01 0.964D-01 0.193D+00
 Coeff-Com:  0.687D+00
 Coeff:     -0.713D-03-0.394D-03 0.224D-02 0.224D-01 0.964D-01 0.193D+00
 Coeff:      0.687D+00
 Gap=     0.255 Goal=   None    Shift=    0.000
 RMSDP=5.85D-06 MaxDP=1.25D-04 DE=-1.79D-05 OVMax= 1.36D-04

 Cycle   8  Pass 1  IDiag  1:
 E= -514.848902579225     Delta-E=       -0.000000250171 Rises=F Damp=F
 DIIS: error= 2.84D-05 at cycle   8 NSaved=   8.
 NSaved= 8 IEnMin= 8 EnMin= -514.848902579225     IErMin= 8 ErrMin= 2.84D-05
 ErrMax= 2.84D-05  0.00D+00 EMaxC= 1.00D+00 BMatC= 1.43D-07 BMatP= 5.08D-07
 IDIUse=1 WtCom= 1.00D+00 WtEn= 0.00D+00
 Coeff-Com: -0.181D-03-0.407D-03-0.626D-03 0.602D-02 0.342D-01 0.788D-01
 Coeff-Com:  0.413D+00 0.469D+00
 Coeff:     -0.181D-03-0.407D-03-0.626D-03 0.602D-02 0.342D-01 0.788D-01
 Coeff:      0.413D+00 0.469D+00
 Gap=     0.255 Goal=   None    Shift=    0.000
 RMSDP=2.37D-06 MaxDP=5.70D-05 DE=-2.50D-07 OVMax= 6.22D-05

 Cycle   9  Pass 1  IDiag  1:
 E= -514.848902675832     Delta-E=       -0.000000096607 Rises=F Damp=F
 DIIS: error= 2.65D-06 at cycle   9 NSaved=   9.
 NSaved= 9 IEnMin= 9 EnMin= -514.848902675832     IErMin= 9 ErrMin= 2.65D-06
 ErrMax= 2.65D-06  0.00D+00 EMaxC= 1.00D+00 BMatC= 1.75D-09 BMatP= 1.43D-07
 IDIUse=1 WtCom= 1.00D+00 WtEn= 0.00D+00
 Coeff-Com:  0.923D-05-0.567D-04-0.391D-03-0.673D-03 0.281D-03 0.114D-02
 Coeff-Com:  0.368D-01 0.107D+00 0.856D+00
 Coeff:      0.923D-05-0.567D-04-0.391D-03-0.673D-03 0.281D-03 0.114D-02
 Coeff:      0.368D-01 0.107D+00 0.856D+00
 Gap=     0.255 Goal=   None    Shift=    0.000
 RMSDP=4.18D-07 MaxDP=8.87D-06 DE=-9.66D-08 OVMax= 7.58D-06

 Cycle  10  Pass 1  IDiag  1:
 E= -514.848902676971     Delta-E=       -0.000000001139 Rises=F Damp=F
 DIIS: error= 8.74D-07 at cycle  10 NSaved=  10.
 NSaved=10 IEnMin=10 EnMin= -514.848902676971     IErMin=10 ErrMin= 8.74D-07
 ErrMax= 8.74D-07  0.00D+00 EMaxC= 1.00D+00 BMatC= 2.01D-10 BMatP= 1.75D-09
 IDIUse=1 WtCom= 1.00D+00 WtEn= 0.00D+00
 Coeff-Com:  0.857D-05-0.159D-05-0.142D-03-0.522D-03-0.123D-02-0.274D-02
 Coeff-Com: -0.648D-03 0.282D-01 0.366D+00 0.611D+00
 Coeff:      0.857D-05-0.159D-05-0.142D-03-0.522D-03-0.123D-02-0.274D-02
 Coeff:     -0.648D-03 0.282D-01 0.366D+00 0.611D+00
 Gap=     0.255 Goal=   None    Shift=    0.000
 RMSDP=1.63D-07 MaxDP=2.83D-06 DE=-1.14D-09 OVMax= 5.14D-06

 Cycle  11  Pass 1  IDiag  1:
 E= -514.848902677146     Delta-E=       -0.000000000175 Rises=F Damp=F
 DIIS: error= 1.87D-07 at cycle  11 NSaved=  11.
 NSaved=11 IEnMin=11 EnMin= -514.848902677146     IErMin=11 ErrMin= 1.87D-07
 ErrMax= 1.87D-07  0.00D+00 EMaxC= 1.00D+00 BMatC= 1.02D-11 BMatP= 2.01D-10
 IDIUse=1 WtCom= 1.00D+00 WtEn= 0.00D+00
 Coeff-Com:  0.434D-05-0.263D-06-0.501D-04-0.193D-03-0.476D-03-0.110D-02
 Coeff-Com: -0.116D-02 0.883D-02 0.127D+00 0.267D+00 0.600D+00
 Coeff:      0.434D-05-0.263D-06-0.501D-04-0.193D-03-0.476D-03-0.110D-02
 Coeff:     -0.116D-02 0.883D-02 0.127D+00 0.267D+00 0.600D+00
 Gap=     0.255 Goal=   None    Shift=    0.000
 RMSDP=3.01D-08 MaxDP=1.28D-06 DE=-1.75D-10 OVMax= 2.17D-06

 Cycle  12  Pass 1  IDiag  1:
 E= -514.848902677158     Delta-E=       -0.000000000012 Rises=F Damp=F
 DIIS: error= 9.20D-08 at cycle  12 NSaved=  12.
 NSaved=12 IEnMin=12 EnMin= -514.848902677158     IErMin=12 ErrMin= 9.20D-08
 ErrMax= 9.20D-08  0.00D+00 EMaxC= 1.00D+00 BMatC= 2.49D-12 BMatP= 1.02D-11
 IDIUse=1 WtCom= 1.00D+00 WtEn= 0.00D+00
 Coeff-Com:  0.875D-06 0.474D-06-0.907D-05-0.398D-04-0.114D-03-0.278D-03
 Coeff-Com: -0.741D-03 0.670D-03 0.183D-01 0.629D-01 0.352D+00 0.567D+00
 Coeff:      0.875D-06 0.474D-06-0.907D-05-0.398D-04-0.114D-03-0.278D-03
 Coeff:     -0.741D-03 0.670D-03 0.183D-01 0.629D-01 0.352D+00 0.567D+00
 Gap=     0.255 Goal=   None    Shift=    0.000
 RMSDP=1.04D-08 MaxDP=3.77D-07 DE=-1.21D-11 OVMax= 6.59D-07

 Cycle  13  Pass 1  IDiag  1:
 E= -514.848902677153     Delta-E=        0.000000000006 Rises=F Damp=F
 DIIS: error= 9.17D-09 at cycle  13 NSaved=  13.
 NSaved=13 IEnMin=12 EnMin= -514.848902677158     IErMin=13 ErrMin= 9.17D-09
 ErrMax= 9.17D-09  0.00D+00 EMaxC= 1.00D+00 BMatC= 3.41D-14 BMatP= 2.49D-12
 IDIUse=1 WtCom= 1.00D+00 WtEn= 0.00D+00
 Coeff-Com:  0.236D-07 0.128D-06 0.687D-06 0.208D-05 0.283D-05-0.349D-05
 Coeff-Com: -0.106D-03-0.449D-03-0.397D-02-0.202D-02 0.615D-01 0.158D+00
 Coeff-Com:  0.787D+00
 Coeff:      0.236D-07 0.128D-06 0.687D-06 0.208D-05 0.283D-05-0.349D-05
 Coeff:     -0.106D-03-0.449D-03-0.397D-02-0.202D-02 0.615D-01 0.158D+00
 Coeff:      0.787D+00
 Gap=     0.255 Goal=   None    Shift=    0.000
 RMSDP=2.90D-09 MaxDP=8.56D-08 DE= 5.68D-12 OVMax= 7.31D-08

 SCF Done:  E(RB3LYP) =  -514.848902677     A.U. after   13 cycles
            NFock= 13  Conv=0.29D-08     -V/T= 2.0082
 KE= 5.106512000853D+02 PE=-1.867612120493D+03 EE= 5.173532535943D+02
 Leave Link  502 at Thu Apr  2 13:33:30 2026, MaxMem=  2147483648 cpu:              25.5 elap:               3.6
 (Enter /Users/yarger/Applications/g16/l701.exe)
 ... and contract with generalized density number  0.
 Compute integral first derivatives.
 Leave Link  701 at Thu Apr  2 13:33:31 2026, MaxMem=  2147483648 cpu:               0.5 elap:               0.1
 (Enter /Users/yarger/Applications/g16/l702.exe)
 L702 exits ... SP integral derivatives will be done elsewhere.
 Leave Link  702 at Thu Apr  2 13:33:31 2026, MaxMem=  2147483648 cpu:               0.1 elap:               0.0
 (Enter /Users/yarger/Applications/g16/l703.exe)
 Integral derivatives from FoFJK, PRISM(SPDF).
 Compute integral first derivatives, UseDBF=F ICtDFT=           0.
 Calling FoFJK, ICntrl=      2127 FMM=F ISym2X=0 I1Cent= 0 IOpClX= 0 NMat=1 NMatS=1 NMatT=0.
 FoFJK:  IHMeth= 1 ICntrl=    2127 DoSepK=F KAlg= 0 I1Cent=           0 FoldK=F
 IRaf=         0 NMat=       1 IRICut=       1 DoRegI=T DoRafI=F ISym2E= 0 IDoP0=0 IntGTp=1.
 FoFCou: FMM=F IPFlag=           0 FMFlag=      100000 FMFlg1=         800
         NFxFlg=           0 DoJE=F BraDBF=F KetDBF=F FulRan=T
         wScrn=  0.000000 ICntrl=      2127 IOpCl=  0 I1Cent=           0 NGrid=           0
         NMat0=    1 NMatS0=      1 NMatT0=    0 NMatD0=    1 NMtDS0=    0 NMtDT0=    0
 Symmetry not used in FoFCou.
 Leave Link  703 at Thu Apr  2 13:33:32 2026, MaxMem=  2147483648 cpu:               6.2 elap:               0.9
 (Enter /Users/yarger/Applications/g16/l716.exe)
 Dipole        = 1.05972851D+00-9.60347629D-01-9.13613270D-03
 ***** Axes restored to original set *****
 -------------------------------------------------------------------
 Center     Atomic                   Forces (Hartrees/Bohr)
 Number     Number              X              Y              Z
 -------------------------------------------------------------------
      1        6           0.006757670    0.000590799    0.001098052
      2        1          -0.016374350   -0.000281629    0.001527571
      3        1          -0.009614240   -0.012959208   -0.003204656
      4        6           0.023249243   -0.043758521   -0.006082730
      5        6          -0.075444658   -0.005824466    0.000038464
      6        9           0.039059332   -0.052536901    0.014081105
      7        9           0.036066319    0.042946019    0.017791090
      8        9           0.025001266    0.019215449   -0.039847938
      9        9          -0.028700583    0.052608459    0.014599042
 -------------------------------------------------------------------
 Cartesian Forces:  Max     0.075444658 RMS     0.029274507
 Leave Link  716 at Thu Apr  2 13:33:32 2026, MaxMem=  2147483648 cpu:               0.1 elap:               0.0
 (Enter /Users/yarger/Applications/g16/l103.exe)

 GradGradGradGradGradGradGradGradGradGradGradGradGradGradGradGradGradGrad
 Berny optimization.
 Using GEDIIS/GDIIS optimizer.
 FormGI is forming the generalized inverse of G from B-inverse, IUseBI=4.
 Internal  Forces:  Max     0.081062157 RMS     0.031019835
 Search for a local minimum.
 Step number  16 out of a maximum of   40
 All quantities printed in internal units (Hartrees-Bohrs-Radians)
 RMS Force = .31020D-01 SwitMx=.10000D-02 MixMth= 1
 Mixed Optimization -- RFO/linear search
 Update second derivatives using D2CorX and points   14   16   15
 ITU=  0  1  0  1  0  0  0  0  0  0  0  1  1  1  1  0
 Use linear search instead of GDIIS.
     Eigenvalues ---    0.00006   0.01626   0.03045   0.03072   0.08070
     Eigenvalues ---    0.09744   0.11551   0.14318   0.20586   0.24703
     Eigenvalues ---    0.25372   0.27851   0.31714   0.34828   0.35451
     Eigenvalues ---    0.35816   0.43840   0.44366   0.56421   0.60565
     Eigenvalues ---    0.78144
 RFO step:  Lambda=-2.11912769D-03 EMin= 5.58928660D-05
 Quartic linear search produced a step of -0.89759.
 Iteration  1 RMS(Cart)=  0.18788027 RMS(Int)=  0.07995894
 Iteration  2 RMS(Cart)=  0.10201306 RMS(Int)=  0.00454328
 Iteration  3 RMS(Cart)=  0.00499877 RMS(Int)=  0.00056246
 Iteration  4 RMS(Cart)=  0.00001185 RMS(Int)=  0.00056241
 Iteration  5 RMS(Cart)=  0.00000001 RMS(Int)=  0.00056241
 ITry= 1 IFail=0 DXMaxC= 5.42D-01 DCOld= 1.00D+10 DXMaxT= 1.29D+00 DXLimC= 3.00D+00 Rises=F
 Variable       Old X    -DE/DX   Delta X   Delta X   Delta X     New X
                                 (Linear)    (Quad)   (Total)
    R1        2.04355   0.00377   0.00334  -0.00150   0.00183   2.04538
    R2        2.07657  -0.00827  -0.02741   0.00164  -0.02577   2.05080
    R3        2.51707  -0.02196  -0.01113   0.00060  -0.01053   2.50654
    R4        2.88085  -0.02505  -0.01028  -0.00262  -0.01290   2.86795
    R5        2.77958  -0.06141  -0.22173  -0.00011  -0.22184   2.55774
    R6        2.54828   0.02725  -0.00617   0.01454   0.00837   2.55665
    R7        2.56218   0.01950  -0.00402  -0.00275  -0.00677   2.55541
    R8        2.54499   0.02648   0.01986   0.00296   0.02281   2.56781
    A1        1.89286   0.02074   0.20240  -0.00561   0.19676   2.08962
    A2        2.21827  -0.01198  -0.13801   0.02295  -0.11509   2.10318
    A3        2.17203  -0.00876  -0.06445  -0.01741  -0.08188   2.09014
    A4        2.29144  -0.00821  -0.10421   0.01154  -0.09293   2.19851
    A5        2.05317   0.01217   0.08632  -0.00281   0.08322   2.13638
    A6        1.93768  -0.00397   0.01715  -0.00982   0.00711   1.94479
    A7        2.14025  -0.06384  -0.19359  -0.00072  -0.19317   1.94708
    A8        2.09197  -0.05347  -0.15371  -0.00227  -0.15469   1.93729
    A9        2.00646  -0.03332  -0.06184   0.00243  -0.05897   1.94749
   A10        1.67330   0.08106   0.21388   0.00890   0.22463   1.89793
   A11        1.70160   0.06530   0.17177  -0.00525   0.16680   1.86840
   A12        1.77325   0.04653   0.09179  -0.00353   0.08882   1.86207
    D1        0.04667   0.00047   0.02660   0.04036   0.06732   0.11399
    D2        3.13807   0.00017   0.01061   0.00967   0.01991  -3.12520
    D3       -3.10428   0.00075   0.02202   0.03053   0.05291  -3.05137
    D4       -0.01288   0.00045   0.00603  -0.00016   0.00550  -0.00737
    D5       -2.63481   0.00235  -0.01920   0.36803   0.34972  -2.28510
    D6       -0.53156   0.00606  -0.01251   0.37888   0.36614  -0.16542
    D7        1.58960  -0.00593  -0.05475   0.37401   0.31943   1.90903
    D8        0.55441   0.00226  -0.00679   0.39704   0.39058   0.94499
    D9        2.65766   0.00597  -0.00011   0.40789   0.40701   3.06467
   D10       -1.50436  -0.00601  -0.04234   0.40302   0.36029  -1.14407
         Item               Value     Threshold  Converged?
 Maximum Force            0.081062     0.000015     NO 
 RMS     Force            0.031020     0.000010     NO 
 Maximum Displacement     0.541777     0.000060     NO 
 RMS     Displacement     0.263703     0.000040     NO 
 Predicted change in Energy=-1.678844D-03
 GradGradGradGradGradGradGradGradGradGradGradGradGradGradGradGradGradGrad

 Leave Link  103 at Thu Apr  2 13:33:32 2026, MaxMem=  2147483648 cpu:               0.1 elap:               0.0
 (Enter /Users/yarger/Applications/g16/l202.exe)
                          Input orientation:                          
 ---------------------------------------------------------------------
 Center     Atomic      Atomic             Coordinates (Angstroms)
 Number     Number       Type             X           Y           Z
 ---------------------------------------------------------------------
      1          6           0        1.744072    1.047405    0.196978
      2          1           0        1.346238    1.949065    0.644482
      3          1           0        2.811513    0.959105    0.022310
      4          6           0        0.940395    0.039273   -0.114671
      5          6           0       -0.575105    0.049944   -0.034552
      6          9           0       -1.046165   -1.037972    0.617325
      7          9           0       -1.019199    1.160571    0.596245
      8          9           0       -1.140969    0.050229   -1.269948
      9          9           0        1.398739   -1.112454   -0.658172
 ---------------------------------------------------------------------
                    Distance matrix (angstroms):
                    1          2          3          4          5
     1  C    0.000000
     2  H    1.082369   0.000000
     3  H    1.085235   1.874607   0.000000
     4  C    1.326406   2.094833   2.089483   0.000000
     5  C    2.535176   2.785553   3.506992   1.517654   0.000000
     6  F    3.508691   3.827104   4.384523   2.375435   1.352923
     7  F    2.794260   2.493861   3.878704   2.367006   1.352263
     8  F    3.386694   3.668354   4.256536   2.380517   1.358825
     9  F    2.348517   3.327547   2.598142   1.353496   2.374054
                    6          7          8          9
     6  F    0.000000
     7  F    2.198809   0.000000
     8  F    2.180588   2.174940   0.000000
     9  F    2.758622   3.547764   2.859409   0.000000
 Stoichiometry    C3H2F4
 Framework group  C1[X(C3H2F4)]
 Deg. of freedom    21
 Full point group                 C1      NOp   1
 RotChk:  IX=3 Diff= 1.61D-01
 Largest Abelian subgroup         C1      NOp   1
 Largest concise Abelian subgroup C1      NOp   1
                         Standard orientation:                         
 ---------------------------------------------------------------------
 Center     Atomic      Atomic             Coordinates (Angstroms)
 Number     Number       Type             X           Y           Z
 ---------------------------------------------------------------------
      1          6           0        1.718870   -1.090988   -0.007294
      2          1           0        1.299225   -2.087138   -0.063026
      3          1           0        2.794856   -0.962919    0.052599
      4          6           0        0.929802   -0.025279   -0.038741
      5          6           0       -0.587532   -0.038552   -0.010559
      6          9           0       -1.109722    0.739766   -0.986233
      7          9           0       -1.063909   -1.295747   -0.155961
      8          9           0       -1.069601    0.427129    1.171454
      9          9           0        1.414241    1.237626    0.009628
 ---------------------------------------------------------------------
 Rotational constants (GHZ):           3.6462648           2.4100250           1.9571749
 Leave Link  202 at Thu Apr  2 13:33:32 2026, MaxMem=  2147483648 cpu:               0.0 elap:               0.0
 (Enter /Users/yarger/Applications/g16/l301.exe)
 Standard basis: 6-31+G(d) (6D, 7F)
 Ernie: Thresh=  0.10000D-02 Tol=  0.10000D-05 Strict=F.
 There are   137 symmetry adapted cartesian basis functions of A   symmetry.
 There are   137 symmetry adapted basis functions of A   symmetry.
   137 basis functions,   232 primitive gaussians,   137 cartesian basis functions
    28 alpha electrons       28 beta electrons
       nuclear repulsion energy       329.7830158923 Hartrees.
 IExCor=  402 DFT=T Ex+Corr=B3LYP ExCW=0 ScaHFX=  0.200000
 ScaDFX=  0.800000  0.720000  1.000000  0.810000 ScalE2=  1.000000  1.000000
 IRadAn=      5 IRanWt=     -1 IRanGd=            0 ICorTp=0 IEmpDi=  4
 NAtoms=    9 NActive=    9 NUniq=    9 SFac= 1.00D+00 NAtFMM=   60 NAOKFM=F Big=F
 Integral buffers will be    131072 words long.
 Raffenetti 2 integral format.
 Two-electron integral symmetry is turned on.
 Leave Link  301 at Thu Apr  2 13:33:32 2026, MaxMem=  2147483648 cpu:               0.1 elap:               0.0
 (Enter /Users/yarger/Applications/g16/l302.exe)
 NPDir=0 NMtPBC=     1 NCelOv=     1 NCel=       1 NClECP=     1 NCelD=      1
         NCelK=      1 NCelE2=     1 NClLst=     1 CellRange=     0.0.
 One-electron integrals computed using PRISM.
 One-electron integral symmetry used in STVInt
 NBasis=   137 RedAO= T EigKep=  7.14D-05  NBF=   137
 NBsUse=   137 1.00D-06 EigRej= -1.00D+00 NBFU=   137
 Precomputing XC quadrature grid using
 IXCGrd= 4 IRadAn=           5 IRanWt=          -1 IRanGd=           0 AccXCQ= 0.00D+00.
 Generated NRdTot=       0 NPtTot=           0 NUsed=           0 NTot=          32
 NSgBfM=   137   137   137   137   137 MxSgAt=     9 MxSgA2=     9.
 Leave Link  302 at Thu Apr  2 13:33:32 2026, MaxMem=  2147483648 cpu:               0.9 elap:               0.1
 (Enter /Users/yarger/Applications/g16/l303.exe)
 DipDrv:  MaxL=1.
 Leave Link  303 at Thu Apr  2 13:33:32 2026, MaxMem=  2147483648 cpu:               0.1 elap:               0.0
 (Enter /Users/yarger/Applications/g16/l401.exe)
 Lowest energy guess from the checkpoint file:  "2223Tetrafluoropropene_Opt_Freq_DFT_B3LYP_631pd_Gaussian16.chk"
 B after Tr=    -0.000000   -0.000000    0.000000
         Rot=    0.992795    0.119523   -0.002837   -0.008030 Ang=  13.76 deg.
 Guess basis will be translated and rotated to current coordinates.
 B after Tr=     0.000000   -0.000000    0.000000
         Rot=    0.995726    0.091305    0.013084   -0.004596 Ang=  10.60 deg.
 Guess basis will be translated and rotated to current coordinates.
 CkInt1:  FT= 1.02D-01
 Max alpha theta=  5.406 degrees.
 JPrj=2 DoOrth=T DoCkMO=T.
 Leave Link  401 at Thu Apr  2 13:33:32 2026, MaxMem=  2147483648 cpu:               0.5 elap:               0.1
 (Enter /Users/yarger/Applications/g16/l502.exe)
 Keep R1 ints in memory in canonical form, NReq=52385408.
 FoFCou: FMM=F IPFlag=           0 FMFlag=           0 FMFlg1=           0
         NFxFlg=           0 DoJE=F BraDBF=F KetDBF=F FulRan=T
         wScrn=  0.000000 ICntrl=       600 IOpCl=  0 I1Cent=           0 NGrid=           0
         NMat0=    1 NMatS0=   9453 NMatT0=    0 NMatD0=    1 NMtDS0=    0 NMtDT0=    0
 Symmetry not used in FoFCou.
 Two-electron integral symmetry not used.
 Closed shell SCF:
 Using DIIS extrapolation, IDIIS=  1040.
 NGot=  2147483648 LenX=  2102759234 LenY=  2102740024
 Requested convergence on RMS density matrix=1.00D-08 within 128 cycles.
 Requested convergence on MAX density matrix=1.00D-06.
 Requested convergence on             energy=1.00D-06.
 No special actions if energy rises.

 Cycle   1  Pass 1  IDiag  1:
 E= -514.815310570291    
 DIIS: error= 1.21D-02 at cycle   1 NSaved=   1.
 NSaved= 1 IEnMin= 1 EnMin= -514.815310570291     IErMin= 1 ErrMin= 1.21D-02
 ErrMax= 1.21D-02  0.00D+00 EMaxC= 1.00D-01 BMatC= 3.87D-02 BMatP= 3.87D-02
 IDIUse=3 WtCom= 8.79D-01 WtEn= 1.21D-01
 Coeff-Com:  0.100D+01
 Coeff-En:   0.100D+01
 Coeff:      0.100D+01
 Gap=    23.911 Goal=   None    Shift=    0.000
 GapD=   23.911 DampG=2.000 DampE=0.500 DampFc=1.0000 IDamp=-1.
 RMSDP=2.75D-03 MaxDP=5.39D-02              OVMax= 9.30D-02

 Cycle   2  Pass 1  IDiag  1:
 E= -514.888898096855     Delta-E=       -0.073587526564 Rises=F Damp=F
 DIIS: error= 1.71D-03 at cycle   2 NSaved=   2.
 NSaved= 2 IEnMin= 2 EnMin= -514.888898096855     IErMin= 2 ErrMin= 1.71D-03
 ErrMax= 1.71D-03  0.00D+00 EMaxC= 1.00D-01 BMatC= 1.23D-03 BMatP= 3.87D-02
 IDIUse=3 WtCom= 9.83D-01 WtEn= 1.71D-02
 Coeff-Com: -0.328D-01 0.103D+01
 Coeff-En:   0.000D+00 0.100D+01
 Coeff:     -0.322D-01 0.103D+01
 Gap=     0.264 Goal=   None    Shift=    0.000
 RMSDP=7.01D-04 MaxDP=1.78D-02 DE=-7.36D-02 OVMax= 1.51D-02

 Cycle   3  Pass 1  IDiag  1:
 E= -514.888934572257     Delta-E=       -0.000036475402 Rises=F Damp=F
 DIIS: error= 2.70D-03 at cycle   3 NSaved=   3.
 NSaved= 3 IEnMin= 3 EnMin= -514.888934572257     IErMin= 2 ErrMin= 1.71D-03
 ErrMax= 2.70D-03  0.00D+00 EMaxC= 1.00D-01 BMatC= 2.18D-03 BMatP= 1.23D-03
 IDIUse=3 WtCom= 1.61D-01 WtEn= 8.39D-01
 Coeff-Com: -0.487D-01 0.618D+00 0.430D+00
 Coeff-En:   0.000D+00 0.491D+00 0.509D+00
 Coeff:     -0.785D-02 0.512D+00 0.496D+00
 Gap=     0.262 Goal=   None    Shift=    0.000
 RMSDP=3.16D-04 MaxDP=8.66D-03 DE=-3.65D-05 OVMax= 8.86D-03

 Cycle   4  Pass 1  IDiag  1:
 E= -514.890200173327     Delta-E=       -0.001265601070 Rises=F Damp=F
 DIIS: error= 9.22D-04 at cycle   4 NSaved=   4.
 NSaved= 4 IEnMin= 4 EnMin= -514.890200173327     IErMin= 4 ErrMin= 9.22D-04
 ErrMax= 9.22D-04  0.00D+00 EMaxC= 1.00D-01 BMatC= 2.45D-04 BMatP= 1.23D-03
 IDIUse=3 WtCom= 9.91D-01 WtEn= 9.22D-03
 Coeff-Com: -0.120D-01 0.108D+00 0.275D+00 0.628D+00
 Coeff-En:   0.000D+00 0.000D+00 0.926D-01 0.907D+00
 Coeff:     -0.119D-01 0.107D+00 0.274D+00 0.631D+00
 Gap=     0.262 Goal=   None    Shift=    0.000
 RMSDP=8.55D-05 MaxDP=2.27D-03 DE=-1.27D-03 OVMax= 2.92D-03

 Cycle   5  Pass 1  IDiag  1:
 E= -514.890362967408     Delta-E=       -0.000162794080 Rises=F Damp=F
 DIIS: error= 8.01D-05 at cycle   5 NSaved=   5.
 NSaved= 5 IEnMin= 5 EnMin= -514.890362967408     IErMin= 5 ErrMin= 8.01D-05
 ErrMax= 8.01D-05  0.00D+00 EMaxC= 1.00D-01 BMatC= 2.37D-06 BMatP= 2.45D-04
 IDIUse=1 WtCom= 1.00D+00 WtEn= 0.00D+00
 Coeff-Com: -0.193D-02 0.595D-02 0.802D-01 0.242D+00 0.674D+00
 Coeff:     -0.193D-02 0.595D-02 0.802D-01 0.242D+00 0.674D+00
 Gap=     0.262 Goal=   None    Shift=    0.000
 RMSDP=2.00D-05 MaxDP=6.76D-04 DE=-1.63D-04 OVMax= 1.22D-03

 Cycle   6  Pass 1  IDiag  1:
 E= -514.890364390116     Delta-E=       -0.000001422709 Rises=F Damp=F
 DIIS: error= 7.09D-05 at cycle   6 NSaved=   6.
 NSaved= 6 IEnMin= 6 EnMin= -514.890364390116     IErMin= 6 ErrMin= 7.09D-05
 ErrMax= 7.09D-05  0.00D+00 EMaxC= 1.00D-01 BMatC= 9.54D-07 BMatP= 2.37D-06
 IDIUse=1 WtCom= 1.00D+00 WtEn= 0.00D+00
 Coeff-Com:  0.268D-03-0.101D-01 0.172D-01 0.776D-01 0.425D+00 0.490D+00
 Coeff:      0.268D-03-0.101D-01 0.172D-01 0.776D-01 0.425D+00 0.490D+00
 Gap=     0.262 Goal=   None    Shift=    0.000
 RMSDP=8.73D-06 MaxDP=3.08D-04 DE=-1.42D-06 OVMax= 6.38D-04

 Cycle   7  Pass 1  IDiag  1:
 E= -514.890365313740     Delta-E=       -0.000000923623 Rises=F Damp=F
 DIIS: error= 1.18D-05 at cycle   7 NSaved=   7.
 NSaved= 7 IEnMin= 7 EnMin= -514.890365313740     IErMin= 7 ErrMin= 1.18D-05
 ErrMax= 1.18D-05  0.00D+00 EMaxC= 1.00D-01 BMatC= 3.85D-08 BMatP= 9.54D-07
 IDIUse=1 WtCom= 1.00D+00 WtEn= 0.00D+00
 Coeff-Com:  0.263D-03-0.520D-02 0.800D-03 0.141D-01 0.130D+00 0.227D+00
 Coeff-Com:  0.634D+00
 Coeff:      0.263D-03-0.520D-02 0.800D-03 0.141D-01 0.130D+00 0.227D+00
 Coeff:      0.634D+00
 Gap=     0.262 Goal=   None    Shift=    0.000
 RMSDP=1.93D-06 MaxDP=5.45D-05 DE=-9.24D-07 OVMax= 1.09D-04

 Cycle   8  Pass 1  IDiag  1:
 E= -514.890365345913     Delta-E=       -0.000000032173 Rises=F Damp=F
 DIIS: error= 5.28D-06 at cycle   8 NSaved=   8.
 NSaved= 8 IEnMin= 8 EnMin= -514.890365345913     IErMin= 8 ErrMin= 5.28D-06
 ErrMax= 5.28D-06  0.00D+00 EMaxC= 1.00D-01 BMatC= 7.56D-09 BMatP= 3.85D-08
 IDIUse=1 WtCom= 1.00D+00 WtEn= 0.00D+00
 Coeff-Com:  0.120D-03-0.193D-02-0.130D-02 0.169D-03 0.283D-01 0.793D-01
 Coeff-Com:  0.366D+00 0.530D+00
 Coeff:      0.120D-03-0.193D-02-0.130D-02 0.169D-03 0.283D-01 0.793D-01
 Coeff:      0.366D+00 0.530D+00
 Gap=     0.262 Goal=   None    Shift=    0.000
 RMSDP=5.48D-07 MaxDP=1.38D-05 DE=-3.22D-08 OVMax= 1.70D-05

 Cycle   9  Pass 1  IDiag  1:
 E= -514.890365351254     Delta-E=       -0.000000005341 Rises=F Damp=F
 DIIS: error= 8.65D-07 at cycle   9 NSaved=   9.
 NSaved= 9 IEnMin= 9 EnMin= -514.890365351254     IErMin= 9 ErrMin= 8.65D-07
 ErrMax= 8.65D-07  0.00D+00 EMaxC= 1.00D-01 BMatC= 2.88D-10 BMatP= 7.56D-09
 IDIUse=1 WtCom= 1.00D+00 WtEn= 0.00D+00
 Coeff-Com:  0.288D-04-0.363D-03-0.627D-03-0.116D-02 0.691D-03 0.146D-01
 Coeff-Com:  0.105D+00 0.225D+00 0.657D+00
 Coeff:      0.288D-04-0.363D-03-0.627D-03-0.116D-02 0.691D-03 0.146D-01
 Coeff:      0.105D+00 0.225D+00 0.657D+00
 Gap=     0.262 Goal=   None    Shift=    0.000
 RMSDP=1.46D-07 MaxDP=3.21D-06 DE=-5.34D-09 OVMax= 3.93D-06

 Cycle  10  Pass 1  IDiag  1:
 E= -514.890365351423     Delta-E=       -0.000000000168 Rises=F Damp=F
 DIIS: error= 2.96D-07 at cycle  10 NSaved=  10.
 NSaved=10 IEnMin=10 EnMin= -514.890365351423     IErMin=10 ErrMin= 2.96D-07
 ErrMax= 2.96D-07  0.00D+00 EMaxC= 1.00D-01 BMatC= 4.21D-11 BMatP= 2.88D-10
 IDIUse=1 WtCom= 1.00D+00 WtEn= 0.00D+00
 Coeff-Com: -0.299D-05 0.110D-03-0.127D-03-0.634D-03-0.403D-02-0.420D-02
 Coeff-Com:  0.199D-03 0.383D-01 0.321D+00 0.650D+00
 Coeff:     -0.299D-05 0.110D-03-0.127D-03-0.634D-03-0.403D-02-0.420D-02
 Coeff:      0.199D-03 0.383D-01 0.321D+00 0.650D+00
 Gap=     0.262 Goal=   None    Shift=    0.000
 RMSDP=5.20D-08 MaxDP=1.11D-06 DE=-1.68D-10 OVMax= 1.37D-06

 Cycle  11  Pass 1  IDiag  1:
 E= -514.890365351463     Delta-E=       -0.000000000040 Rises=F Damp=F
 DIIS: error= 7.62D-08 at cycle  11 NSaved=  11.
 NSaved=11 IEnMin=11 EnMin= -514.890365351463     IErMin=11 ErrMin= 7.62D-08
 ErrMax= 7.62D-08  0.00D+00 EMaxC= 1.00D-01 BMatC= 1.76D-12 BMatP= 4.21D-11
 IDIUse=1 WtCom= 1.00D+00 WtEn= 0.00D+00
 Coeff-Com: -0.211D-05 0.636D-04-0.476D-04-0.286D-03-0.202D-02-0.244D-02
 Coeff-Com: -0.254D-02 0.136D-01 0.143D+00 0.325D+00 0.526D+00
 Coeff:     -0.211D-05 0.636D-04-0.476D-04-0.286D-03-0.202D-02-0.244D-02
 Coeff:     -0.254D-02 0.136D-01 0.143D+00 0.325D+00 0.526D+00
 Gap=     0.262 Goal=   None    Shift=    0.000
 RMSDP=9.85D-09 MaxDP=1.90D-07 DE=-4.04D-11 OVMax= 2.11D-07

 SCF Done:  E(RB3LYP) =  -514.890365351     A.U. after   11 cycles
            NFock= 11  Conv=0.99D-08     -V/T= 2.0081
 KE= 5.107512302783D+02 PE=-1.877505121622D+03 EE= 5.220805100995D+02
 Leave Link  502 at Thu Apr  2 13:33:35 2026, MaxMem=  2147483648 cpu:              22.1 elap:               3.1
 (Enter /Users/yarger/Applications/g16/l701.exe)
 ... and contract with generalized density number  0.
 Compute integral first derivatives.
 Leave Link  701 at Thu Apr  2 13:33:35 2026, MaxMem=  2147483648 cpu:               0.5 elap:               0.1
 (Enter /Users/yarger/Applications/g16/l702.exe)
 L702 exits ... SP integral derivatives will be done elsewhere.
 Leave Link  702 at Thu Apr  2 13:33:35 2026, MaxMem=  2147483648 cpu:               0.1 elap:               0.0
 (Enter /Users/yarger/Applications/g16/l703.exe)
 Integral derivatives from FoFJK, PRISM(SPDF).
 Compute integral first derivatives, UseDBF=F ICtDFT=           0.
 Calling FoFJK, ICntrl=      2127 FMM=F ISym2X=0 I1Cent= 0 IOpClX= 0 NMat=1 NMatS=1 NMatT=0.
 FoFJK:  IHMeth= 1 ICntrl=    2127 DoSepK=F KAlg= 0 I1Cent=           0 FoldK=F
 IRaf=         0 NMat=       1 IRICut=       1 DoRegI=T DoRafI=F ISym2E= 0 IDoP0=0 IntGTp=1.
 FoFCou: FMM=F IPFlag=           0 FMFlag=      100000 FMFlg1=         800
         NFxFlg=           0 DoJE=F BraDBF=F KetDBF=F FulRan=T
         wScrn=  0.000000 ICntrl=      2127 IOpCl=  0 I1Cent=           0 NGrid=           0
         NMat0=    1 NMatS0=      1 NMatT0=    0 NMatD0=    1 NMtDS0=    0 NMtDT0=    0
 Symmetry not used in FoFCou.
 Leave Link  703 at Thu Apr  2 13:33:37 2026, MaxMem=  2147483648 cpu:               6.6 elap:               1.5
 (Enter /Users/yarger/Applications/g16/l716.exe)
 Dipole        = 6.97536548D-01-6.66841025D-01-3.23613944D-02
 ***** Axes restored to original set *****
 -------------------------------------------------------------------
 Center     Atomic                   Forces (Hartrees/Bohr)
 Number     Number              X              Y              Z
 -------------------------------------------------------------------
      1        6           0.000373429   -0.003917177    0.001059233
      2        1           0.000176024    0.000674805   -0.001269553
      3        1          -0.000107628    0.000680056    0.001530319
      4        6          -0.004189154    0.002086596   -0.004788603
      5        6          -0.000168260   -0.000218960   -0.001942210
      6        9           0.000920213    0.003624417   -0.000388486
      7        9           0.001237614   -0.003236709    0.001720191
      8        9           0.003595814   -0.002029359    0.002676054
      9        9          -0.001838052    0.002336330    0.001403056
 -------------------------------------------------------------------
 Cartesian Forces:  Max     0.004788603 RMS     0.002230411
 Leave Link  716 at Thu Apr  2 13:33:37 2026, MaxMem=  2147483648 cpu:               0.2 elap:               0.1
 (Enter /Users/yarger/Applications/g16/l103.exe)

 GradGradGradGradGradGradGradGradGradGradGradGradGradGradGradGradGradGrad
 Berny optimization.
 Using GEDIIS/GDIIS optimizer.
 FormGI is forming the generalized inverse of G from B-inverse, IUseBI=4.
 Internal  Forces:  Max     0.005481425 RMS     0.002102083
 Search for a local minimum.
 Step number  17 out of a maximum of   40
 All quantities printed in internal units (Hartrees-Bohrs-Radians)
 RMS Force = .21021D-02 SwitMx=.10000D-02 MixMth= 1
 Mixed Optimization -- RFO/linear search
 Update second derivatives using D2CorX and points   15   17
 DE= -1.86D-03 DEPred=-1.68D-03 R= 1.11D+00
 TightC=F SS=  1.41D+00  RLast= 9.62D-01 DXNew= 2.1758D+00 2.8861D+00
 Trust test= 1.11D+00 RLast= 9.62D-01 DXMaxT set to 2.18D+00
 ITU=  1  0  1  0  1  0  0  0  0  0  0  0  1  1  1  1  0
 Use linear search instead of GDIIS.
     Eigenvalues ---    0.00039   0.01460   0.02800   0.03047   0.06683
     Eigenvalues ---    0.10762   0.11492   0.14499   0.16731   0.24349
     Eigenvalues ---    0.25275   0.27834   0.29479   0.33921   0.35291
     Eigenvalues ---    0.35476   0.43422   0.46429   0.56577   0.61194
     Eigenvalues ---    0.76426
 RFO step:  Lambda=-7.81261080D-04 EMin= 3.90623661D-04
 Quartic linear search produced a step of  0.01713.
 Iteration  1 RMS(Cart)=  0.04388645 RMS(Int)=  0.00154323
 Iteration  2 RMS(Cart)=  0.00150672 RMS(Int)=  0.00038991
 Iteration  3 RMS(Cart)=  0.00000210 RMS(Int)=  0.00038991
 Iteration  4 RMS(Cart)=  0.00000000 RMS(Int)=  0.00038991
 ITry= 1 IFail=0 DXMaxC= 9.86D-02 DCOld= 1.00D+10 DXMaxT= 2.18D+00 DXLimC= 3.00D+00 Rises=F
 Variable       Old X    -DE/DX   Delta X   Delta X   Delta X     New X
                                 (Linear)    (Quad)   (Total)
    R1        2.04538  -0.00003  -0.00003   0.00049   0.00045   2.04584
    R2        2.05080  -0.00041   0.00008   0.00225   0.00233   2.05313
    R3        2.50654  -0.00137   0.00003  -0.00285  -0.00282   2.50372
    R4        2.86795  -0.00548  -0.00002  -0.01368  -0.01371   2.85424
    R5        2.55774  -0.00317   0.00043   0.00767   0.00810   2.56584
    R6        2.55665  -0.00342   0.00026   0.00292   0.00318   2.55984
    R7        2.55541  -0.00226  -0.00004  -0.00353  -0.00357   2.55183
    R8        2.56781  -0.00393   0.00001  -0.00899  -0.00898   2.55883
    A1        2.08962  -0.00106  -0.00049  -0.04466  -0.04517   2.04444
    A2        2.10318  -0.00027   0.00066   0.03609   0.03674   2.13992
    A3        2.09014   0.00133  -0.00017   0.00880   0.00861   2.09875
    A4        2.19851   0.00211   0.00040   0.02173   0.02095   2.21946
    A5        2.13638   0.00001  -0.00022  -0.01271  -0.01412   2.12227
    A6        1.94479  -0.00201  -0.00021  -0.00194  -0.00333   1.94146
    A7        1.94708   0.00043   0.00039   0.02017   0.02052   1.96760
    A8        1.93729  -0.00002   0.00028   0.01396   0.01420   1.95148
    A9        1.94749  -0.00309   0.00017  -0.00396  -0.00381   1.94369
   A10        1.89793  -0.00190  -0.00023  -0.02781  -0.02810   1.86983
   A11        1.86840   0.00096  -0.00042  -0.00975  -0.01017   1.85824
   A12        1.86207   0.00379  -0.00023   0.00523   0.00496   1.86703
    D1        0.11399  -0.00193   0.00065  -0.09871  -0.09785   0.01614
    D2       -3.12520  -0.00055   0.00014  -0.00023  -0.00030  -3.12550
    D3       -3.05137  -0.00169   0.00049  -0.08816  -0.08746  -3.13883
    D4       -0.00737  -0.00031  -0.00002   0.01032   0.01008   0.00271
    D5       -2.28510   0.00134   0.00636   0.00321   0.00970  -2.27539
    D6       -0.16542  -0.00081   0.00651  -0.00865  -0.00197  -0.16738
    D7        1.90903   0.00193   0.00652   0.00460   0.01129   1.92032
    D8        0.94499   0.00002   0.00682  -0.08538  -0.07874   0.86625
    D9        3.06467  -0.00213   0.00698  -0.09724  -0.09041   2.97426
   D10       -1.14407   0.00061   0.00698  -0.08400  -0.07716  -1.22122
         Item               Value     Threshold  Converged?
 Maximum Force            0.005481     0.000015     NO 
 RMS     Force            0.002102     0.000010     NO 
 Maximum Displacement     0.098605     0.000060     NO 
 RMS     Displacement     0.043767     0.000040     NO 
 Predicted change in Energy=-4.096049D-04
 Lowest energy point so far.  Saving SCF results.
 GradGradGradGradGradGradGradGradGradGradGradGradGradGradGradGradGradGrad

 Leave Link  103 at Thu Apr  2 13:33:37 2026, MaxMem=  2147483648 cpu:               0.1 elap:               0.0
 (Enter /Users/yarger/Applications/g16/l202.exe)
                          Input orientation:                          
 ---------------------------------------------------------------------
 Center     Atomic      Atomic             Coordinates (Angstroms)
 Number     Number       Type             X           Y           Z
 ---------------------------------------------------------------------
      1          6           0        1.745548    1.051681    0.186978
      2          1           0        1.389672    1.990354    0.592302
      3          1           0        2.819322    0.940013    0.064686
      4          6           0        0.929861    0.060126   -0.139936
      5          6           0       -0.577047    0.046966   -0.038143
      6          9           0       -1.049674   -1.055837    0.590672
      7          9           0       -1.043792    1.119971    0.635885
      8          9           0       -1.154397    0.067645   -1.262789
      9          9           0        1.400027   -1.115753   -0.629658
 ---------------------------------------------------------------------
                    Distance matrix (angstroms):
                    1          2          3          4          5
     1  C    0.000000
     2  H    1.082610   0.000000
     3  H    1.086469   1.850809   0.000000
     4  C    1.324914   2.115036   2.094309   0.000000
     5  C    2.540586   2.835877   3.513321   1.510400   0.000000
     6  F    3.523899   3.902524   4.385112   2.386990   1.354607
     7  F    2.826057   2.584804   3.909259   2.370755   1.350373
     8  F    3.388190   3.689236   4.279446   2.367486   1.354075
     9  F    2.341804   3.337843   2.592814   1.357783   2.368676
                    6          7          8          9
     6  F    0.000000
     7  F    2.176286   0.000000
     8  F    2.169907   2.173612   0.000000
     9  F    2.737486   3.545746   2.885545   0.000000
 Stoichiometry    C3H2F4
 Framework group  C1[X(C3H2F4)]
 Deg. of freedom    21
 Full point group                 C1      NOp   1
 RotChk:  IX=3 Diff= 1.86D-02
 Largest Abelian subgroup         C1      NOp   1
 Largest concise Abelian subgroup C1      NOp   1
                         Standard orientation:                         
 ---------------------------------------------------------------------
 Center     Atomic      Atomic             Coordinates (Angstroms)
 Number     Number       Type             X           Y           Z
 ---------------------------------------------------------------------
      1          6           0        1.738747   -1.077078   -0.003761
      2          1           0        1.374109   -2.096338   -0.017636
      3          1           0        2.816032   -0.936123   -0.001767
      4          6           0        0.928455   -0.028831   -0.004074
      5          6           0       -0.581878   -0.043021   -0.003358
      6          9           0       -1.113425    0.760635   -0.955490
      7          9           0       -1.072083   -1.283995   -0.211179
      8          9           0       -1.078660    0.384948    1.181365
      9          9           0        1.408381    1.241305   -0.005078
 ---------------------------------------------------------------------
 Rotational constants (GHZ):           3.6769942           2.3959132           1.9515604
 Leave Link  202 at Thu Apr  2 13:33:37 2026, MaxMem=  2147483648 cpu:               0.0 elap:               0.0
 (Enter /Users/yarger/Applications/g16/l301.exe)
 Standard basis: 6-31+G(d) (6D, 7F)
 Ernie: Thresh=  0.10000D-02 Tol=  0.10000D-05 Strict=F.
 There are   137 symmetry adapted cartesian basis functions of A   symmetry.
 There are   137 symmetry adapted basis functions of A   symmetry.
   137 basis functions,   232 primitive gaussians,   137 cartesian basis functions
    28 alpha electrons       28 beta electrons
       nuclear repulsion energy       329.8974114691 Hartrees.
 IExCor=  402 DFT=T Ex+Corr=B3LYP ExCW=0 ScaHFX=  0.200000
 ScaDFX=  0.800000  0.720000  1.000000  0.810000 ScalE2=  1.000000  1.000000
 IRadAn=      5 IRanWt=     -1 IRanGd=            0 ICorTp=0 IEmpDi=  4
 NAtoms=    9 NActive=    9 NUniq=    9 SFac= 1.00D+00 NAtFMM=   60 NAOKFM=F Big=F
 Integral buffers will be    131072 words long.
 Raffenetti 2 integral format.
 Two-electron integral symmetry is turned on.
 Leave Link  301 at Thu Apr  2 13:33:37 2026, MaxMem=  2147483648 cpu:               0.1 elap:               0.0
 (Enter /Users/yarger/Applications/g16/l302.exe)
 NPDir=0 NMtPBC=     1 NCelOv=     1 NCel=       1 NClECP=     1 NCelD=      1
         NCelK=      1 NCelE2=     1 NClLst=     1 CellRange=     0.0.
 One-electron integrals computed using PRISM.
 One-electron integral symmetry used in STVInt
 NBasis=   137 RedAO= T EigKep=  6.91D-05  NBF=   137
 NBsUse=   137 1.00D-06 EigRej= -1.00D+00 NBFU=   137
 Precomputing XC quadrature grid using
 IXCGrd= 4 IRadAn=           5 IRanWt=          -1 IRanGd=           0 AccXCQ= 0.00D+00.
 Generated NRdTot=       0 NPtTot=           0 NUsed=           0 NTot=          32
 NSgBfM=   137   137   137   137   137 MxSgAt=     9 MxSgA2=     9.
 Leave Link  302 at Thu Apr  2 13:33:38 2026, MaxMem=  2147483648 cpu:               0.8 elap:               0.1
 (Enter /Users/yarger/Applications/g16/l303.exe)
 DipDrv:  MaxL=1.
 Leave Link  303 at Thu Apr  2 13:33:38 2026, MaxMem=  2147483648 cpu:               0.1 elap:               0.0
 (Enter /Users/yarger/Applications/g16/l401.exe)
 Initial guess from the checkpoint file:  "2223Tetrafluoropropene_Opt_Freq_DFT_B3LYP_631pd_Gaussian16.chk"
 B after Tr=     0.000000    0.000000   -0.000000
         Rot=    0.999953   -0.009387    0.000505   -0.002540 Ang=  -1.12 deg.
 Guess basis will be translated and rotated to current coordinates.
 JPrj=2 DoOrth=T DoCkMO=T.
 Generating alternative initial guess.
 ExpMin= 4.38D-02 ExpMax= 7.00D+03 ExpMxC= 1.05D+03 IAcc=2 IRadAn=         4 AccDes= 0.00D+00
 Harris functional with IExCor=  402 and IRadAn=       4 diagonalized for initial guess.
 HarFok:  IExCor=  402 AccDes= 0.00D+00 IRadAn=         4 IDoV= 1 UseB2=F ITyADJ=14
 ICtDFT=  3500011 ScaDFX=  1.000000  1.000000  1.000000  1.000000
 FoFCou: FMM=F IPFlag=           0 FMFlag=      100000 FMFlg1=           0
         NFxFlg=           0 DoJE=T BraDBF=F KetDBF=T FulRan=T
         wScrn=  0.000000 ICntrl=       500 IOpCl=  0 I1Cent=   200000004 NGrid=           0
         NMat0=    1 NMatS0=      1 NMatT0=    0 NMatD0=    1 NMtDS0=    0 NMtDT0=    0
 Petite list used in FoFCou.
 Harris En= -514.875466615304    
 Leave Link  401 at Thu Apr  2 13:33:38 2026, MaxMem=  2147483648 cpu:               1.5 elap:               0.2
 (Enter /Users/yarger/Applications/g16/l502.exe)
 Keep R1 ints in memory in canonical form, NReq=52385408.
 FoFCou: FMM=F IPFlag=           0 FMFlag=           0 FMFlg1=           0
         NFxFlg=           0 DoJE=F BraDBF=F KetDBF=F FulRan=T
         wScrn=  0.000000 ICntrl=       600 IOpCl=  0 I1Cent=           0 NGrid=           0
         NMat0=    1 NMatS0=   9453 NMatT0=    0 NMatD0=    1 NMtDS0=    0 NMtDT0=    0
 Symmetry not used in FoFCou.
 Two-electron integral symmetry not used.
 Closed shell SCF:
 Using DIIS extrapolation, IDIIS=  1040.
 NGot=  2147483648 LenX=  2102759234 LenY=  2102740024
 Requested convergence on RMS density matrix=1.00D-08 within 128 cycles.
 Requested convergence on MAX density matrix=1.00D-06.
 Requested convergence on             energy=1.00D-06.
 No special actions if energy rises.

 Cycle   1  Pass 1  IDiag  1:
 E= -514.887330292941    
 DIIS: error= 2.00D-03 at cycle   1 NSaved=   1.
 NSaved= 1 IEnMin= 1 EnMin= -514.887330292941     IErMin= 1 ErrMin= 2.00D-03
 ErrMax= 2.00D-03  0.00D+00 EMaxC= 1.00D-01 BMatC= 1.53D-03 BMatP= 1.53D-03
 IDIUse=3 WtCom= 9.80D-01 WtEn= 2.00D-02
 Coeff-Com:  0.100D+01
 Coeff-En:   0.100D+01
 Coeff:      0.100D+01
 Gap=     0.682 Goal=   None    Shift=    0.000
 GapD=    0.682 DampG=2.000 DampE=1.000 DampFc=2.0000 IDamp=-1.
 RMSDP=8.09D-04 MaxDP=2.28D-02              OVMax= 1.83D-02

 Cycle   2  Pass 1  IDiag  1:
 E= -514.890149650626     Delta-E=       -0.002819357685 Rises=F Damp=F
 DIIS: error= 3.52D-04 at cycle   2 NSaved=   2.
 NSaved= 2 IEnMin= 2 EnMin= -514.890149650626     IErMin= 2 ErrMin= 3.52D-04
 ErrMax= 3.52D-04  0.00D+00 EMaxC= 1.00D-01 BMatC= 6.64D-05 BMatP= 1.53D-03
 IDIUse=3 WtCom= 9.96D-01 WtEn= 3.52D-03
 Coeff-Com: -0.155D-01 0.102D+01
 Coeff-En:   0.000D+00 0.100D+01
 Coeff:     -0.154D-01 0.102D+01
 Gap=     0.263 Goal=   None    Shift=    0.000
 RMSDP=1.22D-04 MaxDP=2.54D-03 DE=-2.82D-03 OVMax= 3.04D-03

 Cycle   3  Pass 1  IDiag  1:
 E= -514.890132222690     Delta-E=        0.000017427935 Rises=F Damp=F
 DIIS: error= 6.57D-04 at cycle   3 NSaved=   3.
 NSaved= 3 IEnMin= 2 EnMin= -514.890149650626     IErMin= 2 ErrMin= 3.52D-04
 ErrMax= 6.57D-04  0.00D+00 EMaxC= 1.00D-01 BMatC= 1.34D-04 BMatP= 6.64D-05
 IDIUse=3 WtCom= 2.81D-01 WtEn= 7.19D-01
 Coeff-Com: -0.487D-01 0.628D+00 0.421D+00
 Coeff-En:   0.000D+00 0.566D+00 0.434D+00
 Coeff:     -0.137D-01 0.584D+00 0.430D+00
 Gap=     0.262 Goal=   None    Shift=    0.000
 RMSDP=6.37D-05 MaxDP=1.84D-03 DE= 1.74D-05 OVMax= 1.71D-03

 Cycle   4  Pass 1  IDiag  1:
 E= -514.890215713993     Delta-E=       -0.000083491303 Rises=F Damp=F
 DIIS: error= 1.00D-04 at cycle   4 NSaved=   4.
 NSaved= 4 IEnMin= 4 EnMin= -514.890215713993     IErMin= 4 ErrMin= 1.00D-04
 ErrMax= 1.00D-04  0.00D+00 EMaxC= 1.00D-01 BMatC= 2.96D-06 BMatP= 6.64D-05
 IDIUse=3 WtCom= 9.99D-01 WtEn= 1.00D-03
 Coeff-Com: -0.113D-01 0.980D-01 0.166D+00 0.747D+00
 Coeff-En:   0.000D+00 0.000D+00 0.000D+00 0.100D+01
 Coeff:     -0.113D-01 0.979D-01 0.166D+00 0.747D+00
 Gap=     0.262 Goal=   None    Shift=    0.000
 RMSDP=1.36D-05 MaxDP=2.74D-04 DE=-8.35D-05 OVMax= 3.49D-04

 Cycle   5  Pass 1  IDiag  1:
 E= -514.890217748617     Delta-E=       -0.000002034624 Rises=F Damp=F
 DIIS: error= 1.56D-05 at cycle   5 NSaved=   5.
 NSaved= 5 IEnMin= 5 EnMin= -514.890217748617     IErMin= 5 ErrMin= 1.56D-05
 ErrMax= 1.56D-05  0.00D+00 EMaxC= 1.00D-01 BMatC= 8.07D-08 BMatP= 2.96D-06
 IDIUse=1 WtCom= 1.00D+00 WtEn= 0.00D+00
 Coeff-Com: -0.153D-02 0.145D-02 0.381D-01 0.272D+00 0.690D+00
 Coeff:     -0.153D-02 0.145D-02 0.381D-01 0.272D+00 0.690D+00
 Gap=     0.262 Goal=   None    Shift=    0.000
 RMSDP=3.16D-06 MaxDP=7.00D-05 DE=-2.03D-06 OVMax= 1.03D-04

 Cycle   6  Pass 1  IDiag  1:
 E= -514.890217809277     Delta-E=       -0.000000060659 Rises=F Damp=F
 DIIS: error= 7.02D-06 at cycle   6 NSaved=   6.
 NSaved= 6 IEnMin= 6 EnMin= -514.890217809277     IErMin= 6 ErrMin= 7.02D-06
 ErrMax= 7.02D-06  0.00D+00 EMaxC= 1.00D-01 BMatC= 1.83D-08 BMatP= 8.07D-08
 IDIUse=1 WtCom= 1.00D+00 WtEn= 0.00D+00
 Coeff-Com:  0.238D-03-0.952D-02 0.489D-02 0.783D-01 0.367D+00 0.559D+00
 Coeff:      0.238D-03-0.952D-02 0.489D-02 0.783D-01 0.367D+00 0.559D+00
 Gap=     0.262 Goal=   None    Shift=    0.000
 RMSDP=9.42D-07 MaxDP=2.71D-05 DE=-6.07D-08 OVMax= 4.11D-05

 Cycle   7  Pass 1  IDiag  1:
 E= -514.890217822411     Delta-E=       -0.000000013135 Rises=F Damp=F
 DIIS: error= 1.56D-06 at cycle   7 NSaved=   7.
 NSaved= 7 IEnMin= 7 EnMin= -514.890217822411     IErMin= 7 ErrMin= 1.56D-06
 ErrMax= 1.56D-06  0.00D+00 EMaxC= 1.00D-01 BMatC= 1.12D-09 BMatP= 1.83D-08
 IDIUse=1 WtCom= 1.00D+00 WtEn= 0.00D+00
 Coeff-Com:  0.218D-03-0.435D-02-0.109D-02 0.107D-01 0.996D-01 0.252D+00
 Coeff-Com:  0.643D+00
 Coeff:      0.218D-03-0.435D-02-0.109D-02 0.107D-01 0.996D-01 0.252D+00
 Coeff:      0.643D+00
 Gap=     0.262 Goal=   None    Shift=    0.000
 RMSDP=2.85D-07 MaxDP=8.39D-06 DE=-1.31D-08 OVMax= 1.61D-05

 Cycle   8  Pass 1  IDiag  1:
 E= -514.890217823182     Delta-E=       -0.000000000771 Rises=F Damp=F
 DIIS: error= 5.81D-07 at cycle   8 NSaved=   8.
 NSaved= 8 IEnMin= 8 EnMin= -514.890217823182     IErMin= 8 ErrMin= 5.81D-07
 ErrMax= 5.81D-07  0.00D+00 EMaxC= 1.00D-01 BMatC= 1.53D-10 BMatP= 1.12D-09
 IDIUse=1 WtCom= 1.00D+00 WtEn= 0.00D+00
 Coeff-Com:  0.861D-04-0.134D-02-0.915D-03-0.106D-02 0.159D-01 0.744D-01
 Coeff-Com:  0.332D+00 0.581D+00
 Coeff:      0.861D-04-0.134D-02-0.915D-03-0.106D-02 0.159D-01 0.744D-01
 Coeff:      0.332D+00 0.581D+00
 Gap=     0.262 Goal=   None    Shift=    0.000
 RMSDP=1.10D-07 MaxDP=3.28D-06 DE=-7.71D-10 OVMax= 6.27D-06

 Cycle   9  Pass 1  IDiag  1:
 E= -514.890217823320     Delta-E=       -0.000000000138 Rises=F Damp=F
 DIIS: error= 1.74D-07 at cycle   9 NSaved=   9.
 NSaved= 9 IEnMin= 9 EnMin= -514.890217823320     IErMin= 9 ErrMin= 1.74D-07
 ErrMax= 1.74D-07  0.00D+00 EMaxC= 1.00D-01 BMatC= 1.38D-11 BMatP= 1.53D-10
 IDIUse=1 WtCom= 1.00D+00 WtEn= 0.00D+00
 Coeff-Com:  0.268D-04-0.332D-03-0.380D-03-0.139D-02 0.340D-04 0.190D-01
 Coeff-Com:  0.129D+00 0.304D+00 0.550D+00
 Coeff:      0.268D-04-0.332D-03-0.380D-03-0.139D-02 0.340D-04 0.190D-01
 Coeff:      0.129D+00 0.304D+00 0.550D+00
 Gap=     0.262 Goal=   None    Shift=    0.000
 RMSDP=3.20D-08 MaxDP=1.14D-06 DE=-1.38D-10 OVMax= 2.25D-06

 Cycle  10  Pass 1  IDiag  1:
 E= -514.890217823332     Delta-E=       -0.000000000011 Rises=F Damp=F
 DIIS: error= 9.04D-08 at cycle  10 NSaved=  10.
 NSaved=10 IEnMin=10 EnMin= -514.890217823332     IErMin=10 ErrMin= 9.04D-08
 ErrMax= 9.04D-08  0.00D+00 EMaxC= 1.00D-01 BMatC= 2.50D-12 BMatP= 1.38D-11
 IDIUse=1 WtCom= 1.00D+00 WtEn= 0.00D+00
 Coeff-Com: -0.319D-05 0.113D-03-0.307D-04-0.701D-03-0.410D-02-0.583D-02
 Coeff-Com:  0.485D-02 0.584D-01 0.327D+00 0.620D+00
 Coeff:     -0.319D-05 0.113D-03-0.307D-04-0.701D-03-0.410D-02-0.583D-02
 Coeff:      0.485D-02 0.584D-01 0.327D+00 0.620D+00
 Gap=     0.262 Goal=   None    Shift=    0.000
 RMSDP=1.41D-08 MaxDP=3.98D-07 DE=-1.15D-11 OVMax= 8.10D-07

 Cycle  11  Pass 1  IDiag  1:
 E= -514.890217823333     Delta-E=       -0.000000000001 Rises=F Damp=F
 DIIS: error= 1.51D-08 at cycle  11 NSaved=  11.
 NSaved=11 IEnMin=11 EnMin= -514.890217823333     IErMin=11 ErrMin= 1.51D-08
 ErrMax= 1.51D-08  0.00D+00 EMaxC= 1.00D-01 BMatC= 8.76D-14 BMatP= 2.50D-12
 IDIUse=1 WtCom= 1.00D+00 WtEn= 0.00D+00
 Coeff-Com: -0.232D-05 0.676D-04-0.490D-05-0.323D-03-0.212D-02-0.348D-02
 Coeff-Com: -0.757D-03 0.222D-01 0.151D+00 0.321D+00 0.513D+00
 Coeff:     -0.232D-05 0.676D-04-0.490D-05-0.323D-03-0.212D-02-0.348D-02
 Coeff:     -0.757D-03 0.222D-01 0.151D+00 0.321D+00 0.513D+00
 Gap=     0.262 Goal=   None    Shift=    0.000
 RMSDP=2.12D-09 MaxDP=6.84D-08 DE=-6.82D-13 OVMax= 1.33D-07

 SCF Done:  E(RB3LYP) =  -514.890217823     A.U. after   11 cycles
            NFock= 11  Conv=0.21D-08     -V/T= 2.0081
 KE= 5.107713691338D+02 PE=-1.877761231961D+03 EE= 5.222022335346D+02
 Leave Link  502 at Thu Apr  2 13:33:41 2026, MaxMem=  2147483648 cpu:              21.6 elap:               3.0
 (Enter /Users/yarger/Applications/g16/l701.exe)
 ... and contract with generalized density number  0.
 Compute integral first derivatives.
 Leave Link  701 at Thu Apr  2 13:33:41 2026, MaxMem=  2147483648 cpu:               0.5 elap:               0.1
 (Enter /Users/yarger/Applications/g16/l702.exe)
 L702 exits ... SP integral derivatives will be done elsewhere.
 Leave Link  702 at Thu Apr  2 13:33:41 2026, MaxMem=  2147483648 cpu:               0.1 elap:               0.0
 (Enter /Users/yarger/Applications/g16/l703.exe)
 Integral derivatives from FoFJK, PRISM(SPDF).
 Compute integral first derivatives, UseDBF=F ICtDFT=           0.
 Calling FoFJK, ICntrl=      2127 FMM=F ISym2X=0 I1Cent= 0 IOpClX= 0 NMat=1 NMatS=1 NMatT=0.
 FoFJK:  IHMeth= 1 ICntrl=    2127 DoSepK=F KAlg= 0 I1Cent=           0 FoldK=F
 IRaf=         0 NMat=       1 IRICut=       1 DoRegI=T DoRafI=F ISym2E= 0 IDoP0=0 IntGTp=1.
 FoFCou: FMM=F IPFlag=           0 FMFlag=      100000 FMFlg1=         800
         NFxFlg=           0 DoJE=F BraDBF=F KetDBF=F FulRan=T
         wScrn=  0.000000 ICntrl=      2127 IOpCl=  0 I1Cent=           0 NGrid=           0
         NMat0=    1 NMatS0=      1 NMatT0=    0 NMatD0=    1 NMtDS0=    0 NMtDT0=    0
 Symmetry not used in FoFCou.
 Leave Link  703 at Thu Apr  2 13:33:42 2026, MaxMem=  2147483648 cpu:               6.2 elap:               0.8
 (Enter /Users/yarger/Applications/g16/l716.exe)
 Dipole        = 7.35928098D-01-6.84990198D-01-1.53759766D-02
 ***** Axes restored to original set *****
 -------------------------------------------------------------------
 Center     Atomic                   Forces (Hartrees/Bohr)
 Number     Number              X              Y              Z
 -------------------------------------------------------------------
      1        6           0.003809239    0.001093508    0.001002661
      2        1          -0.003642181   -0.000995477   -0.000385684
      3        1          -0.001144418   -0.001271728   -0.000878440
      4        6           0.001220086   -0.004574450    0.002037152
      5        6          -0.008979399   -0.000862608    0.000010654
      6        9           0.005977150    0.001136301   -0.000692352
      7        9           0.003927884    0.001727164    0.000441708
      8        9           0.001981441   -0.000641543   -0.002121672
      9        9          -0.003149802    0.004388832    0.000585975
 -------------------------------------------------------------------
 Cartesian Forces:  Max     0.008979399 RMS     0.002964120
 Leave Link  716 at Thu Apr  2 13:33:42 2026, MaxMem=  2147483648 cpu:               0.1 elap:               0.0
 (Enter /Users/yarger/Applications/g16/l103.exe)

 GradGradGradGradGradGradGradGradGradGradGradGradGradGradGradGradGradGrad
 Berny optimization.
 Using GEDIIS/GDIIS optimizer.
 FormGI is forming the generalized inverse of G from B-inverse, IUseBI=4.
 Internal  Forces:  Max     0.007230315 RMS     0.002939401
 Search for a local minimum.
 Step number  18 out of a maximum of   40
 All quantities printed in internal units (Hartrees-Bohrs-Radians)
 RMS Force = .29394D-02 SwitMx=.10000D-02 MixMth= 1
 Mixed Optimization -- RFO/linear search
 Update second derivatives using D2CorX and points   18   17
 DE=  1.48D-04 DEPred=-4.10D-04 R=-3.60D-01
 Trust test=-3.60D-01 RLast= 2.10D-01 DXMaxT set to 1.09D+00
 ITU= -1  1  0  1  0  1  0  0  0  0  0  0  0  1  1  1  1  0
 Use linear search instead of GDIIS.
     Eigenvalues ---    0.00054   0.01764   0.02778   0.03073   0.09996
     Eigenvalues ---    0.10517   0.11326   0.14191   0.19272   0.24766
     Eigenvalues ---    0.25266   0.27614   0.30278   0.34394   0.35385
     Eigenvalues ---    0.35540   0.40589   0.44203   0.56272   0.59875
     Eigenvalues ---    0.73802
 RFO step:  Lambda=-1.39386666D-03 EMin= 5.43616688D-04
 Quartic linear search produced a step of -0.58160.
 Iteration  1 RMS(Cart)=  0.11395185 RMS(Int)=  0.04225107
 Iteration  2 RMS(Cart)=  0.05352003 RMS(Int)=  0.00129418
 Iteration  3 RMS(Cart)=  0.00142637 RMS(Int)=  0.00023995
 Iteration  4 RMS(Cart)=  0.00000073 RMS(Int)=  0.00023995
 ITry= 1 IFail=0 DXMaxC= 3.83D-01 DCOld= 1.00D+10 DXMaxT= 1.09D+00 DXLimC= 3.00D+00 Rises=F
 Variable       Old X    -DE/DX   Delta X   Delta X   Delta X     New X
                                 (Linear)    (Quad)   (Total)
    R1        2.04584   0.00019  -0.00026   0.00019  -0.00008   2.04576
    R2        2.05313  -0.00090  -0.00136  -0.00297  -0.00432   2.04881
    R3        2.50372  -0.00154   0.00164  -0.00447  -0.00283   2.50089
    R4        2.85424  -0.00307   0.00797  -0.01793  -0.00996   2.84429
    R5        2.56584  -0.00510  -0.00471  -0.02631  -0.03102   2.53482
    R6        2.55984  -0.00333  -0.00185   0.00236   0.00051   2.56035
    R7        2.55183   0.00024   0.00208  -0.01167  -0.00959   2.54224
    R8        2.55883   0.00106   0.00522  -0.01266  -0.00744   2.55139
    A1        2.04444   0.00370   0.02627   0.01236   0.03864   2.08308
    A2        2.13992  -0.00403  -0.02137  -0.01563  -0.03699   2.10293
    A3        2.09875   0.00033  -0.00500   0.00340  -0.00160   2.09715
    A4        2.21946  -0.00179  -0.01218   0.00204  -0.00967   2.20978
    A5        2.12227   0.00268   0.00821   0.00535   0.01401   2.13628
    A6        1.94146  -0.00089   0.00194  -0.00739  -0.00499   1.93648
    A7        1.96760  -0.00723  -0.01194  -0.01478  -0.02707   1.94054
    A8        1.95148  -0.00514  -0.00826  -0.01191  -0.02043   1.93106
    A9        1.94369  -0.00180   0.00221  -0.01538  -0.01324   1.93045
   A10        1.86983   0.00607   0.01634  -0.01177   0.00406   1.87388
   A11        1.85824   0.00478   0.00591   0.01725   0.02300   1.88124
   A12        1.86703   0.00458  -0.00289   0.04079   0.03792   1.90495
    D1        0.01614   0.00013   0.05691  -0.10243  -0.04577  -0.02963
    D2       -3.12550  -0.00056   0.00018  -0.00397  -0.00354  -3.12904
    D3       -3.13883   0.00071   0.05087  -0.09051  -0.03990   3.10446
    D4        0.00271   0.00002  -0.00586   0.00795   0.00233   0.00504
    D5       -2.27539   0.00047  -0.00564   0.32558   0.31961  -1.95578
    D6       -0.16738  -0.00055   0.00114   0.29108   0.29226   0.12487
    D7        1.92032   0.00058  -0.00656   0.32442   0.31760   2.23792
    D8        0.86625   0.00110   0.04580   0.23560   0.28143   1.14768
    D9        2.97426   0.00008   0.05258   0.20110   0.25408  -3.05485
   D10       -1.22122   0.00121   0.04487   0.23444   0.27942  -0.94180
         Item               Value     Threshold  Converged?
 Maximum Force            0.007230     0.000015     NO 
 RMS     Force            0.002939     0.000010     NO 
 Maximum Displacement     0.382780     0.000060     NO 
 RMS     Displacement     0.164911     0.000040     NO 
 Predicted change in Energy=-1.179105D-03
 GradGradGradGradGradGradGradGradGradGradGradGradGradGradGradGradGradGrad

 Leave Link  103 at Thu Apr  2 13:33:42 2026, MaxMem=  2147483648 cpu:               0.1 elap:               0.0
 (Enter /Users/yarger/Applications/g16/l202.exe)
                          Input orientation:                          
 ---------------------------------------------------------------------
 Center     Atomic      Atomic             Coordinates (Angstroms)
 Number     Number       Type             X           Y           Z
 ---------------------------------------------------------------------
      1          6           0        1.743277    1.021641    0.243080
      2          1           0        1.356107    1.894781    0.752668
      3          1           0        2.813822    0.916424    0.107751
      4          6           0        0.921427    0.085703   -0.204148
      5          6           0       -0.576271    0.061165   -0.056786
      6          9           0       -0.970730   -0.938242    0.768615
      7          9           0       -1.019872    1.216408    0.470905
      8          9           0       -1.168409   -0.134913   -1.254200
      9          9           0        1.360167   -1.017800   -0.827888
 ---------------------------------------------------------------------
                    Distance matrix (angstroms):
                    1          2          3          4          5
     1  C    0.000000
     2  H    1.082569   0.000000
     3  H    1.084182   1.870303   0.000000
     4  C    1.323416   2.092178   2.090105   0.000000
     5  C    2.528387   2.784143   3.500182   1.505131   0.000000
     6  F    3.388681   3.666121   4.266071   2.361141   1.354879
     7  F    2.779359   2.486938   3.862523   2.345812   1.345297
     8  F    3.472374   3.810559   4.338016   2.349190   1.350139
     9  F    2.335180   3.313805   2.594178   1.341367   2.347032
                    6          7          8          9
     6  F    0.000000
     7  F    2.175675   0.000000
     8  F    2.185450   2.196387   0.000000
     9  F    2.826346   3.513280   2.711997   0.000000
 Stoichiometry    C3H2F4
 Framework group  C1[X(C3H2F4)]
 Deg. of freedom    21
 Full point group                 C1      NOp   1
 RotChk:  IX=1 Diff= 1.95D-01
 Largest Abelian subgroup         C1      NOp   1
 Largest concise Abelian subgroup C1      NOp   1
                         Standard orientation:                         
 ---------------------------------------------------------------------
 Center     Atomic      Atomic             Coordinates (Angstroms)
 Number     Number       Type             X           Y           Z
 ---------------------------------------------------------------------
      1          6           0        1.722866   -1.070514    0.006533
      2          1           0        1.317512   -2.074240    0.019835
      3          1           0        2.797779   -0.931807   -0.021278
      4          6           0        0.917043   -0.020752    0.015477
      5          6           0       -0.587884   -0.044271    0.007779
      6          9           0       -1.079113    0.436813   -1.159674
      7          9           0       -1.043237   -1.302497    0.146877
      8          9           0       -1.080149    0.717865    1.007628
      9          9           0        1.377228    1.238849   -0.014529
 ---------------------------------------------------------------------
 Rotational constants (GHZ):           3.6592019           2.4503641           1.9909182
 Leave Link  202 at Thu Apr  2 13:33:42 2026, MaxMem=  2147483648 cpu:               0.0 elap:               0.0
 (Enter /Users/yarger/Applications/g16/l301.exe)
 Standard basis: 6-31+G(d) (6D, 7F)
 Ernie: Thresh=  0.10000D-02 Tol=  0.10000D-05 Strict=F.
 There are   137 symmetry adapted cartesian basis functions of A   symmetry.
 There are   137 symmetry adapted basis functions of A   symmetry.
   137 basis functions,   232 primitive gaussians,   137 cartesian basis functions
    28 alpha electrons       28 beta electrons
       nuclear repulsion energy       331.6038119174 Hartrees.
 IExCor=  402 DFT=T Ex+Corr=B3LYP ExCW=0 ScaHFX=  0.200000
 ScaDFX=  0.800000  0.720000  1.000000  0.810000 ScalE2=  1.000000  1.000000
 IRadAn=      5 IRanWt=     -1 IRanGd=            0 ICorTp=0 IEmpDi=  4
 NAtoms=    9 NActive=    9 NUniq=    9 SFac= 1.00D+00 NAtFMM=   60 NAOKFM=F Big=F
 Integral buffers will be    131072 words long.
 Raffenetti 2 integral format.
 Two-electron integral symmetry is turned on.
 Leave Link  301 at Thu Apr  2 13:33:42 2026, MaxMem=  2147483648 cpu:               0.1 elap:               0.0
 (Enter /Users/yarger/Applications/g16/l302.exe)
 NPDir=0 NMtPBC=     1 NCelOv=     1 NCel=       1 NClECP=     1 NCelD=      1
         NCelK=      1 NCelE2=     1 NClLst=     1 CellRange=     0.0.
 One-electron integrals computed using PRISM.
 One-electron integral symmetry used in STVInt
 NBasis=   137 RedAO= T EigKep=  6.90D-05  NBF=   137
 NBsUse=   137 1.00D-06 EigRej= -1.00D+00 NBFU=   137
 Precomputing XC quadrature grid using
 IXCGrd= 4 IRadAn=           5 IRanWt=          -1 IRanGd=           0 AccXCQ= 0.00D+00.
 Generated NRdTot=       0 NPtTot=           0 NUsed=           0 NTot=          32
 NSgBfM=   137   137   137   137   137 MxSgAt=     9 MxSgA2=     9.
 Leave Link  302 at Thu Apr  2 13:33:42 2026, MaxMem=  2147483648 cpu:               0.8 elap:               0.1
 (Enter /Users/yarger/Applications/g16/l303.exe)
 DipDrv:  MaxL=1.
 Leave Link  303 at Thu Apr  2 13:33:42 2026, MaxMem=  2147483648 cpu:               0.1 elap:               0.0
 (Enter /Users/yarger/Applications/g16/l401.exe)
 Lowest energy guess from the checkpoint file:  "2223Tetrafluoropropene_Opt_Freq_DFT_B3LYP_631pd_Gaussian16.chk"
 B after Tr=    -0.000000   -0.000000   -0.000000
         Rot=    0.996403    0.084523    0.003850   -0.004675 Ang=   9.72 deg.
 Guess basis will be translated and rotated to current coordinates.
 B after Tr=    -0.000000   -0.000000    0.000000
         Rot=    0.995576    0.093875    0.003354   -0.002031 Ang=  10.78 deg.
 Guess basis will be translated and rotated to current coordinates.
 CkInt1:  FT= 4.18D-01
 Max alpha theta=  1.634 degrees.
 JPrj=2 DoOrth=T DoCkMO=T.
 Leave Link  401 at Thu Apr  2 13:33:42 2026, MaxMem=  2147483648 cpu:               0.5 elap:               0.1
 (Enter /Users/yarger/Applications/g16/l502.exe)
 Keep R1 ints in memory in canonical form, NReq=52385408.
 FoFCou: FMM=F IPFlag=           0 FMFlag=           0 FMFlg1=           0
         NFxFlg=           0 DoJE=F BraDBF=F KetDBF=F FulRan=T
         wScrn=  0.000000 ICntrl=       600 IOpCl=  0 I1Cent=           0 NGrid=           0
         NMat0=    1 NMatS0=   9453 NMatT0=    0 NMatD0=    1 NMtDS0=    0 NMtDT0=    0
 Symmetry not used in FoFCou.
 Two-electron integral symmetry not used.
 Closed shell SCF:
 Using DIIS extrapolation, IDIIS=  1040.
 NGot=  2147483648 LenX=  2102759234 LenY=  2102740024
 Requested convergence on RMS density matrix=1.00D-08 within 128 cycles.
 Requested convergence on MAX density matrix=1.00D-06.
 Requested convergence on             energy=1.00D-06.
 No special actions if energy rises.

 Cycle   1  Pass 1  IDiag  1:
 E= -514.856021788575    
 DIIS: error= 9.66D-03 at cycle   1 NSaved=   1.
 NSaved= 1 IEnMin= 1 EnMin= -514.856021788575     IErMin= 1 ErrMin= 9.66D-03
 ErrMax= 9.66D-03  0.00D+00 EMaxC= 1.00D-01 BMatC= 1.81D-02 BMatP= 1.81D-02
 IDIUse=3 WtCom= 9.03D-01 WtEn= 9.66D-02
 Coeff-Com:  0.100D+01
 Coeff-En:   0.100D+01
 Coeff:      0.100D+01
 Gap=    24.619 Goal=   None    Shift=    0.000
 GapD=   24.619 DampG=2.000 DampE=1.000 DampFc=2.0000 IDamp=-1.
 RMSDP=2.11D-03 MaxDP=4.02D-02              OVMax= 7.06D-02

 Cycle   2  Pass 1  IDiag  1:
 E= -514.890066321967     Delta-E=       -0.034044533392 Rises=F Damp=F
 DIIS: error= 1.01D-03 at cycle   2 NSaved=   2.
 NSaved= 2 IEnMin= 2 EnMin= -514.890066321967     IErMin= 2 ErrMin= 1.01D-03
 ErrMax= 1.01D-03  0.00D+00 EMaxC= 1.00D-01 BMatC= 3.21D-04 BMatP= 1.81D-02
 IDIUse=3 WtCom= 9.90D-01 WtEn= 1.01D-02
 Coeff-Com: -0.586D-01 0.106D+01
 Coeff-En:   0.000D+00 0.100D+01
 Coeff:     -0.580D-01 0.106D+01
 Gap=     0.263 Goal=   None    Shift=    0.000
 RMSDP=4.05D-04 MaxDP=1.15D-02 DE=-3.40D-02 OVMax= 8.65D-03

 Cycle   3  Pass 1  IDiag  1:
 E= -514.890372274322     Delta-E=       -0.000305952356 Rises=F Damp=F
 DIIS: error= 8.99D-04 at cycle   3 NSaved=   3.
 NSaved= 3 IEnMin= 3 EnMin= -514.890372274322     IErMin= 3 ErrMin= 8.99D-04
 ErrMax= 8.99D-04  0.00D+00 EMaxC= 1.00D-01 BMatC= 3.12D-04 BMatP= 3.21D-04
 IDIUse=3 WtCom= 9.91D-01 WtEn= 8.99D-03
 Coeff-Com: -0.427D-01 0.560D+00 0.483D+00
 Coeff-En:   0.000D+00 0.000D+00 0.100D+01
 Coeff:     -0.424D-01 0.555D+00 0.487D+00
 Gap=     0.263 Goal=   None    Shift=    0.000
 RMSDP=1.16D-04 MaxDP=3.05D-03 DE=-3.06D-04 OVMax= 3.11D-03

 Cycle   4  Pass 1  IDiag  1:
 E= -514.890567365517     Delta-E=       -0.000195091195 Rises=F Damp=F
 DIIS: error= 2.44D-04 at cycle   4 NSaved=   4.
 NSaved= 4 IEnMin= 4 EnMin= -514.890567365517     IErMin= 4 ErrMin= 2.44D-04
 ErrMax= 2.44D-04  0.00D+00 EMaxC= 1.00D-01 BMatC= 2.43D-05 BMatP= 3.12D-04
 IDIUse=3 WtCom= 9.98D-01 WtEn= 2.44D-03
 Coeff-Com: -0.113D-01 0.128D+00 0.244D+00 0.639D+00
 Coeff-En:   0.000D+00 0.000D+00 0.000D+00 0.100D+01
 Coeff:     -0.113D-01 0.128D+00 0.244D+00 0.640D+00
 Gap=     0.263 Goal=   None    Shift=    0.000
 RMSDP=3.68D-05 MaxDP=9.68D-04 DE=-1.95D-04 OVMax= 7.71D-04

 Cycle   5  Pass 1  IDiag  1:
 E= -514.890583443068     Delta-E=       -0.000016077551 Rises=F Damp=F
 DIIS: error= 4.44D-05 at cycle   5 NSaved=   5.
 NSaved= 5 IEnMin= 5 EnMin= -514.890583443068     IErMin= 5 ErrMin= 4.44D-05
 ErrMax= 4.44D-05  0.00D+00 EMaxC= 1.00D-01 BMatC= 5.45D-07 BMatP= 2.43D-05
 IDIUse=1 WtCom= 1.00D+00 WtEn= 0.00D+00
 Coeff-Com: -0.419D-03-0.757D-03 0.402D-01 0.187D+00 0.774D+00
 Coeff:     -0.419D-03-0.757D-03 0.402D-01 0.187D+00 0.774D+00
 Gap=     0.263 Goal=   None    Shift=    0.000
 RMSDP=1.18D-05 MaxDP=3.48D-04 DE=-1.61D-05 OVMax= 2.65D-04

 Cycle   6  Pass 1  IDiag  1:
 E= -514.890583884537     Delta-E=       -0.000000441469 Rises=F Damp=F
 DIIS: error= 1.67D-05 at cycle   6 NSaved=   6.
 NSaved= 6 IEnMin= 6 EnMin= -514.890583884537     IErMin= 6 ErrMin= 1.67D-05
 ErrMax= 1.67D-05  0.00D+00 EMaxC= 1.00D-01 BMatC= 1.07D-07 BMatP= 5.45D-07
 IDIUse=1 WtCom= 1.00D+00 WtEn= 0.00D+00
 Coeff-Com:  0.418D-03-0.824D-02 0.559D-02 0.565D-01 0.380D+00 0.566D+00
 Coeff:      0.418D-03-0.824D-02 0.559D-02 0.565D-01 0.380D+00 0.566D+00
 Gap=     0.263 Goal=   None    Shift=    0.000
 RMSDP=2.71D-06 MaxDP=7.81D-05 DE=-4.41D-07 OVMax= 1.36D-04

 Cycle   7  Pass 1  IDiag  1:
 E= -514.890583961903     Delta-E=       -0.000000077366 Rises=F Damp=F
 DIIS: error= 7.40D-06 at cycle   7 NSaved=   7.
 NSaved= 7 IEnMin= 7 EnMin= -514.890583961903     IErMin= 7 ErrMin= 7.40D-06
 ErrMax= 7.40D-06  0.00D+00 EMaxC= 1.00D-01 BMatC= 1.18D-08 BMatP= 1.07D-07
 IDIUse=1 WtCom= 1.00D+00 WtEn= 0.00D+00
 Coeff-Com:  0.233D-03-0.400D-02-0.204D-02 0.558D-02 0.964D-01 0.287D+00
 Coeff-Com:  0.617D+00
 Coeff:      0.233D-03-0.400D-02-0.204D-02 0.558D-02 0.964D-01 0.287D+00
 Coeff:      0.617D+00
 Gap=     0.263 Goal=   None    Shift=    0.000
 RMSDP=9.93D-07 MaxDP=3.18D-05 DE=-7.74D-08 OVMax= 6.05D-05

 Cycle   8  Pass 1  IDiag  1:
 E= -514.890583970942     Delta-E=       -0.000000009039 Rises=F Damp=F
 DIIS: error= 2.17D-06 at cycle   8 NSaved=   8.
 NSaved= 8 IEnMin= 8 EnMin= -514.890583970942     IErMin= 8 ErrMin= 2.17D-06
 ErrMax= 2.17D-06  0.00D+00 EMaxC= 1.00D-01 BMatC= 9.66D-10 BMatP= 1.18D-08
 IDIUse=1 WtCom= 1.00D+00 WtEn= 0.00D+00
 Coeff-Com:  0.101D-03-0.158D-02-0.137D-02-0.657D-03 0.260D-01 0.113D+00
 Coeff-Com:  0.310D+00 0.555D+00
 Coeff:      0.101D-03-0.158D-02-0.137D-02-0.657D-03 0.260D-01 0.113D+00
 Coeff:      0.310D+00 0.555D+00
 Gap=     0.263 Goal=   None    Shift=    0.000
 RMSDP=3.25D-07 MaxDP=1.10D-05 DE=-9.04D-09 OVMax= 2.18D-05

 Cycle   9  Pass 1  IDiag  1:
 E= -514.890583971727     Delta-E=       -0.000000000785 Rises=F Damp=F
 DIIS: error= 8.90D-07 at cycle   9 NSaved=   9.
 NSaved= 9 IEnMin= 9 EnMin= -514.890583971727     IErMin= 9 ErrMin= 8.90D-07
 ErrMax= 8.90D-07  0.00D+00 EMaxC= 1.00D-01 BMatC= 1.97D-10 BMatP= 9.66D-10
 IDIUse=1 WtCom= 1.00D+00 WtEn= 0.00D+00
 Coeff-Com:  0.192D-04-0.241D-03-0.496D-03-0.152D-02-0.124D-02 0.203D-01
 Coeff-Com:  0.883D-01 0.333D+00 0.562D+00
 Coeff:      0.192D-04-0.241D-03-0.496D-03-0.152D-02-0.124D-02 0.203D-01
 Coeff:      0.883D-01 0.333D+00 0.562D+00
 Gap=     0.263 Goal=   None    Shift=    0.000
 RMSDP=1.01D-07 MaxDP=3.70D-06 DE=-7.85D-10 OVMax= 7.43D-06

 Cycle  10  Pass 1  IDiag  1:
 E= -514.890583971895     Delta-E=       -0.000000000168 Rises=F Damp=F
 DIIS: error= 1.80D-07 at cycle  10 NSaved=  10.
 NSaved=10 IEnMin=10 EnMin= -514.890583971895     IErMin=10 ErrMin= 1.80D-07
 ErrMax= 1.80D-07  0.00D+00 EMaxC= 1.00D-01 BMatC= 1.18D-11 BMatP= 1.97D-10
 IDIUse=1 WtCom= 1.00D+00 WtEn= 0.00D+00
 Coeff-Com: -0.295D-05 0.837D-04-0.750D-04-0.633D-03-0.381D-02-0.435D-02
 Coeff-Com:  0.396D-02 0.864D-01 0.266D+00 0.652D+00
 Coeff:     -0.295D-05 0.837D-04-0.750D-04-0.633D-03-0.381D-02-0.435D-02
 Coeff:      0.396D-02 0.864D-01 0.266D+00 0.652D+00
 Gap=     0.263 Goal=   None    Shift=    0.000
 RMSDP=2.87D-08 MaxDP=7.15D-07 DE=-1.68D-10 OVMax= 1.15D-06

 Cycle  11  Pass 1  IDiag  1:
 E= -514.890583971897     Delta-E=       -0.000000000002 Rises=F Damp=F
 DIIS: error= 2.63D-08 at cycle  11 NSaved=  11.
 NSaved=11 IEnMin=11 EnMin= -514.890583971897     IErMin=11 ErrMin= 2.63D-08
 ErrMax= 2.63D-08  0.00D+00 EMaxC= 1.00D-01 BMatC= 2.26D-13 BMatP= 1.18D-11
 IDIUse=1 WtCom= 1.00D+00 WtEn= 0.00D+00
 Coeff-Com: -0.160D-05 0.385D-04-0.177D-04-0.216D-03-0.146D-02-0.219D-02
 Coeff-Com: -0.278D-03 0.262D-01 0.938D-01 0.256D+00 0.628D+00
 Coeff:     -0.160D-05 0.385D-04-0.177D-04-0.216D-03-0.146D-02-0.219D-02
 Coeff:     -0.278D-03 0.262D-01 0.938D-01 0.256D+00 0.628D+00
 Gap=     0.263 Goal=   None    Shift=    0.000
 RMSDP=4.88D-09 MaxDP=9.19D-08 DE=-1.82D-12 OVMax= 8.78D-08

 SCF Done:  E(RB3LYP) =  -514.890583972     A.U. after   11 cycles
            NFock= 11  Conv=0.49D-08     -V/T= 2.0079
 KE= 5.108478466466D+02 PE=-1.881192637795D+03 EE= 5.238503952591D+02
 Leave Link  502 at Thu Apr  2 13:33:45 2026, MaxMem=  2147483648 cpu:              21.6 elap:               3.0
 (Enter /Users/yarger/Applications/g16/l701.exe)
 ... and contract with generalized density number  0.
 Compute integral first derivatives.
 Leave Link  701 at Thu Apr  2 13:33:46 2026, MaxMem=  2147483648 cpu:               0.5 elap:               0.1
 (Enter /Users/yarger/Applications/g16/l702.exe)
 L702 exits ... SP integral derivatives will be done elsewhere.
 Leave Link  702 at Thu Apr  2 13:33:46 2026, MaxMem=  2147483648 cpu:               0.1 elap:               0.0
 (Enter /Users/yarger/Applications/g16/l703.exe)
 Integral derivatives from FoFJK, PRISM(SPDF).
 Compute integral first derivatives, UseDBF=F ICtDFT=           0.
 Calling FoFJK, ICntrl=      2127 FMM=F ISym2X=0 I1Cent= 0 IOpClX= 0 NMat=1 NMatS=1 NMatT=0.
 FoFJK:  IHMeth= 1 ICntrl=    2127 DoSepK=F KAlg= 0 I1Cent=           0 FoldK=F
 IRaf=         0 NMat=       1 IRICut=       1 DoRegI=T DoRafI=F ISym2E= 0 IDoP0=0 IntGTp=1.
 FoFCou: FMM=F IPFlag=           0 FMFlag=      100000 FMFlg1=         800
         NFxFlg=           0 DoJE=F BraDBF=F KetDBF=F FulRan=T
         wScrn=  0.000000 ICntrl=      2127 IOpCl=  0 I1Cent=           0 NGrid=           0
         NMat0=    1 NMatS0=      1 NMatT0=    0 NMatD0=    1 NMtDS0=    0 NMtDT0=    0
 Symmetry not used in FoFCou.
 Leave Link  703 at Thu Apr  2 13:33:47 2026, MaxMem=  2147483648 cpu:               6.2 elap:               0.8
 (Enter /Users/yarger/Applications/g16/l716.exe)
 Dipole        = 6.72703724D-01-6.42350460D-01 1.89903783D-02
 ***** Axes restored to original set *****
 -------------------------------------------------------------------
 Center     Atomic                   Forces (Hartrees/Bohr)
 Number     Number              X              Y              Z
 -------------------------------------------------------------------
      1        6           0.001120180    0.001508015    0.000579729
      2        1           0.000294866    0.000134613   -0.000240064
      3        1           0.000305212    0.000644762   -0.000164438
      4        6          -0.000474650    0.002457737    0.004046927
      5        6           0.003850721   -0.001555858    0.001335385
      6        9          -0.000910038   -0.000660229   -0.002374837
      7        9          -0.003838510    0.002752264   -0.001129354
      8        9          -0.002950022    0.000919076    0.001739174
      9        9           0.002602241   -0.006200380   -0.003792521
 -------------------------------------------------------------------
 Cartesian Forces:  Max     0.006200380 RMS     0.002348357
 Leave Link  716 at Thu Apr  2 13:33:47 2026, MaxMem=  2147483648 cpu:               0.1 elap:               0.0
 (Enter /Users/yarger/Applications/g16/l103.exe)

 GradGradGradGradGradGradGradGradGradGradGradGradGradGradGradGradGradGrad
 Berny optimization.
 Using GEDIIS/GDIIS optimizer.
 FormGI is forming the generalized inverse of G from B-inverse, IUseBI=4.
 Internal  Forces:  Max     0.007715604 RMS     0.002407251
 Search for a local minimum.
 Step number  19 out of a maximum of   40
 All quantities printed in internal units (Hartrees-Bohrs-Radians)
 RMS Force = .24073D-02 SwitMx=.10000D-02 MixMth= 1
 Mixed Optimization -- RFO/linear search
 Update second derivatives using D2CorX and points   17   19
 DE= -2.19D-04 DEPred=-1.18D-03 R= 1.85D-01
 Trust test= 1.85D-01 RLast= 6.72D-01 DXMaxT set to 1.09D+00
 ITU=  0 -1  1  0  1  0  1  0  0  0  0  0  0  0  1  1  1  1  0
 Use linear search instead of GDIIS.
     Eigenvalues ---    0.00154   0.01657   0.02533   0.03100   0.10248
     Eigenvalues ---    0.10527   0.11541   0.14596   0.18537   0.24718
     Eigenvalues ---    0.25573   0.28388   0.31435   0.35226   0.35449
     Eigenvalues ---    0.35679   0.42731   0.44337   0.56122   0.60530
     Eigenvalues ---    0.72667
 RFO step:  Lambda=-1.97011747D-04 EMin= 1.53688366D-03
 Quartic linear search produced a step of -0.42512.
 Iteration  1 RMS(Cart)=  0.08380310 RMS(Int)=  0.00304314
 Iteration  2 RMS(Cart)=  0.00353024 RMS(Int)=  0.00026335
 Iteration  3 RMS(Cart)=  0.00000425 RMS(Int)=  0.00026334
 Iteration  4 RMS(Cart)=  0.00000000 RMS(Int)=  0.00026334
 ITry= 1 IFail=0 DXMaxC= 2.00D-01 DCOld= 1.00D+10 DXMaxT= 1.09D+00 DXLimC= 3.00D+00 Rises=F
 Variable       Old X    -DE/DX   Delta X   Delta X   Delta X     New X
                                 (Linear)    (Quad)   (Total)
    R1        2.04576  -0.00011  -0.00016   0.00039   0.00023   2.04599
    R2        2.04881   0.00026   0.00085  -0.00020   0.00064   2.04945
    R3        2.50089   0.00274   0.00240  -0.00015   0.00225   2.50314
    R4        2.84429   0.00376   0.01006  -0.00414   0.00592   2.85020
    R5        2.53482   0.00772   0.00974   0.01180   0.02154   2.55635
    R6        2.56035  -0.00069  -0.00157  -0.00486  -0.00643   2.55392
    R7        2.54224   0.00319   0.00560   0.00243   0.00803   2.55027
    R8        2.55139  -0.00038   0.00698  -0.00401   0.00297   2.55436
    A1        2.08308  -0.00056   0.00278  -0.00918  -0.00642   2.07666
    A2        2.10293   0.00004   0.00011  -0.00171  -0.00162   2.10131
    A3        2.09715   0.00053  -0.00298   0.01104   0.00804   2.10519
    A4        2.20978  -0.00020  -0.00479   0.00615   0.00219   2.21198
    A5        2.13628  -0.00002   0.00004  -0.00318  -0.00231   2.13397
    A6        1.93648   0.00023   0.00354  -0.00361   0.00076   1.93723
    A7        1.94054   0.00055   0.00278   0.00098   0.00377   1.94430
    A8        1.93106   0.00395   0.00265   0.00836   0.01100   1.94205
    A9        1.93045   0.00417   0.00725   0.00079   0.00803   1.93848
   A10        1.87388  -0.00035   0.01022  -0.00366   0.00656   1.88044
   A11        1.88124  -0.00352  -0.00546  -0.00695  -0.01238   1.86886
   A12        1.90495  -0.00524  -0.01823  -0.00005  -0.01830   1.88665
    D1       -0.02963   0.00008   0.06106  -0.04472   0.01637  -0.01327
    D2       -3.12904  -0.00053   0.00163  -0.02372  -0.02211   3.13203
    D3        3.10446   0.00069   0.05414  -0.02159   0.03258   3.13704
    D4        0.00504   0.00008  -0.00528  -0.00059  -0.00590  -0.00085
    D5       -1.95578  -0.00179  -0.14000  -0.03098  -0.17097  -2.12675
    D6        0.12487   0.00072  -0.12341  -0.02945  -0.15284  -0.02797
    D7        2.23792  -0.00048  -0.13982  -0.02341  -0.16319   2.07473
    D8        1.14768  -0.00124  -0.08617  -0.04998  -0.13618   1.01150
    D9       -3.05485   0.00126  -0.06958  -0.04845  -0.11806   3.11027
   D10       -0.94180   0.00006  -0.08599  -0.04242  -0.12841  -1.07021
         Item               Value     Threshold  Converged?
 Maximum Force            0.007716     0.000015     NO 
 RMS     Force            0.002407     0.000010     NO 
 Maximum Displacement     0.199554     0.000060     NO 
 RMS     Displacement     0.083805     0.000040     NO 
 Predicted change in Energy=-3.975312D-04
 Lowest energy point so far.  Saving SCF results.
 GradGradGradGradGradGradGradGradGradGradGradGradGradGradGradGradGradGrad

 Leave Link  103 at Thu Apr  2 13:33:47 2026, MaxMem=  2147483648 cpu:               0.1 elap:               0.0
 (Enter /Users/yarger/Applications/g16/l202.exe)
                          Input orientation:                          
 ---------------------------------------------------------------------
 Center     Atomic      Atomic             Coordinates (Angstroms)
 Number     Number       Type             X           Y           Z
 ---------------------------------------------------------------------
      1          6           0        1.747396    1.033812    0.219614
      2          1           0        1.355104    1.939767    0.664109
      3          1           0        2.819329    0.934410    0.088208
      4          6           0        0.927923    0.067198   -0.166003
      5          6           0       -0.575464    0.057285   -0.045236
      6          9           0       -1.005124   -1.000456    0.677994
      7          9           0       -1.025621    1.177703    0.557508
      8          9           0       -1.160006   -0.029314   -1.260940
      9          9           0        1.375982   -1.075241   -0.735256
 ---------------------------------------------------------------------
                    Distance matrix (angstroms):
                    1          2          3          4          5
     1  C    0.000000
     2  H    1.082692   0.000000
     3  H    1.084522   1.867179   0.000000
     4  C    1.324606   2.092387   2.096210   0.000000
     5  C    2.533660   2.788190   3.508814   1.508262   0.000000
     6  F    3.453219   3.770381   4.326429   2.364082   1.351475
     7  F    2.797231   2.501990   3.881117   2.360725   1.349547
     8  F    3.431510   3.729460   4.310924   2.359586   1.351712
     9  F    2.344745   3.323993   2.607689   1.352765   2.359425
                    6          7          8          9
     6  F    0.000000
     7  F    2.181585   0.000000
     8  F    2.174068   2.186710   0.000000
     9  F    2.769934   3.537611   2.793124   0.000000
 Stoichiometry    C3H2F4
 Framework group  C1[X(C3H2F4)]
 Deg. of freedom    21
 Full point group                 C1      NOp   1
 RotChk:  IX=3 Diff= 9.85D-02
 Largest Abelian subgroup         C1      NOp   1
 Largest concise Abelian subgroup C1      NOp   1
                         Standard orientation:                         
 ---------------------------------------------------------------------
 Center     Atomic      Atomic             Coordinates (Angstroms)
 Number     Number       Type             X           Y           Z
 ---------------------------------------------------------------------
      1          6           0        1.726261   -1.080809   -0.000137
      2          1           0        1.316572   -2.082919    0.012229
      3          1           0        2.803263   -0.953394   -0.004644
      4          6           0        0.922362   -0.028037    0.000200
      5          6           0       -0.585810   -0.044584    0.000582
      6          9           0       -1.086469    0.614166   -1.068002
      7          9           0       -1.061597   -1.306988   -0.034629
      8          9           0       -1.078060    0.558992    1.105349
      9          9           0        1.393159    1.240152   -0.003991
 ---------------------------------------------------------------------
 Rotational constants (GHZ):           3.6602373           2.4303851           1.9725682
 Leave Link  202 at Thu Apr  2 13:33:47 2026, MaxMem=  2147483648 cpu:               0.0 elap:               0.0
 (Enter /Users/yarger/Applications/g16/l301.exe)
 Standard basis: 6-31+G(d) (6D, 7F)
 Ernie: Thresh=  0.10000D-02 Tol=  0.10000D-05 Strict=F.
 There are   137 symmetry adapted cartesian basis functions of A   symmetry.
 There are   137 symmetry adapted basis functions of A   symmetry.
   137 basis functions,   232 primitive gaussians,   137 cartesian basis functions
    28 alpha electrons       28 beta electrons
       nuclear repulsion energy       330.7898143207 Hartrees.
 IExCor=  402 DFT=T Ex+Corr=B3LYP ExCW=0 ScaHFX=  0.200000
 ScaDFX=  0.800000  0.720000  1.000000  0.810000 ScalE2=  1.000000  1.000000
 IRadAn=      5 IRanWt=     -1 IRanGd=            0 ICorTp=0 IEmpDi=  4
 NAtoms=    9 NActive=    9 NUniq=    9 SFac= 1.00D+00 NAtFMM=   60 NAOKFM=F Big=F
 Integral buffers will be    131072 words long.
 Raffenetti 2 integral format.
 Two-electron integral symmetry is turned on.
 Leave Link  301 at Thu Apr  2 13:33:47 2026, MaxMem=  2147483648 cpu:               0.2 elap:               0.0
 (Enter /Users/yarger/Applications/g16/l302.exe)
 NPDir=0 NMtPBC=     1 NCelOv=     1 NCel=       1 NClECP=     1 NCelD=      1
         NCelK=      1 NCelE2=     1 NClLst=     1 CellRange=     0.0.
 One-electron integrals computed using PRISM.
 One-electron integral symmetry used in STVInt
 NBasis=   137 RedAO= T EigKep=  6.96D-05  NBF=   137
 NBsUse=   137 1.00D-06 EigRej= -1.00D+00 NBFU=   137
 Precomputing XC quadrature grid using
 IXCGrd= 4 IRadAn=           5 IRanWt=          -1 IRanGd=           0 AccXCQ= 0.00D+00.
 Generated NRdTot=       0 NPtTot=           0 NUsed=           0 NTot=          32
 NSgBfM=   137   137   137   137   137 MxSgAt=     9 MxSgA2=     9.
 Leave Link  302 at Thu Apr  2 13:33:47 2026, MaxMem=  2147483648 cpu:               0.8 elap:               0.1
 (Enter /Users/yarger/Applications/g16/l303.exe)
 DipDrv:  MaxL=1.
 Leave Link  303 at Thu Apr  2 13:33:47 2026, MaxMem=  2147483648 cpu:               0.1 elap:               0.0
 (Enter /Users/yarger/Applications/g16/l401.exe)
 Initial guess from the checkpoint file:  "2223Tetrafluoropropene_Opt_Freq_DFT_B3LYP_631pd_Gaussian16.chk"
 B after Tr=     0.000000    0.000000   -0.000000
         Rot=    0.998848   -0.047906   -0.000802    0.002642 Ang=  -5.50 deg.
 Guess basis will be translated and rotated to current coordinates.
 JPrj=2 DoOrth=T DoCkMO=T.
 Generating alternative initial guess.
 ExpMin= 4.38D-02 ExpMax= 7.00D+03 ExpMxC= 1.05D+03 IAcc=2 IRadAn=         4 AccDes= 0.00D+00
 Harris functional with IExCor=  402 and IRadAn=       4 diagonalized for initial guess.
 HarFok:  IExCor=  402 AccDes= 0.00D+00 IRadAn=         4 IDoV= 1 UseB2=F ITyADJ=14
 ICtDFT=  3500011 ScaDFX=  1.000000  1.000000  1.000000  1.000000
 FoFCou: FMM=F IPFlag=           0 FMFlag=      100000 FMFlg1=           0
         NFxFlg=           0 DoJE=T BraDBF=F KetDBF=T FulRan=T
         wScrn=  0.000000 ICntrl=       500 IOpCl=  0 I1Cent=   200000004 NGrid=           0
         NMat0=    1 NMatS0=      1 NMatT0=    0 NMatD0=    1 NMtDS0=    0 NMtDT0=    0
 Petite list used in FoFCou.
 Harris En= -514.875793670021    
 Leave Link  401 at Thu Apr  2 13:33:47 2026, MaxMem=  2147483648 cpu:               1.7 elap:               0.3
 (Enter /Users/yarger/Applications/g16/l502.exe)
 Keep R1 ints in memory in canonical form, NReq=52385408.
 FoFCou: FMM=F IPFlag=           0 FMFlag=           0 FMFlg1=           0
         NFxFlg=           0 DoJE=F BraDBF=F KetDBF=F FulRan=T
         wScrn=  0.000000 ICntrl=       600 IOpCl=  0 I1Cent=           0 NGrid=           0
         NMat0=    1 NMatS0=   9453 NMatT0=    0 NMatD0=    1 NMtDS0=    0 NMtDT0=    0
 Symmetry not used in FoFCou.
 Two-electron integral symmetry not used.
 Closed shell SCF:
 Using DIIS extrapolation, IDIIS=  1040.
 NGot=  2147483648 LenX=  2102759234 LenY=  2102740024
 Requested convergence on RMS density matrix=1.00D-08 within 128 cycles.
 Requested convergence on MAX density matrix=1.00D-06.
 Requested convergence on             energy=1.00D-06.
 No special actions if energy rises.

 Cycle   1  Pass 1  IDiag  1:
 E= -514.880614616521    
 DIIS: error= 5.15D-03 at cycle   1 NSaved=   1.
 NSaved= 1 IEnMin= 1 EnMin= -514.880614616521     IErMin= 1 ErrMin= 5.15D-03
 ErrMax= 5.15D-03  0.00D+00 EMaxC= 1.00D-01 BMatC= 5.39D-03 BMatP= 5.39D-03
 IDIUse=3 WtCom= 9.49D-01 WtEn= 5.15D-02
 Coeff-Com:  0.100D+01
 Coeff-En:   0.100D+01
 Coeff:      0.100D+01
 Gap=     0.679 Goal=   None    Shift=    0.000
 GapD=    0.679 DampG=2.000 DampE=1.000 DampFc=2.0000 IDamp=-1.
 RMSDP=1.12D-03 MaxDP=2.19D-02              OVMax= 3.82D-02

 Cycle   2  Pass 1  IDiag  1:
 E= -514.890760683273     Delta-E=       -0.010146066752 Rises=F Damp=F
 DIIS: error= 5.90D-04 at cycle   2 NSaved=   2.
 NSaved= 2 IEnMin= 2 EnMin= -514.890760683273     IErMin= 2 ErrMin= 5.90D-04
 ErrMax= 5.90D-04  0.00D+00 EMaxC= 1.00D-01 BMatC= 9.26D-05 BMatP= 5.39D-03
 IDIUse=3 WtCom= 9.94D-01 WtEn= 5.90D-03
 Coeff-Com: -0.609D-01 0.106D+01
 Coeff-En:   0.000D+00 0.100D+01
 Coeff:     -0.605D-01 0.106D+01
 Gap=     0.264 Goal=   None    Shift=    0.000
 RMSDP=2.33D-04 MaxDP=7.14D-03 DE=-1.01D-02 OVMax= 5.01D-03

 Cycle   3  Pass 1  IDiag  1:
 E= -514.890870323615     Delta-E=       -0.000109640343 Rises=F Damp=F
 DIIS: error= 3.98D-04 at cycle   3 NSaved=   3.
 NSaved= 3 IEnMin= 3 EnMin= -514.890870323615     IErMin= 3 ErrMin= 3.98D-04
 ErrMax= 3.98D-04  0.00D+00 EMaxC= 1.00D-01 BMatC= 6.72D-05 BMatP= 9.26D-05
 IDIUse=3 WtCom= 9.96D-01 WtEn= 3.98D-03
 Coeff-Com: -0.400D-01 0.520D+00 0.520D+00
 Coeff-En:   0.000D+00 0.000D+00 0.100D+01
 Coeff:     -0.398D-01 0.518D+00 0.522D+00
 Gap=     0.263 Goal=   None    Shift=    0.000
 RMSDP=5.51D-05 MaxDP=1.33D-03 DE=-1.10D-04 OVMax= 1.25D-03

 Cycle   4  Pass 1  IDiag  1:
 E= -514.890908920137     Delta-E=       -0.000038596521 Rises=F Damp=F
 DIIS: error= 1.59D-04 at cycle   4 NSaved=   4.
 NSaved= 4 IEnMin= 4 EnMin= -514.890908920137     IErMin= 4 ErrMin= 1.59D-04
 ErrMax= 1.59D-04  0.00D+00 EMaxC= 1.00D-01 BMatC= 8.03D-06 BMatP= 6.72D-05
 IDIUse=3 WtCom= 9.98D-01 WtEn= 1.59D-03
 Coeff-Com: -0.116D-01 0.132D+00 0.281D+00 0.599D+00
 Coeff-En:   0.000D+00 0.000D+00 0.519D-01 0.948D+00
 Coeff:     -0.116D-01 0.131D+00 0.281D+00 0.599D+00
 Gap=     0.263 Goal=   None    Shift=    0.000
 RMSDP=2.04D-05 MaxDP=4.66D-04 DE=-3.86D-05 OVMax= 5.01D-04

 Cycle   5  Pass 1  IDiag  1:
 E= -514.890914194539     Delta-E=       -0.000005274402 Rises=F Damp=F
 DIIS: error= 2.55D-05 at cycle   5 NSaved=   5.
 NSaved= 5 IEnMin= 5 EnMin= -514.890914194539     IErMin= 5 ErrMin= 2.55D-05
 ErrMax= 2.55D-05  0.00D+00 EMaxC= 1.00D-01 BMatC= 2.09D-07 BMatP= 8.03D-06
 IDIUse=1 WtCom= 1.00D+00 WtEn= 0.00D+00
 Coeff-Com: -0.598D-03 0.927D-03 0.482D-01 0.194D+00 0.757D+00
 Coeff:     -0.598D-03 0.927D-03 0.482D-01 0.194D+00 0.757D+00
 Gap=     0.263 Goal=   None    Shift=    0.000
 RMSDP=6.74D-06 MaxDP=1.94D-04 DE=-5.27D-06 OVMax= 1.70D-04

 Cycle   6  Pass 1  IDiag  1:
 E= -514.890914355228     Delta-E=       -0.000000160689 Rises=F Damp=F
 DIIS: error= 1.33D-05 at cycle   6 NSaved=   6.
 NSaved= 6 IEnMin= 6 EnMin= -514.890914355228     IErMin= 6 ErrMin= 1.33D-05
 ErrMax= 1.33D-05  0.00D+00 EMaxC= 1.00D-01 BMatC= 5.01D-08 BMatP= 2.09D-07
 IDIUse=1 WtCom= 1.00D+00 WtEn= 0.00D+00
 Coeff-Com:  0.420D-03-0.863D-02 0.753D-02 0.657D-01 0.408D+00 0.527D+00
 Coeff:      0.420D-03-0.863D-02 0.753D-02 0.657D-01 0.408D+00 0.527D+00
 Gap=     0.263 Goal=   None    Shift=    0.000
 RMSDP=1.78D-06 MaxDP=4.46D-05 DE=-1.61D-07 OVMax= 8.63D-05

 Cycle   7  Pass 1  IDiag  1:
 E= -514.890914390726     Delta-E=       -0.000000035498 Rises=F Damp=F
 DIIS: error= 3.83D-06 at cycle   7 NSaved=   7.
 NSaved= 7 IEnMin= 7 EnMin= -514.890914390726     IErMin= 7 ErrMin= 3.83D-06
 ErrMax= 3.83D-06  0.00D+00 EMaxC= 1.00D-01 BMatC= 4.93D-09 BMatP= 5.01D-08
 IDIUse=1 WtCom= 1.00D+00 WtEn= 0.00D+00
 Coeff-Com:  0.269D-03-0.464D-02-0.171D-02 0.113D-01 0.121D+00 0.280D+00
 Coeff-Com:  0.593D+00
 Coeff:      0.269D-03-0.464D-02-0.171D-02 0.113D-01 0.121D+00 0.280D+00
 Coeff:      0.593D+00
 Gap=     0.263 Goal=   None    Shift=    0.000
 RMSDP=6.88D-07 MaxDP=2.12D-05 DE=-3.55D-08 OVMax= 3.97D-05

 Cycle   8  Pass 1  IDiag  1:
 E= -514.890914394385     Delta-E=       -0.000000003659 Rises=F Damp=F
 DIIS: error= 1.50D-06 at cycle   8 NSaved=   8.
 NSaved= 8 IEnMin= 8 EnMin= -514.890914394385     IErMin= 8 ErrMin= 1.50D-06
 ErrMax= 1.50D-06  0.00D+00 EMaxC= 1.00D-01 BMatC= 5.59D-10 BMatP= 4.93D-09
 IDIUse=1 WtCom= 1.00D+00 WtEn= 0.00D+00
 Coeff-Com:  0.110D-03-0.176D-02-0.161D-02 0.406D-03 0.290D-01 0.105D+00
 Coeff-Com:  0.326D+00 0.543D+00
 Coeff:      0.110D-03-0.176D-02-0.161D-02 0.406D-03 0.290D-01 0.105D+00
 Coeff:      0.326D+00 0.543D+00
 Gap=     0.263 Goal=   None    Shift=    0.000
 RMSDP=2.12D-07 MaxDP=8.74D-06 DE=-3.66D-09 OVMax= 1.42D-05

 Cycle   9  Pass 1  IDiag  1:
 E= -514.890914394906     Delta-E=       -0.000000000522 Rises=F Damp=F
 DIIS: error= 3.79D-07 at cycle   9 NSaved=   9.
 NSaved= 9 IEnMin= 9 EnMin= -514.890914394906     IErMin= 9 ErrMin= 3.79D-07
 ErrMax= 3.79D-07  0.00D+00 EMaxC= 1.00D-01 BMatC= 3.69D-11 BMatP= 5.59D-10
 IDIUse=1 WtCom= 1.00D+00 WtEn= 0.00D+00
 Coeff-Com:  0.206D-04-0.275D-03-0.583D-03-0.119D-02-0.542D-03 0.181D-01
 Coeff-Com:  0.878D-01 0.253D+00 0.644D+00
 Coeff:      0.206D-04-0.275D-03-0.583D-03-0.119D-02-0.542D-03 0.181D-01
 Coeff:      0.878D-01 0.253D+00 0.644D+00
 Gap=     0.263 Goal=   None    Shift=    0.000
 RMSDP=5.11D-08 MaxDP=2.06D-06 DE=-5.22D-10 OVMax= 3.78D-06

 Cycle  10  Pass 1  IDiag  1:
 E= -514.890914394946     Delta-E=       -0.000000000039 Rises=F Damp=F
 DIIS: error= 1.32D-07 at cycle  10 NSaved=  10.
 NSaved=10 IEnMin=10 EnMin= -514.890914394946     IErMin=10 ErrMin= 1.32D-07
 ErrMax= 1.32D-07  0.00D+00 EMaxC= 1.00D-01 BMatC= 6.15D-12 BMatP= 3.69D-11
 IDIUse=1 WtCom= 1.00D+00 WtEn= 0.00D+00
 Coeff-Com: -0.304D-05 0.883D-04-0.104D-03-0.748D-03-0.429D-02-0.420D-02
 Coeff-Com:  0.602D-02 0.668D-01 0.352D+00 0.584D+00
 Coeff:     -0.304D-05 0.883D-04-0.104D-03-0.748D-03-0.429D-02-0.420D-02
 Coeff:      0.602D-02 0.668D-01 0.352D+00 0.584D+00
 Gap=     0.263 Goal=   None    Shift=    0.000
 RMSDP=1.88D-08 MaxDP=6.11D-07 DE=-3.91D-11 OVMax= 1.04D-06

 Cycle  11  Pass 1  IDiag  1:
 E= -514.890914394939     Delta-E=        0.000000000006 Rises=F Damp=F
 DIIS: error= 2.16D-08 at cycle  11 NSaved=  11.
 NSaved=11 IEnMin=10 EnMin= -514.890914394946     IErMin=11 ErrMin= 2.16D-08
 ErrMax= 2.16D-08  0.00D+00 EMaxC= 1.00D-01 BMatC= 9.56D-14 BMatP= 6.15D-12
 IDIUse=1 WtCom= 1.00D+00 WtEn= 0.00D+00
 Coeff-Com: -0.184D-05 0.442D-04-0.214D-04-0.263D-03-0.167D-02-0.220D-02
 Coeff-Com: -0.288D-03 0.185D-01 0.118D+00 0.228D+00 0.640D+00
 Coeff:     -0.184D-05 0.442D-04-0.214D-04-0.263D-03-0.167D-02-0.220D-02
 Coeff:     -0.288D-03 0.185D-01 0.118D+00 0.228D+00 0.640D+00
 Gap=     0.263 Goal=   None    Shift=    0.000
 RMSDP=3.27D-09 MaxDP=6.43D-08 DE= 6.37D-12 OVMax= 6.73D-08

 SCF Done:  E(RB3LYP) =  -514.890914395     A.U. after   11 cycles
            NFock= 11  Conv=0.33D-08     -V/T= 2.0080
 KE= 5.108042479377D+02 PE=-1.879548542389D+03 EE= 5.230635657360D+02
 Leave Link  502 at Thu Apr  2 13:33:50 2026, MaxMem=  2147483648 cpu:              21.6 elap:               3.0
 (Enter /Users/yarger/Applications/g16/l701.exe)
 ... and contract with generalized density number  0.
 Compute integral first derivatives.
 Leave Link  701 at Thu Apr  2 13:33:50 2026, MaxMem=  2147483648 cpu:               0.5 elap:               0.1
 (Enter /Users/yarger/Applications/g16/l702.exe)
 L702 exits ... SP integral derivatives will be done elsewhere.
 Leave Link  702 at Thu Apr  2 13:33:50 2026, MaxMem=  2147483648 cpu:               0.1 elap:               0.0
 (Enter /Users/yarger/Applications/g16/l703.exe)
 Integral derivatives from FoFJK, PRISM(SPDF).
 Compute integral first derivatives, UseDBF=F ICtDFT=           0.
 Calling FoFJK, ICntrl=      2127 FMM=F ISym2X=0 I1Cent= 0 IOpClX= 0 NMat=1 NMatS=1 NMatT=0.
 FoFJK:  IHMeth= 1 ICntrl=    2127 DoSepK=F KAlg= 0 I1Cent=           0 FoldK=F
 IRaf=         0 NMat=       1 IRICut=       1 DoRegI=T DoRafI=F ISym2E= 0 IDoP0=0 IntGTp=1.
 FoFCou: FMM=F IPFlag=           0 FMFlag=      100000 FMFlg1=         800
         NFxFlg=           0 DoJE=F BraDBF=F KetDBF=F FulRan=T
         wScrn=  0.000000 ICntrl=      2127 IOpCl=  0 I1Cent=           0 NGrid=           0
         NMat0=    1 NMatS0=      1 NMatT0=    0 NMatD0=    1 NMtDS0=    0 NMtDT0=    0
 Symmetry not used in FoFCou.
 Leave Link  703 at Thu Apr  2 13:33:51 2026, MaxMem=  2147483648 cpu:               6.4 elap:               0.9
 (Enter /Users/yarger/Applications/g16/l716.exe)
 Dipole        = 6.90878846D-01-6.70766549D-01 2.53938785D-03
 ***** Axes restored to original set *****
 -------------------------------------------------------------------
 Center     Atomic                   Forces (Hartrees/Bohr)
 Number     Number              X              Y              Z
 -------------------------------------------------------------------
      1        6          -0.000003863    0.000748317   -0.000209942
      2        1          -0.000057974   -0.000219404    0.000450657
      3        1          -0.000088315   -0.000156550   -0.000233826
      4        6           0.001374014   -0.001330924    0.000293546
      5        6          -0.000200985   -0.000793190   -0.000113968
      6        9           0.000479752   -0.000342839    0.000258857
      7        9           0.000109997    0.000403464   -0.000702351
      8        9          -0.000624079    0.000562723   -0.000354978
      9        9          -0.000988546    0.001128402    0.000612004
 -------------------------------------------------------------------
 Cartesian Forces:  Max     0.001374014 RMS     0.000605949
 Leave Link  716 at Thu Apr  2 13:33:51 2026, MaxMem=  2147483648 cpu:               0.1 elap:               0.0
 (Enter /Users/yarger/Applications/g16/l103.exe)

 GradGradGradGradGradGradGradGradGradGradGradGradGradGradGradGradGradGrad
 Berny optimization.
 Using GEDIIS/GDIIS optimizer.
 FormGI is forming the generalized inverse of G from B-inverse, IUseBI=4.
 Internal  Forces:  Max     0.001537817 RMS     0.000509070
 Search for a local minimum.
 Step number  20 out of a maximum of   40
 All quantities printed in internal units (Hartrees-Bohrs-Radians)
 RMS Force = .50907D-03 SwitMx=.10000D-02 MixMth= 2
 Mixed Optimization -- En-DIIS/RFO-DIIS
 Update second derivatives using D2CorX and points   18   17   19   20
 DE= -3.30D-04 DEPred=-3.98D-04 R= 8.31D-01
 TightC=F SS=  1.41D+00  RLast= 3.63D-01 DXNew= 1.8296D+00 1.0880D+00
 Trust test= 8.31D-01 RLast= 3.63D-01 DXMaxT set to 1.09D+00
 ITU=  1  0 -1  1  0  1  0  1  0  0  0  0  0  0  0  1  1  1  1  0
 Use linear search instead of GDIIS.
     Eigenvalues ---    0.00197   0.01804   0.02765   0.03137   0.09966
     Eigenvalues ---    0.10746   0.11899   0.14450   0.19667   0.24637
     Eigenvalues ---    0.25106   0.26676   0.31189   0.35215   0.35499
     Eigenvalues ---    0.37025   0.40795   0.44202   0.56293   0.60186
     Eigenvalues ---    0.72502
 RFO step:  Lambda=-5.29636158D-05 EMin= 1.96648723D-03
 Quartic linear search produced a step of -0.11873.
 Iteration  1 RMS(Cart)=  0.02487416 RMS(Int)=  0.00027663
 Iteration  2 RMS(Cart)=  0.00029763 RMS(Int)=  0.00000803
 Iteration  3 RMS(Cart)=  0.00000003 RMS(Int)=  0.00000803
 ITry= 1 IFail=0 DXMaxC= 6.39D-02 DCOld= 1.00D+10 DXMaxT= 1.09D+00 DXLimC= 3.00D+00 Rises=F
 Variable       Old X    -DE/DX   Delta X   Delta X   Delta X     New X
                                 (Linear)    (Quad)   (Total)
    R1        2.04599   0.00002  -0.00003  -0.00032  -0.00035   2.04564
    R2        2.04945  -0.00004  -0.00008   0.00027   0.00019   2.04964
    R3        2.50314   0.00018  -0.00027   0.00120   0.00093   2.50407
    R4        2.85020   0.00016  -0.00070   0.00212   0.00142   2.85162
    R5        2.55635  -0.00154  -0.00256  -0.00071  -0.00327   2.55308
    R6        2.55392   0.00025   0.00076   0.00083   0.00160   2.55551
    R7        2.55027  -0.00002  -0.00095   0.00087  -0.00008   2.55019
    R8        2.55436   0.00055  -0.00035   0.00120   0.00085   2.55521
    A1        2.07666   0.00023   0.00076   0.00100   0.00175   2.07841
    A2        2.10131   0.00005   0.00019   0.00237   0.00255   2.10386
    A3        2.10519  -0.00028  -0.00095  -0.00331  -0.00427   2.10091
    A4        2.21198   0.00012  -0.00026   0.00067   0.00043   2.21241
    A5        2.13397   0.00059   0.00027   0.00200   0.00229   2.13626
    A6        1.93723  -0.00071  -0.00009  -0.00264  -0.00271   1.93452
    A7        1.94430  -0.00088  -0.00045  -0.00134  -0.00178   1.94252
    A8        1.94205  -0.00042  -0.00131   0.00107  -0.00023   1.94182
    A9        1.93848   0.00088  -0.00095   0.00424   0.00328   1.94176
   A10        1.88044   0.00079  -0.00078   0.00396   0.00319   1.88364
   A11        1.86886   0.00039   0.00147  -0.00101   0.00046   1.86932
   A12        1.88665  -0.00073   0.00217  -0.00718  -0.00500   1.88165
    D1       -0.01327   0.00050  -0.00194   0.01816   0.01622   0.00295
    D2        3.13203   0.00038   0.00263   0.00966   0.01228  -3.13888
    D3        3.13704   0.00020  -0.00387   0.00986   0.00599  -3.14015
    D4       -0.00085   0.00007   0.00070   0.00136   0.00205   0.00120
    D5       -2.12675   0.00017   0.02030   0.01734   0.03765  -2.08910
    D6       -0.02797   0.00029   0.01815   0.02219   0.04034   0.01236
    D7        2.07473  -0.00032   0.01938   0.01668   0.03606   2.11079
    D8        1.01150   0.00029   0.01617   0.02505   0.04122   1.05271
    D9        3.11027   0.00041   0.01402   0.02989   0.04391  -3.12901
   D10       -1.07021  -0.00021   0.01525   0.02439   0.03963  -1.03058
         Item               Value     Threshold  Converged?
 Maximum Force            0.001538     0.000015     NO 
 RMS     Force            0.000509     0.000010     NO 
 Maximum Displacement     0.063851     0.000060     NO 
 RMS     Displacement     0.024873     0.000040     NO 
 Predicted change in Energy=-3.207268D-05
 Lowest energy point so far.  Saving SCF results.
 GradGradGradGradGradGradGradGradGradGradGradGradGradGradGradGradGradGrad

 Leave Link  103 at Thu Apr  2 13:33:51 2026, MaxMem=  2147483648 cpu:               0.1 elap:               0.0
 (Enter /Users/yarger/Applications/g16/l202.exe)
                          Input orientation:                          
 ---------------------------------------------------------------------
 Center     Atomic      Atomic             Coordinates (Angstroms)
 Number     Number       Type             X           Y           Z
 ---------------------------------------------------------------------
      1          6           0        1.748349    1.032345    0.226529
      2          1           0        1.360179    1.926189    0.697898
      3          1           0        2.819121    0.933619    0.084731
      4          6           0        0.928340    0.070285   -0.170852
      5          6           0       -0.575575    0.057303   -0.047581
      6          9           0       -0.997982   -0.985960    0.702047
      7          9           0       -1.029308    1.191479    0.525944
      8          9           0       -1.165686   -0.058473   -1.258655
      9          9           0        1.372081   -1.061622   -0.760064
 ---------------------------------------------------------------------
                    Distance matrix (angstroms):
                    1          2          3          4          5
     1  C    0.000000
     2  H    1.082507   0.000000
     3  H    1.084622   1.868068   0.000000
     4  C    1.325098   2.094180   2.094211   0.000000
     5  C    2.535048   2.792063   3.508475   1.509015   0.000000
     6  F    3.441222   3.747206   4.316959   2.363964   1.352319
     7  F    2.798277   2.505797   3.882212   2.361142   1.349503
     8  F    3.447790   3.761246   4.320604   2.363227   1.352160
     9  F    2.345132   3.324577   2.605492   1.351034   2.356479
                    6          7          8          9
     6  F    0.000000
     7  F    2.184773   0.000000
     8  F    2.175479   2.183065   0.000000
     9  F    2.785803   3.535104   2.774016   0.000000
 Stoichiometry    C3H2F4
 Framework group  C1[X(C3H2F4)]
 Deg. of freedom    21
 Full point group                 C1      NOp   1
 RotChk:  IX=1 Diff= 1.92D-02
 Largest Abelian subgroup         C1      NOp   1
 Largest concise Abelian subgroup C1      NOp   1
                         Standard orientation:                         
 ---------------------------------------------------------------------
 Center     Atomic      Atomic             Coordinates (Angstroms)
 Number     Number       Type             X           Y           Z
 ---------------------------------------------------------------------
      1          6           0        1.729731   -1.078288   -0.000810
      2          1           0        1.324385   -2.082033   -0.004166
      3          1           0        2.806050   -0.944350    0.000698
      4          6           0        0.923667   -0.026553   -0.000274
      5          6           0       -0.585233   -0.045134   -0.000403
      6          9           0       -1.083988    0.573585   -1.094568
      7          9           0       -1.059006   -1.308653    0.014390
      8          9           0       -1.083439    0.596066    1.080795
      9          9           0        1.388720    1.241917    0.000761
 ---------------------------------------------------------------------
 Rotational constants (GHZ):           3.6593741           2.4300406           1.9728967
 Leave Link  202 at Thu Apr  2 13:33:51 2026, MaxMem=  2147483648 cpu:               0.0 elap:               0.0
 (Enter /Users/yarger/Applications/g16/l301.exe)
 Standard basis: 6-31+G(d) (6D, 7F)
 Ernie: Thresh=  0.10000D-02 Tol=  0.10000D-05 Strict=F.
 There are   137 symmetry adapted cartesian basis functions of A   symmetry.
 There are   137 symmetry adapted basis functions of A   symmetry.
   137 basis functions,   232 primitive gaussians,   137 cartesian basis functions
    28 alpha electrons       28 beta electrons
       nuclear repulsion energy       330.7714385425 Hartrees.
 IExCor=  402 DFT=T Ex+Corr=B3LYP ExCW=0 ScaHFX=  0.200000
 ScaDFX=  0.800000  0.720000  1.000000  0.810000 ScalE2=  1.000000  1.000000
 IRadAn=      5 IRanWt=     -1 IRanGd=            0 ICorTp=0 IEmpDi=  4
 NAtoms=    9 NActive=    9 NUniq=    9 SFac= 1.00D+00 NAtFMM=   60 NAOKFM=F Big=F
 Integral buffers will be    131072 words long.
 Raffenetti 2 integral format.
 Two-electron integral symmetry is turned on.
 Leave Link  301 at Thu Apr  2 13:33:51 2026, MaxMem=  2147483648 cpu:               0.1 elap:               0.0
 (Enter /Users/yarger/Applications/g16/l302.exe)
 NPDir=0 NMtPBC=     1 NCelOv=     1 NCel=       1 NClECP=     1 NCelD=      1
         NCelK=      1 NCelE2=     1 NClLst=     1 CellRange=     0.0.
 One-electron integrals computed using PRISM.
 One-electron integral symmetry used in STVInt
 NBasis=   137 RedAO= T EigKep=  6.96D-05  NBF=   137
 NBsUse=   137 1.00D-06 EigRej= -1.00D+00 NBFU=   137
 Precomputing XC quadrature grid using
 IXCGrd= 4 IRadAn=           5 IRanWt=          -1 IRanGd=           0 AccXCQ= 0.00D+00.
 Generated NRdTot=       0 NPtTot=           0 NUsed=           0 NTot=          32
 NSgBfM=   137   137   137   137   137 MxSgAt=     9 MxSgA2=     9.
 Leave Link  302 at Thu Apr  2 13:33:52 2026, MaxMem=  2147483648 cpu:               0.8 elap:               0.1
 (Enter /Users/yarger/Applications/g16/l303.exe)
 DipDrv:  MaxL=1.
 Leave Link  303 at Thu Apr  2 13:33:52 2026, MaxMem=  2147483648 cpu:               0.1 elap:               0.0
 (Enter /Users/yarger/Applications/g16/l401.exe)
 Initial guess from the checkpoint file:  "2223Tetrafluoropropene_Opt_Freq_DFT_B3LYP_631pd_Gaussian16.chk"
 B after Tr=     0.000000    0.000000    0.000000
         Rot=    0.999938    0.011018    0.000738   -0.001042 Ang=   1.27 deg.
 Guess basis will be translated and rotated to current coordinates.
 JPrj=2 DoOrth=T DoCkMO=T.
 Generating alternative initial guess.
 ExpMin= 4.38D-02 ExpMax= 7.00D+03 ExpMxC= 1.05D+03 IAcc=2 IRadAn=         4 AccDes= 0.00D+00
 Harris functional with IExCor=  402 and IRadAn=       4 diagonalized for initial guess.
 HarFok:  IExCor=  402 AccDes= 0.00D+00 IRadAn=         4 IDoV= 1 UseB2=F ITyADJ=14
 ICtDFT=  3500011 ScaDFX=  1.000000  1.000000  1.000000  1.000000
 FoFCou: FMM=F IPFlag=           0 FMFlag=      100000 FMFlg1=           0
         NFxFlg=           0 DoJE=T BraDBF=F KetDBF=T FulRan=T
         wScrn=  0.000000 ICntrl=       500 IOpCl=  0 I1Cent=   200000004 NGrid=           0
         NMat0=    1 NMatS0=      1 NMatT0=    0 NMatD0=    1 NMtDS0=    0 NMtDT0=    0
 Petite list used in FoFCou.
 Harris En= -514.875807391651    
 Leave Link  401 at Thu Apr  2 13:33:52 2026, MaxMem=  2147483648 cpu:               1.5 elap:               0.2
 (Enter /Users/yarger/Applications/g16/l502.exe)
 Keep R1 ints in memory in canonical form, NReq=52385408.
 FoFCou: FMM=F IPFlag=           0 FMFlag=           0 FMFlg1=           0
         NFxFlg=           0 DoJE=F BraDBF=F KetDBF=F FulRan=T
         wScrn=  0.000000 ICntrl=       600 IOpCl=  0 I1Cent=           0 NGrid=           0
         NMat0=    1 NMatS0=   9453 NMatT0=    0 NMatD0=    1 NMtDS0=    0 NMtDT0=    0
 Symmetry not used in FoFCou.
 Two-electron integral symmetry not used.
 Closed shell SCF:
 Using DIIS extrapolation, IDIIS=  1040.
 NGot=  2147483648 LenX=  2102759234 LenY=  2102740024
 Requested convergence on RMS density matrix=1.00D-08 within 128 cycles.
 Requested convergence on MAX density matrix=1.00D-06.
 Requested convergence on             energy=1.00D-06.
 No special actions if energy rises.

 Cycle   1  Pass 1  IDiag  1:
 E= -514.890084183989    
 DIIS: error= 1.25D-03 at cycle   1 NSaved=   1.
 NSaved= 1 IEnMin= 1 EnMin= -514.890084183989     IErMin= 1 ErrMin= 1.25D-03
 ErrMax= 1.25D-03  0.00D+00 EMaxC= 1.00D-01 BMatC= 4.41D-04 BMatP= 4.41D-04
 IDIUse=3 WtCom= 9.87D-01 WtEn= 1.25D-02
 Coeff-Com:  0.100D+01
 Coeff-En:   0.100D+01
 Coeff:      0.100D+01
 Gap=     0.679 Goal=   None    Shift=    0.000
 GapD=    0.679 DampG=2.000 DampE=1.000 DampFc=2.0000 IDamp=-1.
 RMSDP=2.83D-04 MaxDP=5.77D-03              OVMax= 9.93D-03

 Cycle   2  Pass 1  IDiag  1:
 E= -514.890925378781     Delta-E=       -0.000841194792 Rises=F Damp=F
 DIIS: error= 1.60D-04 at cycle   2 NSaved=   2.
 NSaved= 2 IEnMin= 2 EnMin= -514.890925378781     IErMin= 2 ErrMin= 1.60D-04
 ErrMax= 1.60D-04  0.00D+00 EMaxC= 1.00D-01 BMatC= 6.39D-06 BMatP= 4.41D-04
 IDIUse=3 WtCom= 9.98D-01 WtEn= 1.60D-03
 Coeff-Com: -0.689D-01 0.107D+01
 Coeff-En:   0.000D+00 0.100D+01
 Coeff:     -0.688D-01 0.107D+01
 Gap=     0.263 Goal=   None    Shift=    0.000
 RMSDP=7.16D-05 MaxDP=2.32D-03 DE=-8.41D-04 OVMax= 1.57D-03

 Cycle   3  Pass 1  IDiag  1:
 E= -514.890936771122     Delta-E=       -0.000011392341 Rises=F Damp=F
 DIIS: error= 7.34D-05 at cycle   3 NSaved=   3.
 NSaved= 3 IEnMin= 3 EnMin= -514.890936771122     IErMin= 3 ErrMin= 7.34D-05
 ErrMax= 7.34D-05  0.00D+00 EMaxC= 1.00D-01 BMatC= 1.04D-06 BMatP= 6.39D-06
 IDIUse=1 WtCom= 1.00D+00 WtEn= 0.00D+00
 Coeff-Com: -0.265D-01 0.319D+00 0.707D+00
 Coeff:     -0.265D-01 0.319D+00 0.707D+00
 Gap=     0.263 Goal=   None    Shift=    0.000
 RMSDP=1.69D-05 MaxDP=5.41D-04 DE=-1.14D-05 OVMax= 3.96D-04

 Cycle   4  Pass 1  IDiag  1:
 E= -514.890937631363     Delta-E=       -0.000000860241 Rises=F Damp=F
 DIIS: error= 3.38D-05 at cycle   4 NSaved=   4.
 NSaved= 4 IEnMin= 4 EnMin= -514.890937631363     IErMin= 4 ErrMin= 3.38D-05
 ErrMax= 3.38D-05  0.00D+00 EMaxC= 1.00D-01 BMatC= 2.52D-07 BMatP= 1.04D-06
 IDIUse=1 WtCom= 1.00D+00 WtEn= 0.00D+00
 Coeff-Com: -0.994D-02 0.110D+00 0.363D+00 0.537D+00
 Coeff:     -0.994D-02 0.110D+00 0.363D+00 0.537D+00
 Gap=     0.263 Goal=   None    Shift=    0.000
 RMSDP=3.57D-06 MaxDP=8.83D-05 DE=-8.60D-07 OVMax= 1.13D-04

 Cycle   5  Pass 1  IDiag  1:
 E= -514.890937785573     Delta-E=       -0.000000154210 Rises=F Damp=F
 DIIS: error= 1.19D-05 at cycle   5 NSaved=   5.
 NSaved= 5 IEnMin= 5 EnMin= -514.890937785573     IErMin= 5 ErrMin= 1.19D-05
 ErrMax= 1.19D-05  0.00D+00 EMaxC= 1.00D-01 BMatC= 3.25D-08 BMatP= 2.52D-07
 IDIUse=1 WtCom= 1.00D+00 WtEn= 0.00D+00
 Coeff-Com:  0.842D-04-0.708D-02 0.581D-01 0.283D+00 0.666D+00
 Coeff:      0.842D-04-0.708D-02 0.581D-01 0.283D+00 0.666D+00
 Gap=     0.263 Goal=   None    Shift=    0.000
 RMSDP=1.63D-06 MaxDP=4.41D-05 DE=-1.54D-07 OVMax= 4.96D-05

 Cycle   6  Pass 1  IDiag  1:
 E= -514.890937808307     Delta-E=       -0.000000022734 Rises=F Damp=F
 DIIS: error= 1.52D-06 at cycle   6 NSaved=   6.
 NSaved= 6 IEnMin= 6 EnMin= -514.890937808307     IErMin= 6 ErrMin= 1.52D-06
 ErrMax= 1.52D-06  0.00D+00 EMaxC= 1.00D-01 BMatC= 6.64D-10 BMatP= 3.25D-08
 IDIUse=1 WtCom= 1.00D+00 WtEn= 0.00D+00
 Coeff-Com:  0.366D-03-0.699D-02 0.545D-02 0.722D-01 0.216D+00 0.713D+00
 Coeff:      0.366D-03-0.699D-02 0.545D-02 0.722D-01 0.216D+00 0.713D+00
 Gap=     0.263 Goal=   None    Shift=    0.000
 RMSDP=3.35D-07 MaxDP=9.05D-06 DE=-2.27D-08 OVMax= 1.84D-05

 Cycle   7  Pass 1  IDiag  1:
 E= -514.890937808586     Delta-E=       -0.000000000279 Rises=F Damp=F
 DIIS: error= 1.14D-06 at cycle   7 NSaved=   7.
 NSaved= 7 IEnMin= 7 EnMin= -514.890937808586     IErMin= 7 ErrMin= 1.14D-06
 ErrMax= 1.14D-06  0.00D+00 EMaxC= 1.00D-01 BMatC= 3.78D-10 BMatP= 6.64D-10
 IDIUse=1 WtCom= 1.00D+00 WtEn= 0.00D+00
 Coeff-Com:  0.223D-03-0.377D-02-0.204D-02 0.178D-01 0.711D-01 0.455D+00
 Coeff-Com:  0.461D+00
 Coeff:      0.223D-03-0.377D-02-0.204D-02 0.178D-01 0.711D-01 0.455D+00
 Coeff:      0.461D+00
 Gap=     0.263 Goal=   None    Shift=    0.000
 RMSDP=1.41D-07 MaxDP=4.92D-06 DE=-2.79D-10 OVMax= 1.03D-05

 Cycle   8  Pass 1  IDiag  1:
 E= -514.890937808903     Delta-E=       -0.000000000318 Rises=F Damp=F
 DIIS: error= 2.30D-07 at cycle   8 NSaved=   8.
 NSaved= 8 IEnMin= 8 EnMin= -514.890937808903     IErMin= 8 ErrMin= 2.30D-07
 ErrMax= 2.30D-07  0.00D+00 EMaxC= 1.00D-01 BMatC= 1.15D-11 BMatP= 3.78D-10
 IDIUse=1 WtCom= 1.00D+00 WtEn= 0.00D+00
 Coeff-Com:  0.598D-04-0.933D-03-0.135D-02 0.675D-03 0.978D-02 0.134D+00
 Coeff-Com:  0.206D+00 0.651D+00
 Coeff:      0.598D-04-0.933D-03-0.135D-02 0.675D-03 0.978D-02 0.134D+00
 Coeff:      0.206D+00 0.651D+00
 Gap=     0.263 Goal=   None    Shift=    0.000
 RMSDP=3.23D-08 MaxDP=9.13D-07 DE=-3.18D-10 OVMax= 2.10D-06

 Cycle   9  Pass 1  IDiag  1:
 E= -514.890937808908     Delta-E=       -0.000000000005 Rises=F Damp=F
 DIIS: error= 9.95D-08 at cycle   9 NSaved=   9.
 NSaved= 9 IEnMin= 9 EnMin= -514.890937808908     IErMin= 9 ErrMin= 9.95D-08
 ErrMax= 9.95D-08  0.00D+00 EMaxC= 1.00D-01 BMatC= 1.53D-12 BMatP= 1.15D-11
 IDIUse=1 WtCom= 1.00D+00 WtEn= 0.00D+00
 Coeff-Com: -0.611D-06 0.682D-04-0.408D-03-0.226D-02-0.525D-02 0.578D-02
 Coeff-Com:  0.392D-01 0.321D+00 0.642D+00
 Coeff:     -0.611D-06 0.682D-04-0.408D-03-0.226D-02-0.525D-02 0.578D-02
 Coeff:      0.392D-01 0.321D+00 0.642D+00
 Gap=     0.263 Goal=   None    Shift=    0.000
 RMSDP=9.77D-09 MaxDP=2.79D-07 DE=-4.77D-12 OVMax= 5.69D-07

 SCF Done:  E(RB3LYP) =  -514.890937809     A.U. after    9 cycles
            NFock=  9  Conv=0.98D-08     -V/T= 2.0080
 KE= 5.108022654846D+02 PE=-1.879510462846D+03 EE= 5.230458210096D+02
 Leave Link  502 at Thu Apr  2 13:33:54 2026, MaxMem=  2147483648 cpu:              17.9 elap:               2.5
 (Enter /Users/yarger/Applications/g16/l701.exe)
 ... and contract with generalized density number  0.
 Compute integral first derivatives.
 Leave Link  701 at Thu Apr  2 13:33:55 2026, MaxMem=  2147483648 cpu:               0.5 elap:               0.1
 (Enter /Users/yarger/Applications/g16/l702.exe)
 L702 exits ... SP integral derivatives will be done elsewhere.
 Leave Link  702 at Thu Apr  2 13:33:55 2026, MaxMem=  2147483648 cpu:               0.1 elap:               0.0
 (Enter /Users/yarger/Applications/g16/l703.exe)
 Integral derivatives from FoFJK, PRISM(SPDF).
 Compute integral first derivatives, UseDBF=F ICtDFT=           0.
 Calling FoFJK, ICntrl=      2127 FMM=F ISym2X=0 I1Cent= 0 IOpClX= 0 NMat=1 NMatS=1 NMatT=0.
 FoFJK:  IHMeth= 1 ICntrl=    2127 DoSepK=F KAlg= 0 I1Cent=           0 FoldK=F
 IRaf=         0 NMat=       1 IRICut=       1 DoRegI=T DoRafI=F ISym2E= 0 IDoP0=0 IntGTp=1.
 FoFCou: FMM=F IPFlag=           0 FMFlag=      100000 FMFlg1=         800
         NFxFlg=           0 DoJE=F BraDBF=F KetDBF=F FulRan=T
         wScrn=  0.000000 ICntrl=      2127 IOpCl=  0 I1Cent=           0 NGrid=           0
         NMat0=    1 NMatS0=      1 NMatT0=    0 NMatD0=    1 NMtDS0=    0 NMtDT0=    0
 Symmetry not used in FoFCou.
 Leave Link  703 at Thu Apr  2 13:33:56 2026, MaxMem=  2147483648 cpu:               6.5 elap:               0.9
 (Enter /Users/yarger/Applications/g16/l716.exe)
 Dipole        = 6.96566400D-01-6.66380987D-01-1.43091289D-03
 ***** Axes restored to original set *****
 -------------------------------------------------------------------
 Center     Atomic                   Forces (Hartrees/Bohr)
 Number     Number              X              Y              Z
 -------------------------------------------------------------------
      1        6           0.000069718   -0.000409334   -0.000118469
      2        1          -0.000203252    0.000054386   -0.000099135
      3        1          -0.000048533    0.000022488    0.000079587
      4        6           0.000063808    0.000140049    0.000023044
      5        6          -0.000503190   -0.000313498   -0.000382603
      6        9           0.000240981    0.000251993    0.000077570
      7        9           0.000228620    0.000006208    0.000326747
      8        9           0.000296468    0.000009559   -0.000029673
      9        9          -0.000144621    0.000238148    0.000122932
 -------------------------------------------------------------------
 Cartesian Forces:  Max     0.000503190 RMS     0.000214311
 Leave Link  716 at Thu Apr  2 13:33:56 2026, MaxMem=  2147483648 cpu:               0.1 elap:               0.0
 (Enter /Users/yarger/Applications/g16/l103.exe)

 GradGradGradGradGradGradGradGradGradGradGradGradGradGradGradGradGradGrad
 Berny optimization.
 Using GEDIIS/GDIIS optimizer.
 FormGI is forming the generalized inverse of G from B-inverse, IUseBI=4.
 Internal  Forces:  Max     0.000459072 RMS     0.000206988
 Search for a local minimum.
 Step number  21 out of a maximum of   40
 All quantities printed in internal units (Hartrees-Bohrs-Radians)
 RMS Force = .20699D-03 SwitMx=.10000D-02 MixMth= 2
 Mixed Optimization -- En-DIIS/RFO-DIIS
 Swapping is turned off.
 Update second derivatives using D2CorX and points   18   17   19   20   21
 DE= -2.34D-05 DEPred=-3.21D-05 R= 7.30D-01
 TightC=F SS=  1.41D+00  RLast= 1.01D-01 DXNew= 1.8297D+00 3.0154D-01
 Trust test= 7.30D-01 RLast= 1.01D-01 DXMaxT set to 1.09D+00
 ITU=  1  1  0 -1  1  0  1  0  1  0  0  0  0  0  0  0  1  1  1  1
 ITU=  0
     Eigenvalues ---    0.00230   0.01827   0.02937   0.03153   0.10170
     Eigenvalues ---    0.11257   0.12072   0.14452   0.18581   0.24366
     Eigenvalues ---    0.24760   0.26336   0.31064   0.35207   0.35487
     Eigenvalues ---    0.37920   0.41236   0.43888   0.56179   0.60944
     Eigenvalues ---    0.72108
 En-DIIS/RFO-DIIS/Sim-DIIS IScMMF=       -3 using points:    21   20
 RFO step:  Lambda=-8.93105981D-06.
 NNeg= 0 NGDIIS= 2 SimSw=  2.50D-01 Rises=F DC= -2.34D-05 SmlDif=  1.00D-05
 NRisDI= 0 DoIntr=F SqrtH=F CThrHd= 10.0 CDAdj=  3.0
 RMS Error=  0.6620206793D-02 NUsed= 2 OKEnD=T EnDIS=F
 InvSVX:  RCond= 1.12D-02 Info=           0 Equed=N FErr=  1.30D-15 BErr=  7.22D-17
 DidBck=T Rises=F RFO-DIIS coefs:    0.64607    0.35393
 Iteration  1 RMS(Cart)=  0.00881966 RMS(Int)=  0.00003403
 Iteration  2 RMS(Cart)=  0.00003773 RMS(Int)=  0.00000179
 Iteration  3 RMS(Cart)=  0.00000000 RMS(Int)=  0.00000179
 ITry= 1 IFail=0 DXMaxC= 2.19D-02 DCOld= 1.00D+10 DXMaxT= 1.09D+00 DXLimC= 3.00D+00 Rises=F
 Variable       Old X    -DE/DX   Delta X   Delta X   Delta X     New X
                                 (Linear)    (Quad)   (Total)
    R1        2.04564   0.00007   0.00012   0.00012   0.00024   2.04588
    R2        2.04964  -0.00006  -0.00007  -0.00022  -0.00029   2.04935
    R3        2.50407  -0.00040  -0.00033  -0.00013  -0.00046   2.50362
    R4        2.85162  -0.00026  -0.00050   0.00039  -0.00011   2.85151
    R5        2.55308  -0.00030   0.00116  -0.00228  -0.00112   2.55196
    R6        2.55551  -0.00023  -0.00056  -0.00034  -0.00091   2.55461
    R7        2.55019   0.00007   0.00003   0.00013   0.00016   2.55035
    R8        2.55521  -0.00010  -0.00030   0.00012  -0.00018   2.55504
    A1        2.07841   0.00009  -0.00062   0.00187   0.00126   2.07967
    A2        2.10386  -0.00027  -0.00090  -0.00188  -0.00278   2.10108
    A3        2.10091   0.00018   0.00151   0.00000   0.00152   2.10243
    A4        2.21241  -0.00013  -0.00015  -0.00097  -0.00112   2.21128
    A5        2.13626   0.00013  -0.00081   0.00170   0.00089   2.13715
    A6        1.93452   0.00000   0.00096  -0.00073   0.00023   1.93475
    A7        1.94252  -0.00020   0.00063  -0.00186  -0.00123   1.94129
    A8        1.94182  -0.00035   0.00008  -0.00151  -0.00143   1.94039
    A9        1.94176  -0.00027  -0.00116   0.00133   0.00017   1.94194
   A10        1.88364   0.00004  -0.00113   0.00068  -0.00045   1.88318
   A11        1.86932   0.00038  -0.00016   0.00214   0.00198   1.87130
   A12        1.88165   0.00046   0.00177  -0.00064   0.00113   1.88278
    D1        0.00295  -0.00012  -0.00574   0.00351  -0.00223   0.00072
    D2       -3.13888  -0.00010  -0.00435   0.00183  -0.00252  -3.14140
    D3       -3.14015  -0.00006  -0.00212   0.00127  -0.00085  -3.14100
    D4        0.00120  -0.00004  -0.00073  -0.00041  -0.00113   0.00006
    D5       -2.08910   0.00014  -0.01332  -0.00001  -0.01334  -2.10244
    D6        0.01236  -0.00019  -0.01428  -0.00144  -0.01572  -0.00335
    D7        2.11079  -0.00003  -0.01276  -0.00237  -0.01514   2.09566
    D8        1.05271   0.00012  -0.01459   0.00151  -0.01308   1.03963
    D9       -3.12901  -0.00021  -0.01554   0.00008  -0.01546   3.13871
   D10       -1.03058  -0.00005  -0.01403  -0.00085  -0.01488  -1.04546
         Item               Value     Threshold  Converged?
 Maximum Force            0.000459     0.000015     NO 
 RMS     Force            0.000207     0.000010     NO 
 Maximum Displacement     0.021906     0.000060     NO 
 RMS     Displacement     0.008821     0.000040     NO 
 Predicted change in Energy=-4.467456D-06
 Lowest energy point so far.  Saving SCF results.
 GradGradGradGradGradGradGradGradGradGradGradGradGradGradGradGradGradGrad

 Leave Link  103 at Thu Apr  2 13:33:56 2026, MaxMem=  2147483648 cpu:               0.1 elap:               0.0
 (Enter /Users/yarger/Applications/g16/l202.exe)
                          Input orientation:                          
 ---------------------------------------------------------------------
 Center     Atomic      Atomic             Coordinates (Angstroms)
 Number     Number       Type             X           Y           Z
 ---------------------------------------------------------------------
      1          6           0        1.747689    1.032826    0.223714
      2          1           0        1.355457    1.929393    0.686772
      3          1           0        2.818863    0.934698    0.085763
      4          6           0        0.928786    0.068241   -0.168995
      5          6           0       -0.575226    0.057094   -0.047462
      6          9           0       -0.998594   -0.990745    0.694333
      7          9           0       -1.025553    1.187462    0.536372
      8          9           0       -1.164407   -0.046881   -1.259955
      9          9           0        1.372504   -1.066924   -0.750544
 ---------------------------------------------------------------------
                    Distance matrix (angstroms):
                    1          2          3          4          5
     1  C    0.000000
     2  H    1.082636   0.000000
     3  H    1.084469   1.868739   0.000000
     4  C    1.324857   2.092432   2.094765   0.000000
     5  C    2.534072   2.787856   3.508244   1.508955   0.000000
     6  F    3.443602   3.750842   4.318642   2.362537   1.351839
     7  F    2.795091   2.498457   3.878978   2.360008   1.349588
     8  F    3.441997   3.747682   4.317510   2.363240   1.352066
     9  F    2.344972   3.323264   2.607269   1.350439   2.356140
                    6          7          8          9
     6  F    0.000000
     7  F    2.184094   0.000000
     8  F    2.176606   2.183958   0.000000
     9  F    2.777694   3.533990   2.781350   0.000000
 Stoichiometry    C3H2F4
 Framework group  C1[X(C3H2F4)]
 Deg. of freedom    21
 Full point group                 C1      NOp   1
 RotChk:  IX=3 Diff= 8.03D-03
 Largest Abelian subgroup         C1      NOp   1
 Largest concise Abelian subgroup C1      NOp   1
                         Standard orientation:                         
 ---------------------------------------------------------------------
 Center     Atomic      Atomic             Coordinates (Angstroms)
 Number     Number       Type             X           Y           Z
 ---------------------------------------------------------------------
      1          6           0        1.727759   -1.078833    0.000194
      2          1           0        1.318159   -2.080995   -0.000232
      3          1           0        2.804316   -0.948068    0.000726
      4          6           0        0.923329   -0.026152   -0.000078
      5          6           0       -0.585517   -0.044293   -0.000089
      6          9           0       -1.082617    0.588320   -1.086441
      7          9           0       -1.057876   -1.308512   -0.003998
      8          9           0       -1.083447    0.581422    1.090155
      9          9           0        1.388840    1.241517    0.000211
 ---------------------------------------------------------------------
 Rotational constants (GHZ):           3.6585209           2.4319055           1.9745812
 Leave Link  202 at Thu Apr  2 13:33:56 2026, MaxMem=  2147483648 cpu:               0.0 elap:               0.0
 (Enter /Users/yarger/Applications/g16/l301.exe)
 Standard basis: 6-31+G(d) (6D, 7F)
 Ernie: Thresh=  0.10000D-02 Tol=  0.10000D-05 Strict=F.
 There are   137 symmetry adapted cartesian basis functions of A   symmetry.
 There are   137 symmetry adapted basis functions of A   symmetry.
   137 basis functions,   232 primitive gaussians,   137 cartesian basis functions
    28 alpha electrons       28 beta electrons
       nuclear repulsion energy       330.8379700866 Hartrees.
 IExCor=  402 DFT=T Ex+Corr=B3LYP ExCW=0 ScaHFX=  0.200000
 ScaDFX=  0.800000  0.720000  1.000000  0.810000 ScalE2=  1.000000  1.000000
 IRadAn=      5 IRanWt=     -1 IRanGd=            0 ICorTp=0 IEmpDi=  4
 NAtoms=    9 NActive=    9 NUniq=    9 SFac= 1.00D+00 NAtFMM=   60 NAOKFM=F Big=F
 Integral buffers will be    131072 words long.
 Raffenetti 2 integral format.
 Two-electron integral symmetry is turned on.
 Leave Link  301 at Thu Apr  2 13:33:56 2026, MaxMem=  2147483648 cpu:               0.1 elap:               0.0
 (Enter /Users/yarger/Applications/g16/l302.exe)
 NPDir=0 NMtPBC=     1 NCelOv=     1 NCel=       1 NClECP=     1 NCelD=      1
         NCelK=      1 NCelE2=     1 NClLst=     1 CellRange=     0.0.
 One-electron integrals computed using PRISM.
 One-electron integral symmetry used in STVInt
 NBasis=   137 RedAO= T EigKep=  6.96D-05  NBF=   137
 NBsUse=   137 1.00D-06 EigRej= -1.00D+00 NBFU=   137
 Precomputing XC quadrature grid using
 IXCGrd= 4 IRadAn=           5 IRanWt=          -1 IRanGd=           0 AccXCQ= 0.00D+00.
 Generated NRdTot=       0 NPtTot=           0 NUsed=           0 NTot=          32
 NSgBfM=   137   137   137   137   137 MxSgAt=     9 MxSgA2=     9.
 Leave Link  302 at Thu Apr  2 13:33:56 2026, MaxMem=  2147483648 cpu:               0.8 elap:               0.1
 (Enter /Users/yarger/Applications/g16/l303.exe)
 DipDrv:  MaxL=1.
 Leave Link  303 at Thu Apr  2 13:33:56 2026, MaxMem=  2147483648 cpu:               0.1 elap:               0.0
 (Enter /Users/yarger/Applications/g16/l401.exe)
 Initial guess from the checkpoint file:  "2223Tetrafluoropropene_Opt_Freq_DFT_B3LYP_631pd_Gaussian16.chk"
 B after Tr=    -0.000000    0.000000   -0.000000
         Rot=    0.999991   -0.004171    0.000129    0.000173 Ang=  -0.48 deg.
 Guess basis will be translated and rotated to current coordinates.
 JPrj=2 DoOrth=T DoCkMO=T.
 Generating alternative initial guess.
 ExpMin= 4.38D-02 ExpMax= 7.00D+03 ExpMxC= 1.05D+03 IAcc=2 IRadAn=         4 AccDes= 0.00D+00
 Harris functional with IExCor=  402 and IRadAn=       4 diagonalized for initial guess.
 HarFok:  IExCor=  402 AccDes= 0.00D+00 IRadAn=         4 IDoV= 1 UseB2=F ITyADJ=14
 ICtDFT=  3500011 ScaDFX=  1.000000  1.000000  1.000000  1.000000
 FoFCou: FMM=F IPFlag=           0 FMFlag=      100000 FMFlg1=           0
         NFxFlg=           0 DoJE=T BraDBF=F KetDBF=T FulRan=T
         wScrn=  0.000000 ICntrl=       500 IOpCl=  0 I1Cent=   200000004 NGrid=           0
         NMat0=    1 NMatS0=      1 NMatT0=    0 NMatD0=    1 NMtDS0=    0 NMtDT0=    0
 Petite list used in FoFCou.
 Harris En= -514.875808708481    
 Leave Link  401 at Thu Apr  2 13:33:56 2026, MaxMem=  2147483648 cpu:               1.5 elap:               0.2
 (Enter /Users/yarger/Applications/g16/l502.exe)
 Keep R1 ints in memory in canonical form, NReq=52385408.
 FoFCou: FMM=F IPFlag=           0 FMFlag=           0 FMFlg1=           0
         NFxFlg=           0 DoJE=F BraDBF=F KetDBF=F FulRan=T
         wScrn=  0.000000 ICntrl=       600 IOpCl=  0 I1Cent=           0 NGrid=           0
         NMat0=    1 NMatS0=   9453 NMatT0=    0 NMatD0=    1 NMtDS0=    0 NMtDT0=    0
 Symmetry not used in FoFCou.
 Two-electron integral symmetry not used.
 Closed shell SCF:
 Using DIIS extrapolation, IDIIS=  1040.
 NGot=  2147483648 LenX=  2102759234 LenY=  2102740024
 Requested convergence on RMS density matrix=1.00D-08 within 128 cycles.
 Requested convergence on MAX density matrix=1.00D-06.
 Requested convergence on             energy=1.00D-06.
 No special actions if energy rises.

 Cycle   1  Pass 1  IDiag  1:
 E= -514.890831389146    
 DIIS: error= 4.69D-04 at cycle   1 NSaved=   1.
 NSaved= 1 IEnMin= 1 EnMin= -514.890831389146     IErMin= 1 ErrMin= 4.69D-04
 ErrMax= 4.69D-04  0.00D+00 EMaxC= 1.00D-01 BMatC= 5.77D-05 BMatP= 5.77D-05
 IDIUse=3 WtCom= 9.95D-01 WtEn= 4.69D-03
 Coeff-Com:  0.100D+01
 Coeff-En:   0.100D+01
 Coeff:      0.100D+01
 Gap=     0.679 Goal=   None    Shift=    0.000
 RMSDP=1.04D-04 MaxDP=2.06D-03              OVMax= 3.54D-03

 Cycle   2  Pass 1  IDiag  1:
 E= -514.890939907301     Delta-E=       -0.000108518155 Rises=F Damp=F
 DIIS: error= 5.38D-05 at cycle   2 NSaved=   2.
 NSaved= 2 IEnMin= 2 EnMin= -514.890939907301     IErMin= 2 ErrMin= 5.38D-05
 ErrMax= 5.38D-05  0.00D+00 EMaxC= 1.00D-01 BMatC= 8.47D-07 BMatP= 5.77D-05
 IDIUse=1 WtCom= 1.00D+00 WtEn= 0.00D+00
 Coeff-Com: -0.678D-01 0.107D+01
 Coeff:     -0.678D-01 0.107D+01
 Gap=     0.263 Goal=   None    Shift=    0.000
 RMSDP=2.45D-05 MaxDP=7.78D-04 DE=-1.09D-04 OVMax= 5.45D-04

 Cycle   3  Pass 1  IDiag  1:
 E= -514.890941266984     Delta-E=       -0.000001359682 Rises=F Damp=F
 DIIS: error= 2.57D-05 at cycle   3 NSaved=   3.
 NSaved= 3 IEnMin= 3 EnMin= -514.890941266984     IErMin= 3 ErrMin= 2.57D-05
 ErrMax= 2.57D-05  0.00D+00 EMaxC= 1.00D-01 BMatC= 2.74D-07 BMatP= 8.47D-07
 IDIUse=1 WtCom= 1.00D+00 WtEn= 0.00D+00
 Coeff-Com: -0.325D-01 0.411D+00 0.622D+00
 Coeff:     -0.325D-01 0.411D+00 0.622D+00
 Gap=     0.263 Goal=   None    Shift=    0.000
 RMSDP=5.69D-06 MaxDP=1.57D-04 DE=-1.36D-06 OVMax= 1.37D-04

 Cycle   4  Pass 1  IDiag  1:
 E= -514.890941425637     Delta-E=       -0.000000158653 Rises=F Damp=F
 DIIS: error= 1.36D-05 at cycle   4 NSaved=   4.
 NSaved= 4 IEnMin= 4 EnMin= -514.890941425637     IErMin= 4 ErrMin= 1.36D-05
 ErrMax= 1.36D-05  0.00D+00 EMaxC= 1.00D-01 BMatC= 7.83D-08 BMatP= 2.74D-07
 IDIUse=1 WtCom= 1.00D+00 WtEn= 0.00D+00
 Coeff-Com: -0.113D-01 0.129D+00 0.365D+00 0.518D+00
 Coeff:     -0.113D-01 0.129D+00 0.365D+00 0.518D+00
 Gap=     0.263 Goal=   None    Shift=    0.000
 RMSDP=1.68D-06 MaxDP=3.90D-05 DE=-1.59D-07 OVMax= 5.63D-05

 Cycle   5  Pass 1  IDiag  1:
 E= -514.890941474441     Delta-E=       -0.000000048804 Rises=F Damp=F
 DIIS: error= 2.65D-06 at cycle   5 NSaved=   5.
 NSaved= 5 IEnMin= 5 EnMin= -514.890941474441     IErMin= 5 ErrMin= 2.65D-06
 ErrMax= 2.65D-06  0.00D+00 EMaxC= 1.00D-01 BMatC= 2.76D-09 BMatP= 7.83D-08
 IDIUse=1 WtCom= 1.00D+00 WtEn= 0.00D+00
 Coeff-Com: -0.382D-03-0.159D-02 0.643D-01 0.198D+00 0.740D+00
 Coeff:     -0.382D-03-0.159D-02 0.643D-01 0.198D+00 0.740D+00
 Gap=     0.263 Goal=   None    Shift=    0.000
 RMSDP=6.81D-07 MaxDP=1.88D-05 DE=-4.88D-08 OVMax= 2.44D-05

 Cycle   6  Pass 1  IDiag  1:
 E= -514.890941476495     Delta-E=       -0.000000002054 Rises=F Damp=F
 DIIS: error= 1.20D-06 at cycle   6 NSaved=   6.
 NSaved= 6 IEnMin= 6 EnMin= -514.890941476495     IErMin= 6 ErrMin= 1.20D-06
 ErrMax= 1.20D-06  0.00D+00 EMaxC= 1.00D-01 BMatC= 4.03D-10 BMatP= 2.76D-09
 IDIUse=1 WtCom= 1.00D+00 WtEn= 0.00D+00
 Coeff-Com:  0.354D-03-0.774D-02 0.163D-01 0.791D-01 0.387D+00 0.525D+00
 Coeff:      0.354D-03-0.774D-02 0.163D-01 0.791D-01 0.387D+00 0.525D+00
 Gap=     0.263 Goal=   None    Shift=    0.000
 RMSDP=1.81D-07 MaxDP=6.79D-06 DE=-2.05D-09 OVMax= 1.32D-05

 Cycle   7  Pass 1  IDiag  1:
 E= -514.890941476802     Delta-E=       -0.000000000306 Rises=F Damp=F
 DIIS: error= 5.43D-07 at cycle   7 NSaved=   7.
 NSaved= 7 IEnMin= 7 EnMin= -514.890941476802     IErMin= 7 ErrMin= 5.43D-07
 ErrMax= 5.43D-07  0.00D+00 EMaxC= 1.00D-01 BMatC= 6.61D-11 BMatP= 4.03D-10
 IDIUse=1 WtCom= 1.00D+00 WtEn= 0.00D+00
 Coeff-Com:  0.239D-03-0.419D-02-0.113D-02 0.127D-01 0.963D-01 0.311D+00
 Coeff-Com:  0.585D+00
 Coeff:      0.239D-03-0.419D-02-0.113D-02 0.127D-01 0.963D-01 0.311D+00
 Coeff:      0.585D+00
 Gap=     0.263 Goal=   None    Shift=    0.000
 RMSDP=7.24D-08 MaxDP=2.52D-06 DE=-3.06D-10 OVMax= 4.78D-06

 Cycle   8  Pass 1  IDiag  1:
 E= -514.890941476864     Delta-E=       -0.000000000063 Rises=F Damp=F
 DIIS: error= 1.07D-07 at cycle   8 NSaved=   8.
 NSaved= 8 IEnMin= 8 EnMin= -514.890941476864     IErMin= 8 ErrMin= 1.07D-07
 ErrMax= 1.07D-07  0.00D+00 EMaxC= 1.00D-01 BMatC= 2.79D-12 BMatP= 6.61D-11
 IDIUse=1 WtCom= 1.00D+00 WtEn= 0.00D+00
 Coeff-Com:  0.837D-04-0.135D-02-0.151D-02 0.708D-03 0.169D-01 0.105D+00
 Coeff-Com:  0.268D+00 0.612D+00
 Coeff:      0.837D-04-0.135D-02-0.151D-02 0.708D-03 0.169D-01 0.105D+00
 Coeff:      0.268D+00 0.612D+00
 Gap=     0.263 Goal=   None    Shift=    0.000
 RMSDP=1.65D-08 MaxDP=5.62D-07 DE=-6.25D-11 OVMax= 8.19D-07

 Cycle   9  Pass 1  IDiag  1:
 E= -514.890941476863     Delta-E=        0.000000000001 Rises=F Damp=F
 DIIS: error= 2.43D-08 at cycle   9 NSaved=   9.
 NSaved= 9 IEnMin= 8 EnMin= -514.890941476864     IErMin= 9 ErrMin= 2.43D-08
 ErrMax= 2.43D-08  0.00D+00 EMaxC= 1.00D-01 BMatC= 1.85D-13 BMatP= 2.79D-12
 IDIUse=1 WtCom= 1.00D+00 WtEn= 0.00D+00
 Coeff-Com:  0.792D-05-0.728D-04-0.497D-03-0.120D-02-0.406D-02 0.101D-01
 Coeff-Com:  0.493D-01 0.244D+00 0.702D+00
 Coeff:      0.792D-05-0.728D-04-0.497D-03-0.120D-02-0.406D-02 0.101D-01
 Coeff:      0.493D-01 0.244D+00 0.702D+00
 Gap=     0.263 Goal=   None    Shift=    0.000
 RMSDP=3.56D-09 MaxDP=1.11D-07 DE= 9.09D-13 OVMax= 1.65D-07

 SCF Done:  E(RB3LYP) =  -514.890941477     A.U. after    9 cycles
            NFock=  9  Conv=0.36D-08     -V/T= 2.0080
 KE= 5.108057541891D+02 PE=-1.879644354714D+03 EE= 5.231096889610D+02
 Leave Link  502 at Thu Apr  2 13:33:59 2026, MaxMem=  2147483648 cpu:              18.5 elap:               2.7
 (Enter /Users/yarger/Applications/g16/l701.exe)
 ... and contract with generalized density number  0.
 Compute integral first derivatives.
 Leave Link  701 at Thu Apr  2 13:33:59 2026, MaxMem=  2147483648 cpu:               0.5 elap:               0.1
 (Enter /Users/yarger/Applications/g16/l702.exe)
 L702 exits ... SP integral derivatives will be done elsewhere.
 Leave Link  702 at Thu Apr  2 13:33:59 2026, MaxMem=  2147483648 cpu:               0.1 elap:               0.0
 (Enter /Users/yarger/Applications/g16/l703.exe)
 Integral derivatives from FoFJK, PRISM(SPDF).
 Compute integral first derivatives, UseDBF=F ICtDFT=           0.
 Calling FoFJK, ICntrl=      2127 FMM=F ISym2X=0 I1Cent= 0 IOpClX= 0 NMat=1 NMatS=1 NMatT=0.
 FoFJK:  IHMeth= 1 ICntrl=    2127 DoSepK=F KAlg= 0 I1Cent=           0 FoldK=F
 IRaf=         0 NMat=       1 IRICut=       1 DoRegI=T DoRafI=F ISym2E= 0 IDoP0=0 IntGTp=1.
 FoFCou: FMM=F IPFlag=           0 FMFlag=      100000 FMFlg1=         800
         NFxFlg=           0 DoJE=F BraDBF=F KetDBF=F FulRan=T
         wScrn=  0.000000 ICntrl=      2127 IOpCl=  0 I1Cent=           0 NGrid=           0
         NMat0=    1 NMatS0=      1 NMatT0=    0 NMatD0=    1 NMtDS0=    0 NMtDT0=    0
 Symmetry not used in FoFCou.
 Leave Link  703 at Thu Apr  2 13:34:00 2026, MaxMem=  2147483648 cpu:               6.5 elap:               0.9
 (Enter /Users/yarger/Applications/g16/l716.exe)
 Dipole        = 6.92869866D-01-6.63371704D-01-2.64739456D-04
 ***** Axes restored to original set *****
 -------------------------------------------------------------------
 Center     Atomic                   Forces (Hartrees/Bohr)
 Number     Number              X              Y              Z
 -------------------------------------------------------------------
      1        6          -0.000053759   -0.000067273   -0.000014471
      2        1           0.000050155    0.000008497   -0.000009988
      3        1           0.000017248    0.000033051    0.000025292
      4        6          -0.000077802    0.000184318    0.000029663
      5        6           0.000130850   -0.000019394   -0.000060340
      6        9          -0.000071237   -0.000010733   -0.000058911
      7        9          -0.000087574    0.000083744    0.000056586
      8        9           0.000055506   -0.000074925    0.000117729
      9        9           0.000036613   -0.000137285   -0.000085560
 -------------------------------------------------------------------
 Cartesian Forces:  Max     0.000184318 RMS     0.000074782
 Leave Link  716 at Thu Apr  2 13:34:00 2026, MaxMem=  2147483648 cpu:               0.1 elap:               0.0
 (Enter /Users/yarger/Applications/g16/l103.exe)

 GradGradGradGradGradGradGradGradGradGradGradGradGradGradGradGradGradGrad
 Berny optimization.
 Using GEDIIS/GDIIS optimizer.
 FormGI is forming the generalized inverse of G from B-inverse, IUseBI=4.
 Internal  Forces:  Max     0.000164387 RMS     0.000063670
 Search for a local minimum.
 Step number  22 out of a maximum of   40
 All quantities printed in internal units (Hartrees-Bohrs-Radians)
 RMS Force = .63670D-04 SwitMx=.10000D-02 MixMth= 2
 Mixed Optimization -- En-DIIS/RFO-DIIS
 Swapping is turned off.
 Update second derivatives using D2CorX and points   18   17   19   20   21
                                                     22
 DE= -3.67D-06 DEPred=-4.47D-06 R= 8.21D-01
 TightC=F SS=  1.41D+00  RLast= 3.64D-02 DXNew= 1.8297D+00 1.0916D-01
 Trust test= 8.21D-01 RLast= 3.64D-02 DXMaxT set to 1.09D+00
 ITU=  1  1  1  0 -1  1  0  1  0  1  0  0  0  0  0  0  0  1  1  1
 ITU=  1  0
     Eigenvalues ---    0.00259   0.01832   0.02908   0.03155   0.10752
     Eigenvalues ---    0.11129   0.12229   0.14431   0.19781   0.23586
     Eigenvalues ---    0.24751   0.26337   0.31708   0.35196   0.35543
     Eigenvalues ---    0.37863   0.41294   0.43865   0.56512   0.61021
     Eigenvalues ---    0.71981
 En-DIIS/RFO-DIIS/Sim-DIIS IScMMF=       -3 using points:    22   21   20
 RFO step:  Lambda=-6.06835763D-07.
 NNeg= 0 NGDIIS= 3 SimSw=  2.50D-01 Rises=F DC= -3.67D-06 SmlDif=  1.00D-05
 NRisDI= 0 DoIntr=F SqrtH=F CThrHd= 10.0 CDAdj=  3.0
 RMS Error=  0.1482966231D-02 NUsed= 3 OKEnD=F EnDIS=F
 InvSVX:  RCond= 3.70D-05 Info=           0 Equed=N FErr=  1.68D-14 BErr=  1.01D-16
 DidBck=T Rises=F RFO-DIIS coefs:    0.60365    0.32750    0.06885
 Iteration  1 RMS(Cart)=  0.00177046 RMS(Int)=  0.00000144
 Iteration  2 RMS(Cart)=  0.00000165 RMS(Int)=  0.00000038
 Iteration  3 RMS(Cart)=  0.00000000 RMS(Int)=  0.00000038
 ITry= 1 IFail=0 DXMaxC= 4.89D-03 DCOld= 1.00D+10 DXMaxT= 1.09D+00 DXLimC= 3.00D+00 Rises=F
 Variable       Old X    -DE/DX   Delta X   Delta X   Delta X     New X
                                 (Linear)    (Quad)   (Total)
    R1        2.04588  -0.00002  -0.00007   0.00006  -0.00001   2.04587
    R2        2.04935   0.00001   0.00010  -0.00007   0.00004   2.04939
    R3        2.50362  -0.00001   0.00012  -0.00020  -0.00008   2.50353
    R4        2.85151  -0.00002  -0.00005  -0.00015  -0.00020   2.85131
    R5        2.55196   0.00016   0.00067  -0.00017   0.00050   2.55246
    R6        2.55461  -0.00000   0.00025  -0.00018   0.00007   2.55467
    R7        2.55035   0.00012  -0.00006   0.00023   0.00017   2.55052
    R8        2.55504  -0.00012   0.00001  -0.00021  -0.00019   2.55484
    A1        2.07967  -0.00006  -0.00062   0.00008  -0.00054   2.07913
    A2        2.10108   0.00004   0.00092  -0.00062   0.00030   2.10139
    A3        2.10243   0.00002  -0.00031   0.00054   0.00023   2.10267
    A4        2.21128   0.00007   0.00042   0.00000   0.00042   2.21170
    A5        2.13715  -0.00001  -0.00051   0.00035  -0.00016   2.13699
    A6        1.93475  -0.00006   0.00010  -0.00036  -0.00026   1.93449
    A7        1.94129   0.00010   0.00061  -0.00029   0.00032   1.94161
    A8        1.94039   0.00010   0.00058  -0.00024   0.00035   1.94074
    A9        1.94194  -0.00005  -0.00029  -0.00003  -0.00033   1.94161
   A10        1.88318  -0.00006  -0.00004  -0.00007  -0.00011   1.88307
   A11        1.87130  -0.00011  -0.00082   0.00031  -0.00050   1.87080
   A12        1.88278   0.00001  -0.00010   0.00035   0.00025   1.88303
    D1        0.00072  -0.00001  -0.00023  -0.00055  -0.00078  -0.00006
    D2       -3.14140  -0.00001   0.00015  -0.00047  -0.00032   3.14147
    D3       -3.14100  -0.00001  -0.00008  -0.00056  -0.00064   3.14155
    D4        0.00006  -0.00001   0.00031  -0.00047  -0.00017  -0.00010
    D5       -2.10244  -0.00005   0.00270   0.00036   0.00305  -2.09939
    D6       -0.00335   0.00002   0.00345  -0.00009   0.00336   0.00001
    D7        2.09566   0.00006   0.00352   0.00018   0.00369   2.09935
    D8        1.03963  -0.00005   0.00235   0.00028   0.00263   1.04226
    D9        3.13871   0.00001   0.00310  -0.00016   0.00294  -3.14153
   D10       -1.04546   0.00005   0.00317   0.00010   0.00327  -1.04219
         Item               Value     Threshold  Converged?
 Maximum Force            0.000164     0.000015     NO 
 RMS     Force            0.000064     0.000010     NO 
 Maximum Displacement     0.004885     0.000060     NO 
 RMS     Displacement     0.001771     0.000040     NO 
 Predicted change in Energy=-3.030285D-07
 Lowest energy point so far.  Saving SCF results.
 GradGradGradGradGradGradGradGradGradGradGradGradGradGradGradGradGradGrad

 Leave Link  103 at Thu Apr  2 13:34:00 2026, MaxMem=  2147483648 cpu:               0.1 elap:               0.0
 (Enter /Users/yarger/Applications/g16/l202.exe)
                          Input orientation:                          
 ---------------------------------------------------------------------
 Center     Atomic      Atomic             Coordinates (Angstroms)
 Number     Number       Type             X           Y           Z
 ---------------------------------------------------------------------
      1          6           0        1.747868    1.032573    0.224293
      2          1           0        1.356327    1.928875    0.688427
      3          1           0        2.819044    0.934434    0.086212
      4          6           0        0.928583    0.068832   -0.169539
      5          6           0       -0.575272    0.057206   -0.047457
      6          9           0       -0.998347   -0.989711    0.695871
      7          9           0       -1.026373    1.188259    0.534658
      8          9           0       -1.164388   -0.049466   -1.259633
      9          9           0        1.372079   -1.065836   -0.752835
 ---------------------------------------------------------------------
                    Distance matrix (angstroms):
                    1          2          3          4          5
     1  C    0.000000
     2  H    1.082628   0.000000
     3  H    1.084488   1.868453   0.000000
     4  C    1.324813   2.092565   2.094879   0.000000
     5  C    2.534200   2.788502   3.508387   1.508847   0.000000
     6  F    3.442923   3.750026   4.318159   2.362733   1.351875
     7  F    2.795887   2.499883   3.879789   2.360268   1.349678
     8  F    3.442976   3.750036   4.318227   2.362801   1.351963
     9  F    2.345063   3.323519   2.607449   1.350702   2.356047
                    6          7          8          9
     6  F    0.000000
     7  F    2.184109   0.000000
     8  F    2.176149   2.184145   0.000000
     9  F    2.779112   3.534283   2.779122   0.000000
 Stoichiometry    C3H2F4
 Framework group  C1[X(C3H2F4)]
 Deg. of freedom    21
 Full point group                 C1      NOp   1
 RotChk:  IX=1 Diff= 2.18D-03
 Largest Abelian subgroup         C1      NOp   1
 Largest concise Abelian subgroup C1      NOp   1
                         Standard orientation:                         
 ---------------------------------------------------------------------
 Center     Atomic      Atomic             Coordinates (Angstroms)
 Number     Number       Type             X           Y           Z
 ---------------------------------------------------------------------
      1          6           0        1.728142   -1.078703    0.000028
      2          1           0        1.319264   -2.081151    0.000123
      3          1           0        2.804693   -0.947742   -0.000008
      4          6           0        0.923303   -0.026389   -0.000020
      5          6           0       -0.585435   -0.044520   -0.000032
      6          9           0       -1.082911    0.584942   -1.088087
      7          9           0       -1.058272   -1.308662    0.000026
      8          9           0       -1.082956    0.585026    1.088063
      9          9           0        1.388581    1.241646    0.000001
 ---------------------------------------------------------------------
 Rotational constants (GHZ):           3.6586341           2.4319676           1.9743638
 Leave Link  202 at Thu Apr  2 13:34:00 2026, MaxMem=  2147483648 cpu:               0.0 elap:               0.0
 (Enter /Users/yarger/Applications/g16/l301.exe)
 Standard basis: 6-31+G(d) (6D, 7F)
 Ernie: Thresh=  0.10000D-02 Tol=  0.10000D-05 Strict=F.
 There are   137 symmetry adapted cartesian basis functions of A   symmetry.
 There are   137 symmetry adapted basis functions of A   symmetry.
   137 basis functions,   232 primitive gaussians,   137 cartesian basis functions
    28 alpha electrons       28 beta electrons
       nuclear repulsion energy       330.8339465055 Hartrees.
 IExCor=  402 DFT=T Ex+Corr=B3LYP ExCW=0 ScaHFX=  0.200000
 ScaDFX=  0.800000  0.720000  1.000000  0.810000 ScalE2=  1.000000  1.000000
 IRadAn=      5 IRanWt=     -1 IRanGd=            0 ICorTp=0 IEmpDi=  4
 NAtoms=    9 NActive=    9 NUniq=    9 SFac= 1.00D+00 NAtFMM=   60 NAOKFM=F Big=F
 Integral buffers will be    131072 words long.
 Raffenetti 2 integral format.
 Two-electron integral symmetry is turned on.
 Leave Link  301 at Thu Apr  2 13:34:00 2026, MaxMem=  2147483648 cpu:               0.1 elap:               0.0
 (Enter /Users/yarger/Applications/g16/l302.exe)
 NPDir=0 NMtPBC=     1 NCelOv=     1 NCel=       1 NClECP=     1 NCelD=      1
         NCelK=      1 NCelE2=     1 NClLst=     1 CellRange=     0.0.
 One-electron integrals computed using PRISM.
 One-electron integral symmetry used in STVInt
 NBasis=   137 RedAO= T EigKep=  6.96D-05  NBF=   137
 NBsUse=   137 1.00D-06 EigRej= -1.00D+00 NBFU=   137
 Precomputing XC quadrature grid using
 IXCGrd= 4 IRadAn=           5 IRanWt=          -1 IRanGd=           0 AccXCQ= 0.00D+00.
 Generated NRdTot=       0 NPtTot=           0 NUsed=           0 NTot=          32
 NSgBfM=   137   137   137   137   137 MxSgAt=     9 MxSgA2=     9.
 Leave Link  302 at Thu Apr  2 13:34:00 2026, MaxMem=  2147483648 cpu:               0.8 elap:               0.1
 (Enter /Users/yarger/Applications/g16/l303.exe)
 DipDrv:  MaxL=1.
 Leave Link  303 at Thu Apr  2 13:34:00 2026, MaxMem=  2147483648 cpu:               0.1 elap:               0.0
 (Enter /Users/yarger/Applications/g16/l401.exe)
 Initial guess from the checkpoint file:  "2223Tetrafluoropropene_Opt_Freq_DFT_B3LYP_631pd_Gaussian16.chk"
 B after Tr=    -0.000000   -0.000000    0.000000
         Rot=    1.000000    0.000991   -0.000074   -0.000018 Ang=   0.11 deg.
 Guess basis will be translated and rotated to current coordinates.
 JPrj=2 DoOrth=T DoCkMO=T.
 Leave Link  401 at Thu Apr  2 13:34:00 2026, MaxMem=  2147483648 cpu:               0.4 elap:               0.1
 (Enter /Users/yarger/Applications/g16/l502.exe)
 Keep R1 ints in memory in canonical form, NReq=52385408.
 FoFCou: FMM=F IPFlag=           0 FMFlag=           0 FMFlg1=           0
         NFxFlg=           0 DoJE=F BraDBF=F KetDBF=F FulRan=T
         wScrn=  0.000000 ICntrl=       600 IOpCl=  0 I1Cent=           0 NGrid=           0
         NMat0=    1 NMatS0=   9453 NMatT0=    0 NMatD0=    1 NMtDS0=    0 NMtDT0=    0
 Symmetry not used in FoFCou.
 Two-electron integral symmetry not used.
 Closed shell SCF:
 Using DIIS extrapolation, IDIIS=  1040.
 NGot=  2147483648 LenX=  2102759234 LenY=  2102740024
 Requested convergence on RMS density matrix=1.00D-08 within 128 cycles.
 Requested convergence on MAX density matrix=1.00D-06.
 Requested convergence on             energy=1.00D-06.
 No special actions if energy rises.

 Cycle   1  Pass 1  IDiag  1:
 E= -514.890936939892    
 DIIS: error= 1.07D-04 at cycle   1 NSaved=   1.
 NSaved= 1 IEnMin= 1 EnMin= -514.890936939892     IErMin= 1 ErrMin= 1.07D-04
 ErrMax= 1.07D-04  0.00D+00 EMaxC= 1.00D-01 BMatC= 2.60D-06 BMatP= 2.60D-06
 IDIUse=3 WtCom= 9.99D-01 WtEn= 1.07D-03
 Coeff-Com:  0.100D+01
 Coeff-En:   0.100D+01
 Coeff:      0.100D+01
 Gap=     0.679 Goal=   None    Shift=    0.000
 RMSDP=2.30D-05 MaxDP=4.24D-04              OVMax= 7.68D-04

 Cycle   2  Pass 1  IDiag  1:
 E= -514.890941706133     Delta-E=       -0.000004766241 Rises=F Damp=F
 DIIS: error= 1.10D-05 at cycle   2 NSaved=   2.
 NSaved= 2 IEnMin= 2 EnMin= -514.890941706133     IErMin= 2 ErrMin= 1.10D-05
 ErrMax= 1.10D-05  0.00D+00 EMaxC= 1.00D-01 BMatC= 4.44D-08 BMatP= 2.60D-06
 IDIUse=1 WtCom= 1.00D+00 WtEn= 0.00D+00
 Coeff-Com: -0.616D-01 0.106D+01
 Coeff:     -0.616D-01 0.106D+01
 Gap=     0.263 Goal=   None    Shift=    0.000
 RMSDP=4.81D-06 MaxDP=1.44D-04 DE=-4.77D-06 OVMax= 1.11D-04

 Cycle   3  Pass 1  IDiag  1:
 E= -514.890941746810     Delta-E=       -0.000000040677 Rises=F Damp=F
 DIIS: error= 1.27D-05 at cycle   3 NSaved=   3.
 NSaved= 3 IEnMin= 3 EnMin= -514.890941746810     IErMin= 2 ErrMin= 1.10D-05
 ErrMax= 1.27D-05  0.00D+00 EMaxC= 1.00D-01 BMatC= 4.32D-08 BMatP= 4.44D-08
 IDIUse=1 WtCom= 1.00D+00 WtEn= 0.00D+00
 Coeff-Com: -0.426D-01 0.566D+00 0.477D+00
 Coeff:     -0.426D-01 0.566D+00 0.477D+00
 Gap=     0.263 Goal=   None    Shift=    0.000
 RMSDP=1.35D-06 MaxDP=4.10D-05 DE=-4.07D-08 OVMax= 4.90D-05

 Cycle   4  Pass 1  IDiag  1:
 E= -514.890941773072     Delta-E=       -0.000000026262 Rises=F Damp=F
 DIIS: error= 3.48D-06 at cycle   4 NSaved=   4.
 NSaved= 4 IEnMin= 4 EnMin= -514.890941773072     IErMin= 4 ErrMin= 3.48D-06
 ErrMax= 3.48D-06  0.00D+00 EMaxC= 1.00D-01 BMatC= 3.37D-09 BMatP= 4.32D-08
 IDIUse=1 WtCom= 1.00D+00 WtEn= 0.00D+00
 Coeff-Com: -0.110D-01 0.128D+00 0.242D+00 0.641D+00
 Coeff:     -0.110D-01 0.128D+00 0.242D+00 0.641D+00
 Gap=     0.263 Goal=   None    Shift=    0.000
 RMSDP=4.74D-07 MaxDP=1.10D-05 DE=-2.63D-08 OVMax= 2.00D-05

 Cycle   5  Pass 1  IDiag  1:
 E= -514.890941775408     Delta-E=       -0.000000002336 Rises=F Damp=F
 DIIS: error= 6.58D-07 at cycle   5 NSaved=   5.
 NSaved= 5 IEnMin= 5 EnMin= -514.890941775408     IErMin= 5 ErrMin= 6.58D-07
 ErrMax= 6.58D-07  0.00D+00 EMaxC= 1.00D-01 BMatC= 1.33D-10 BMatP= 3.37D-09
 IDIUse=1 WtCom= 1.00D+00 WtEn= 0.00D+00
 Coeff-Com: -0.155D-02 0.129D-01 0.619D-01 0.245D+00 0.682D+00
 Coeff:     -0.155D-02 0.129D-01 0.619D-01 0.245D+00 0.682D+00
 Gap=     0.263 Goal=   None    Shift=    0.000
 RMSDP=1.58D-07 MaxDP=4.16D-06 DE=-2.34D-09 OVMax= 8.96D-06

 Cycle   6  Pass 1  IDiag  1:
 E= -514.890941775466     Delta-E=       -0.000000000058 Rises=F Damp=F
 DIIS: error= 4.68D-07 at cycle   6 NSaved=   6.
 NSaved= 6 IEnMin= 6 EnMin= -514.890941775466     IErMin= 6 ErrMin= 4.68D-07
 ErrMax= 4.68D-07  0.00D+00 EMaxC= 1.00D-01 BMatC= 6.45D-11 BMatP= 1.33D-10
 IDIUse=1 WtCom= 1.00D+00 WtEn= 0.00D+00
 Coeff-Com:  0.306D-03-0.748D-02 0.116D-01 0.852D-01 0.447D+00 0.463D+00
 Coeff:      0.306D-03-0.748D-02 0.116D-01 0.852D-01 0.447D+00 0.463D+00
 Gap=     0.263 Goal=   None    Shift=    0.000
 RMSDP=6.37D-08 MaxDP=2.24D-06 DE=-5.75D-11 OVMax= 4.36D-06

 Cycle   7  Pass 1  IDiag  1:
 E= -514.890941775536     Delta-E=       -0.000000000070 Rises=F Damp=F
 DIIS: error= 5.13D-08 at cycle   7 NSaved=   7.
 NSaved= 7 IEnMin= 7 EnMin= -514.890941775536     IErMin= 7 ErrMin= 5.13D-08
 ErrMax= 5.13D-08  0.00D+00 EMaxC= 1.00D-01 BMatC= 9.15D-13 BMatP= 6.45D-11
 IDIUse=1 WtCom= 1.00D+00 WtEn= 0.00D+00
 Coeff-Com:  0.213D-03-0.374D-02-0.184D-02 0.555D-02 0.767D-01 0.150D+00
 Coeff-Com:  0.773D+00
 Coeff:      0.213D-03-0.374D-02-0.184D-02 0.555D-02 0.767D-01 0.150D+00
 Coeff:      0.773D+00
 Gap=     0.263 Goal=   None    Shift=    0.000
 RMSDP=1.17D-08 MaxDP=3.07D-07 DE=-7.05D-11 OVMax= 5.42D-07

 Cycle   8  Pass 1  IDiag  1:
 E= -514.890941775532     Delta-E=        0.000000000004 Rises=F Damp=F
 DIIS: error= 1.72D-08 at cycle   8 NSaved=   8.
 NSaved= 8 IEnMin= 7 EnMin= -514.890941775536     IErMin= 8 ErrMin= 1.72D-08
 ErrMax= 1.72D-08  0.00D+00 EMaxC= 1.00D-01 BMatC= 8.53D-14 BMatP= 9.15D-13
 IDIUse=1 WtCom= 1.00D+00 WtEn= 0.00D+00
 Coeff-Com:  0.866D-04-0.140D-02-0.122D-02-0.388D-03 0.188D-01 0.514D-01
 Coeff-Com:  0.352D+00 0.581D+00
 Coeff:      0.866D-04-0.140D-02-0.122D-02-0.388D-03 0.188D-01 0.514D-01
 Coeff:      0.352D+00 0.581D+00
 Gap=     0.263 Goal=   None    Shift=    0.000
 RMSDP=2.34D-09 MaxDP=7.31D-08 DE= 4.09D-12 OVMax= 1.11D-07

 SCF Done:  E(RB3LYP) =  -514.890941776     A.U. after    8 cycles
            NFock=  8  Conv=0.23D-08     -V/T= 2.0080
 KE= 5.108054288211D+02 PE=-1.879636573375D+03 EE= 5.231062562727D+02
 Leave Link  502 at Thu Apr  2 13:34:03 2026, MaxMem=  2147483648 cpu:              16.3 elap:               2.3
 (Enter /Users/yarger/Applications/g16/l701.exe)
 ... and contract with generalized density number  0.
 Compute integral first derivatives.
 Leave Link  701 at Thu Apr  2 13:34:03 2026, MaxMem=  2147483648 cpu:               0.5 elap:               0.1
 (Enter /Users/yarger/Applications/g16/l702.exe)
 L702 exits ... SP integral derivatives will be done elsewhere.
 Leave Link  702 at Thu Apr  2 13:34:03 2026, MaxMem=  2147483648 cpu:               0.1 elap:               0.0
 (Enter /Users/yarger/Applications/g16/l703.exe)
 Integral derivatives from FoFJK, PRISM(SPDF).
 Compute integral first derivatives, UseDBF=F ICtDFT=           0.
 Calling FoFJK, ICntrl=      2127 FMM=F ISym2X=0 I1Cent= 0 IOpClX= 0 NMat=1 NMatS=1 NMatT=0.
 FoFJK:  IHMeth= 1 ICntrl=    2127 DoSepK=F KAlg= 0 I1Cent=           0 FoldK=F
 IRaf=         0 NMat=       1 IRICut=       1 DoRegI=T DoRafI=F ISym2E= 0 IDoP0=0 IntGTp=1.
 FoFCou: FMM=F IPFlag=           0 FMFlag=      100000 FMFlg1=         800
         NFxFlg=           0 DoJE=F BraDBF=F KetDBF=F FulRan=T
         wScrn=  0.000000 ICntrl=      2127 IOpCl=  0 I1Cent=           0 NGrid=           0
         NMat0=    1 NMatS0=      1 NMatT0=    0 NMatD0=    1 NMtDS0=    0 NMtDT0=    0
 Symmetry not used in FoFCou.
 Leave Link  703 at Thu Apr  2 13:34:04 2026, MaxMem=  2147483648 cpu:               6.3 elap:               0.8
 (Enter /Users/yarger/Applications/g16/l716.exe)
 Dipole        = 6.93461216D-01-6.64242294D-01-1.25159740D-04
 ***** Axes restored to original set *****
 -------------------------------------------------------------------
 Center     Atomic                   Forces (Hartrees/Bohr)
 Number     Number              X              Y              Z
 -------------------------------------------------------------------
      1        6          -0.000002454   -0.000001485   -0.000000315
      2        1           0.000003599   -0.000000545    0.000003590
      3        1           0.000000209    0.000004583   -0.000000260
      4        6           0.000016062    0.000004299   -0.000009497
      5        6           0.000002118   -0.000045834   -0.000064921
      6        9          -0.000006050   -0.000004519    0.000009729
      7        9          -0.000016543    0.000028844    0.000016421
      8        9           0.000017418    0.000007808    0.000034923
      9        9          -0.000014359    0.000006851    0.000010329
 -------------------------------------------------------------------
 Cartesian Forces:  Max     0.000064921 RMS     0.000019449
 Leave Link  716 at Thu Apr  2 13:34:04 2026, MaxMem=  2147483648 cpu:               0.1 elap:               0.0
 (Enter /Users/yarger/Applications/g16/l103.exe)

 GradGradGradGradGradGradGradGradGradGradGradGradGradGradGradGradGradGrad
 Berny optimization.
 Using GEDIIS/GDIIS optimizer.
 FormGI is forming the generalized inverse of G from B-inverse, IUseBI=4.
 Internal  Forces:  Max     0.000039659 RMS     0.000011782
 Search for a local minimum.
 Step number  23 out of a maximum of   40
 All quantities printed in internal units (Hartrees-Bohrs-Radians)
 RMS Force = .11782D-04 SwitMx=.10000D-02 MixMth= 2
 Mixed Optimization -- En-DIIS/RFO-DIIS
 Swapping is turned off.
 Update second derivatives using D2CorX and points   18   17   19   20   21
                                                     22   23
 DE= -2.99D-07 DEPred=-3.03D-07 R= 9.86D-01
 Trust test= 9.86D-01 RLast= 7.96D-03 DXMaxT set to 1.09D+00
 ITU=  0  1  1  1  0 -1  1  0  1  0  1  0  0  0  0  0  0  0  1  1
 ITU=  1  1  0
     Eigenvalues ---    0.00263   0.01818   0.02949   0.03154   0.10676
     Eigenvalues ---    0.11089   0.12531   0.14385   0.20398   0.23146
     Eigenvalues ---    0.24694   0.25598   0.31659   0.35200   0.35538
     Eigenvalues ---    0.38428   0.41471   0.43779   0.53798   0.60886
     Eigenvalues ---    0.71830
 En-DIIS/RFO-DIIS/Sim-DIIS IScMMF=       -3 using points:    23   22   21   20
 RFO step:  Lambda=-9.57705998D-09.
 NNeg= 0 NGDIIS= 4 SimSw=  2.50D-01 Rises=F DC= -2.99D-07 SmlDif=  1.00D-05
 NRisDI= 0 DoIntr=F SqrtH=F CThrHd= 10.0 CDAdj=  3.0
 RMS Error=  0.5022591604D-04 NUsed= 4 OKEnD=F EnDIS=F
 InvSVX:  RCond= 2.17D-06 Info=           0 Equed=N FErr=  3.67D-15 BErr=  5.18D-17
 DidBck=F Rises=F RFO-DIIS coefs:    0.97414    0.01443    0.00925    0.00218
 Iteration  1 RMS(Cart)=  0.00004979 RMS(Int)=  0.00000001
 Iteration  2 RMS(Cart)=  0.00000000 RMS(Int)=  0.00000001
 ITry= 1 IFail=0 DXMaxC= 1.26D-04 DCOld= 1.00D+10 DXMaxT= 1.09D+00 DXLimC= 3.00D+00 Rises=F
 Variable       Old X    -DE/DX   Delta X   Delta X   Delta X     New X
                                 (Linear)    (Quad)   (Total)
    R1        2.04587  -0.00000  -0.00000   0.00000  -0.00000   2.04587
    R2        2.04939   0.00000   0.00000  -0.00000   0.00000   2.04939
    R3        2.50353   0.00000   0.00001  -0.00000   0.00000   2.50353
    R4        2.85131   0.00000   0.00000   0.00000   0.00001   2.85132
    R5        2.55246  -0.00001   0.00001  -0.00004  -0.00003   2.55243
    R6        2.55467   0.00001   0.00001   0.00000   0.00001   2.55468
    R7        2.55052   0.00004  -0.00001   0.00008   0.00007   2.55060
    R8        2.55484  -0.00004   0.00001  -0.00009  -0.00008   2.55476
    A1        2.07913  -0.00000  -0.00000  -0.00004  -0.00004   2.07909
    A2        2.10139   0.00000   0.00002   0.00000   0.00002   2.10141
    A3        2.10267   0.00000  -0.00001   0.00004   0.00002   2.10269
    A4        2.21170   0.00001   0.00000   0.00004   0.00004   2.21175
    A5        2.13699   0.00001  -0.00001   0.00005   0.00004   2.13704
    A6        1.93449  -0.00002   0.00001  -0.00009  -0.00008   1.93440
    A7        1.94161   0.00001   0.00001   0.00000   0.00001   1.94162
    A8        1.94074   0.00000   0.00001   0.00000   0.00001   1.94075
    A9        1.94161  -0.00000  -0.00000   0.00001   0.00001   1.94161
   A10        1.88307  -0.00001   0.00000  -0.00003  -0.00003   1.88304
   A11        1.87080   0.00000  -0.00001   0.00003   0.00002   1.87082
   A12        1.88303  -0.00000  -0.00001  -0.00001  -0.00002   1.88301
    D1       -0.00006   0.00000   0.00001  -0.00001   0.00000  -0.00006
    D2        3.14147   0.00000   0.00001   0.00010   0.00011   3.14159
    D3        3.14155   0.00000   0.00001  -0.00001  -0.00000   3.14155
    D4       -0.00010   0.00000   0.00001   0.00010   0.00011   0.00001
    D5       -2.09939   0.00000  -0.00001   0.00008   0.00007  -2.09932
    D6        0.00001   0.00000   0.00000   0.00004   0.00004   0.00005
    D7        2.09935  -0.00000  -0.00000   0.00003   0.00003   2.09938
    D8        1.04226   0.00000  -0.00001  -0.00003  -0.00004   1.04222
    D9       -3.14153  -0.00000   0.00000  -0.00007  -0.00006  -3.14159
   D10       -1.04219  -0.00000  -0.00000  -0.00007  -0.00007  -1.04226
         Item               Value     Threshold  Converged?
 Maximum Force            0.000040     0.000015     NO 
 RMS     Force            0.000012     0.000010     NO 
 Maximum Displacement     0.000126     0.000060     NO 
 RMS     Displacement     0.000050     0.000040     NO 
 Predicted change in Energy=-5.772386D-09
 Lowest energy point so far.  Saving SCF results.
 GradGradGradGradGradGradGradGradGradGradGradGradGradGradGradGradGradGrad

 Leave Link  103 at Thu Apr  2 13:34:04 2026, MaxMem=  2147483648 cpu:               0.2 elap:               0.0
 (Enter /Users/yarger/Applications/g16/l202.exe)
                          Input orientation:                          
 ---------------------------------------------------------------------
 Center     Atomic      Atomic             Coordinates (Angstroms)
 Number     Number       Type             X           Y           Z
 ---------------------------------------------------------------------
      1          6           0        1.747888    1.032579    0.224290
      2          1           0        1.356385    1.928874    0.688470
      3          1           0        2.819064    0.934458    0.086198
      4          6           0        0.928586    0.068862   -0.169567
      5          6           0       -0.575273    0.057190   -0.047487
      6          9           0       -0.998330   -0.989724    0.695867
      7          9           0       -1.026437    1.188255    0.534646
      8          9           0       -1.164375   -0.049479   -1.259621
      9          9           0        1.372012   -1.065849   -0.752799
 ---------------------------------------------------------------------
                    Distance matrix (angstroms):
                    1          2          3          4          5
     1  C    0.000000
     2  H    1.082627   0.000000
     3  H    1.084488   1.868429   0.000000
     4  C    1.324814   2.092578   2.094894   0.000000
     5  C    2.534231   2.788572   3.508418   1.508851   0.000000
     6  F    3.442937   3.750060   4.318180   2.362750   1.351880
     7  F    2.795968   2.500003   3.879871   2.360312   1.349717
     8  F    3.442981   3.750089   4.318234   2.362775   1.351920
     9  F    2.345077   3.323532   2.607509   1.350687   2.355971
                    6          7          8          9
     6  F    0.000000
     7  F    2.184119   0.000000
     8  F    2.176136   2.184127   0.000000
     9  F    2.779019   3.534269   2.779052   0.000000
 Stoichiometry    C3H2F4
 Framework group  C1[X(C3H2F4)]
 Deg. of freedom    21
 Full point group                 C1      NOp   1
 RotChk:  IX=1 Diff= 4.74D-05
 Largest Abelian subgroup         C1      NOp   1
 Largest concise Abelian subgroup C1      NOp   1
                         Standard orientation:                         
 ---------------------------------------------------------------------
 Center     Atomic      Atomic             Coordinates (Angstroms)
 Number     Number       Type             X           Y           Z
 ---------------------------------------------------------------------
      1          6           0        1.728198   -1.078675    0.000011
      2          1           0        1.319376   -2.081145    0.000032
      3          1           0        2.804748   -0.947701   -0.000001
      4          6           0        0.923322   -0.026389    0.000021
      5          6           0       -0.585421   -0.044509   -0.000016
      6          9           0       -1.082890    0.584954   -1.088078
      7          9           0       -1.058294   -1.308680    0.000003
      8          9           0       -1.082947    0.584978    1.088057
      9          9           0        1.388496    1.241668    0.000004
 ---------------------------------------------------------------------
 Rotational constants (GHZ):           3.6586426           2.4319927           1.9743741
 Leave Link  202 at Thu Apr  2 13:34:04 2026, MaxMem=  2147483648 cpu:               0.0 elap:               0.0
 (Enter /Users/yarger/Applications/g16/l301.exe)
 Standard basis: 6-31+G(d) (6D, 7F)
 Ernie: Thresh=  0.10000D-02 Tol=  0.10000D-05 Strict=F.
 There are   137 symmetry adapted cartesian basis functions of A   symmetry.
 There are   137 symmetry adapted basis functions of A   symmetry.
   137 basis functions,   232 primitive gaussians,   137 cartesian basis functions
    28 alpha electrons       28 beta electrons
       nuclear repulsion energy       330.8346988534 Hartrees.
 IExCor=  402 DFT=T Ex+Corr=B3LYP ExCW=0 ScaHFX=  0.200000
 ScaDFX=  0.800000  0.720000  1.000000  0.810000 ScalE2=  1.000000  1.000000
 IRadAn=      5 IRanWt=     -1 IRanGd=            0 ICorTp=0 IEmpDi=  4
 NAtoms=    9 NActive=    9 NUniq=    9 SFac= 1.00D+00 NAtFMM=   60 NAOKFM=F Big=F
 Integral buffers will be    131072 words long.
 Raffenetti 2 integral format.
 Two-electron integral symmetry is turned on.
 Leave Link  301 at Thu Apr  2 13:34:04 2026, MaxMem=  2147483648 cpu:               0.2 elap:               0.0
 (Enter /Users/yarger/Applications/g16/l302.exe)
 NPDir=0 NMtPBC=     1 NCelOv=     1 NCel=       1 NClECP=     1 NCelD=      1
         NCelK=      1 NCelE2=     1 NClLst=     1 CellRange=     0.0.
 One-electron integrals computed using PRISM.
 One-electron integral symmetry used in STVInt
 NBasis=   137 RedAO= T EigKep=  6.96D-05  NBF=   137
 NBsUse=   137 1.00D-06 EigRej= -1.00D+00 NBFU=   137
 Precomputing XC quadrature grid using
 IXCGrd= 4 IRadAn=           5 IRanWt=          -1 IRanGd=           0 AccXCQ= 0.00D+00.
 Generated NRdTot=       0 NPtTot=           0 NUsed=           0 NTot=          32
 NSgBfM=   137   137   137   137   137 MxSgAt=     9 MxSgA2=     9.
 Leave Link  302 at Thu Apr  2 13:34:04 2026, MaxMem=  2147483648 cpu:               0.9 elap:               0.2
 (Enter /Users/yarger/Applications/g16/l303.exe)
 DipDrv:  MaxL=1.
 Leave Link  303 at Thu Apr  2 13:34:04 2026, MaxMem=  2147483648 cpu:               0.1 elap:               0.0
 (Enter /Users/yarger/Applications/g16/l401.exe)
 Initial guess from the checkpoint file:  "2223Tetrafluoropropene_Opt_Freq_DFT_B3LYP_631pd_Gaussian16.chk"
 B after Tr=    -0.000000   -0.000000    0.000000
         Rot=    1.000000   -0.000009    0.000001   -0.000009 Ang=  -0.00 deg.
 Guess basis will be translated and rotated to current coordinates.
 JPrj=2 DoOrth=T DoCkMO=T.
 Leave Link  401 at Thu Apr  2 13:34:04 2026, MaxMem=  2147483648 cpu:               0.4 elap:               0.1
 (Enter /Users/yarger/Applications/g16/l502.exe)
 Keep R1 ints in memory in canonical form, NReq=52385408.
 FoFCou: FMM=F IPFlag=           0 FMFlag=           0 FMFlg1=           0
         NFxFlg=           0 DoJE=F BraDBF=F KetDBF=F FulRan=T
         wScrn=  0.000000 ICntrl=       600 IOpCl=  0 I1Cent=           0 NGrid=           0
         NMat0=    1 NMatS0=   9453 NMatT0=    0 NMatD0=    1 NMtDS0=    0 NMtDT0=    0
 Symmetry not used in FoFCou.
 Two-electron integral symmetry not used.
 Closed shell SCF:
 Using DIIS extrapolation, IDIIS=  1040.
 NGot=  2147483648 LenX=  2102759234 LenY=  2102740024
 Requested convergence on RMS density matrix=1.00D-08 within 128 cycles.
 Requested convergence on MAX density matrix=1.00D-06.
 Requested convergence on             energy=1.00D-06.
 No special actions if energy rises.

 Cycle   1  Pass 1  IDiag  1:
 E= -514.890941776430    
 DIIS: error= 2.99D-06 at cycle   1 NSaved=   1.
 NSaved= 1 IEnMin= 1 EnMin= -514.890941776430     IErMin= 1 ErrMin= 2.99D-06
 ErrMax= 2.99D-06  0.00D+00 EMaxC= 1.00D-01 BMatC= 3.90D-09 BMatP= 3.90D-09
 IDIUse=1 WtCom= 1.00D+00 WtEn= 0.00D+00
 Coeff-Com:  0.100D+01
 Coeff:      0.100D+01
 Gap=     0.679 Goal=   None    Shift=    0.000
 RMSDP=1.19D-06 MaxDP=2.01D-05              OVMax= 1.60D-05

 Cycle   2  Pass 1  IDiag  1:
 E= -514.890941782088     Delta-E=       -0.000000005659 Rises=F Damp=F
 DIIS: error= 9.69D-07 at cycle   2 NSaved=   2.
 NSaved= 2 IEnMin= 2 EnMin= -514.890941782088     IErMin= 2 ErrMin= 9.69D-07
 ErrMax= 9.69D-07  0.00D+00 EMaxC= 1.00D-01 BMatC= 2.88D-10 BMatP= 3.90D-09
 IDIUse=1 WtCom= 1.00D+00 WtEn= 0.00D+00
 Coeff-Com:  0.682D-01 0.932D+00
 Coeff:      0.682D-01 0.932D+00
 Gap=     0.263 Goal=   None    Shift=    0.000
 RMSDP=2.20D-07 MaxDP=4.71D-06 DE=-5.66D-09 OVMax= 5.69D-06

 Cycle   3  Pass 1  IDiag  1:
 E= -514.890941781974     Delta-E=        0.000000000114 Rises=F Damp=F
 DIIS: error= 1.41D-06 at cycle   3 NSaved=   3.
 NSaved= 3 IEnMin= 2 EnMin= -514.890941782088     IErMin= 2 ErrMin= 9.69D-07
 ErrMax= 1.41D-06  0.00D+00 EMaxC= 1.00D-01 BMatC= 4.89D-10 BMatP= 2.88D-10
 IDIUse=1 WtCom= 1.00D+00 WtEn= 0.00D+00
 Coeff-Com: -0.337D-01 0.581D+00 0.453D+00
 Coeff:     -0.337D-01 0.581D+00 0.453D+00
 Gap=     0.263 Goal=   None    Shift=    0.000
 RMSDP=1.16D-07 MaxDP=3.10D-06 DE= 1.14D-10 OVMax= 3.61D-06

 Cycle   4  Pass 1  IDiag  1:
 E= -514.890941782277     Delta-E=       -0.000000000302 Rises=F Damp=F
 DIIS: error= 9.02D-08 at cycle   4 NSaved=   4.
 NSaved= 4 IEnMin= 4 EnMin= -514.890941782277     IErMin= 4 ErrMin= 9.02D-08
 ErrMax= 9.02D-08  0.00D+00 EMaxC= 1.00D-01 BMatC= 3.56D-12 BMatP= 2.88D-10
 IDIUse=1 WtCom= 1.00D+00 WtEn= 0.00D+00
 Coeff-Com: -0.975D-02 0.114D+00 0.141D+00 0.755D+00
 Coeff:     -0.975D-02 0.114D+00 0.141D+00 0.755D+00
 Gap=     0.263 Goal=   None    Shift=    0.000
 RMSDP=1.47D-08 MaxDP=4.26D-07 DE=-3.02D-10 OVMax= 7.00D-07

 Cycle   5  Pass 1  IDiag  1:
 E= -514.890941782279     Delta-E=       -0.000000000002 Rises=F Damp=F
 DIIS: error= 3.61D-08 at cycle   5 NSaved=   5.
 NSaved= 5 IEnMin= 5 EnMin= -514.890941782279     IErMin= 5 ErrMin= 3.61D-08
 ErrMax= 3.61D-08  0.00D+00 EMaxC= 1.00D-01 BMatC= 4.53D-13 BMatP= 3.56D-12
 IDIUse=1 WtCom= 1.00D+00 WtEn= 0.00D+00
 Coeff-Com: -0.366D-02 0.378D-01 0.596D-01 0.408D+00 0.498D+00
 Coeff:     -0.366D-02 0.378D-01 0.596D-01 0.408D+00 0.498D+00
 Gap=     0.263 Goal=   None    Shift=    0.000
 RMSDP=5.69D-09 MaxDP=2.23D-07 DE=-2.05D-12 OVMax= 4.24D-07

 SCF Done:  E(RB3LYP) =  -514.890941782     A.U. after    5 cycles
            NFock=  5  Conv=0.57D-08     -V/T= 2.0080
 KE= 5.108054507070D+02 PE=-1.879638112335D+03 EE= 5.231070209926D+02
 Leave Link  502 at Thu Apr  2 13:34:06 2026, MaxMem=  2147483648 cpu:              11.0 elap:               1.5
 (Enter /Users/yarger/Applications/g16/l701.exe)
 ... and contract with generalized density number  0.
 Compute integral first derivatives.
 Leave Link  701 at Thu Apr  2 13:34:06 2026, MaxMem=  2147483648 cpu:               0.5 elap:               0.1
 (Enter /Users/yarger/Applications/g16/l702.exe)
 L702 exits ... SP integral derivatives will be done elsewhere.
 Leave Link  702 at Thu Apr  2 13:34:06 2026, MaxMem=  2147483648 cpu:               0.1 elap:               0.0
 (Enter /Users/yarger/Applications/g16/l703.exe)
 Integral derivatives from FoFJK, PRISM(SPDF).
 Compute integral first derivatives, UseDBF=F ICtDFT=           0.
 Calling FoFJK, ICntrl=      2127 FMM=F ISym2X=0 I1Cent= 0 IOpClX= 0 NMat=1 NMatS=1 NMatT=0.
 FoFJK:  IHMeth= 1 ICntrl=    2127 DoSepK=F KAlg= 0 I1Cent=           0 FoldK=F
 IRaf=         0 NMat=       1 IRICut=       1 DoRegI=T DoRafI=F ISym2E= 0 IDoP0=0 IntGTp=1.
 FoFCou: FMM=F IPFlag=           0 FMFlag=      100000 FMFlg1=         800
         NFxFlg=           0 DoJE=F BraDBF=F KetDBF=F FulRan=T
         wScrn=  0.000000 ICntrl=      2127 IOpCl=  0 I1Cent=           0 NGrid=           0
         NMat0=    1 NMatS0=      1 NMatT0=    0 NMatD0=    1 NMtDS0=    0 NMtDT0=    0
 Symmetry not used in FoFCou.
 Leave Link  703 at Thu Apr  2 13:34:07 2026, MaxMem=  2147483648 cpu:               6.3 elap:               0.8
 (Enter /Users/yarger/Applications/g16/l716.exe)
 Dipole        = 6.93547758D-01-6.64107289D-01-6.07793233D-05
 ***** Axes restored to original set *****
 -------------------------------------------------------------------
 Center     Atomic                   Forces (Hartrees/Bohr)
 Number     Number              X              Y              Z
 -------------------------------------------------------------------
      1        6          -0.000001449   -0.000000616   -0.000002164
      2        1          -0.000000744   -0.000000034    0.000000927
      3        1          -0.000000039    0.000000639   -0.000000103
      4        6           0.000004688    0.000004479    0.000004935
      5        6          -0.000002487   -0.000017783   -0.000030615
      6        9          -0.000001803   -0.000003185    0.000006057
      7        9          -0.000004669    0.000013180    0.000008650
      8        9           0.000007493    0.000002597    0.000012302
      9        9          -0.000000988    0.000000724    0.000000011
 -------------------------------------------------------------------
 Cartesian Forces:  Max     0.000030615 RMS     0.000008325
 Leave Link  716 at Thu Apr  2 13:34:07 2026, MaxMem=  2147483648 cpu:               0.1 elap:               0.0
 (Enter /Users/yarger/Applications/g16/l103.exe)

 GradGradGradGradGradGradGradGradGradGradGradGradGradGradGradGradGradGrad
 Berny optimization.
 Using GEDIIS/GDIIS optimizer.
 FormGI is forming the generalized inverse of G from B-inverse, IUseBI=4.
 Internal  Forces:  Max     0.000016736 RMS     0.000004491
 Search for a local minimum.
 Step number  24 out of a maximum of   40
 All quantities printed in internal units (Hartrees-Bohrs-Radians)
 RMS Force = .44906D-05 SwitMx=.10000D-02 MixMth= 2
 Mixed Optimization -- En-DIIS/RFO-DIIS
 Swapping is turned off.
 Update second derivatives using D2CorX and points   18   17   19   20   21
                                                     22   23   24
 DE= -6.75D-09 DEPred=-5.77D-09 R= 1.17D+00
 Trust test= 1.17D+00 RLast= 2.69D-04 DXMaxT set to 1.09D+00
 ITU=  0  0  1  1  1  0 -1  1  0  1  0  1  0  0  0  0  0  0  0  1
 ITU=  1  1  1  0
     Eigenvalues ---    0.00263   0.01952   0.02935   0.03151   0.10285
     Eigenvalues ---    0.10993   0.12157   0.14419   0.20422   0.22619
     Eigenvalues ---    0.24248   0.25733   0.31852   0.35181   0.35545
     Eigenvalues ---    0.35983   0.40316   0.43794   0.46786   0.60939
     Eigenvalues ---    0.71546
 En-DIIS/RFO-DIIS/Sim-DIIS IScMMF=       -3 using points:    24   23   22   21   20
 RFO step:  Lambda=-1.85073925D-09.
 NNeg= 0 NGDIIS= 5 SimSw=  2.50D-01 Rises=F DC= -6.75D-09 SmlDif=  1.00D-05
 NRisDI= 0 DoIntr=F SqrtH=F CThrHd= 10.0 CDAdj=  3.0
 RMS Error=  0.2784900697D-04 NUsed= 5 OKEnD=F EnDIS=F
 InvSVX:  RCond= 7.16D-09 Info=           0 Equed=N FErr=  4.00D-15 BErr=  1.06D-16
 DIIS inversion failure, remove point   5.
 InvSVX:  RCond= 9.00D-09 Info=           0 Equed=N FErr=  2.84D-15 BErr=  6.00D-17
 DIIS inversion failure, remove point   4.
 InvSVX:  RCond= 1.20D-08 Info=           0 Equed=N FErr=  2.21D-15 BErr=  1.75D-16
 DIIS inversion failure, remove point   3.
 InvSVX:  RCond= 1.80D-08 Info=           0 Equed=N FErr=  1.72D-15 BErr=  3.82D-17
 DIIS inversion failure, remove point   2.
 Use linear search instead of GDIIS.
 RFO step:  Lambda= 0.00000000D+00 EMin= 2.62714714D-03
 Quartic linear search produced a step of  0.61594.
 Iteration  1 RMS(Cart)=  0.00003270 RMS(Int)=  0.00000000
 Iteration  2 RMS(Cart)=  0.00000000 RMS(Int)=  0.00000000
 ITry= 1 IFail=0 DXMaxC= 8.86D-05 DCOld= 1.00D+10 DXMaxT= 1.09D+00 DXLimC= 3.00D+00 Rises=F
 Variable       Old X    -DE/DX   Delta X   Delta X   Delta X     New X
                                 (Linear)    (Quad)   (Total)
    R1        2.04587   0.00000  -0.00000   0.00000   0.00000   2.04587
    R2        2.04939   0.00000   0.00000   0.00000   0.00000   2.04939
    R3        2.50353  -0.00000   0.00000  -0.00001  -0.00001   2.50353
    R4        2.85132   0.00000   0.00000   0.00000   0.00001   2.85132
    R5        2.55243  -0.00000  -0.00002   0.00002   0.00001   2.55244
    R6        2.55468   0.00001   0.00001   0.00000   0.00001   2.55469
    R7        2.55060   0.00002   0.00005   0.00002   0.00006   2.55066
    R8        2.55476  -0.00001  -0.00005  -0.00001  -0.00006   2.55470
    A1        2.07909   0.00000  -0.00003   0.00001  -0.00002   2.07907
    A2        2.10141  -0.00000   0.00001  -0.00002  -0.00000   2.10141
    A3        2.10269  -0.00000   0.00001   0.00000   0.00002   2.10271
    A4        2.21175   0.00000   0.00003  -0.00000   0.00002   2.21177
    A5        2.13704   0.00000   0.00003  -0.00001   0.00001   2.13705
    A6        1.93440  -0.00000  -0.00005   0.00001  -0.00004   1.93437
    A7        1.94162   0.00000   0.00001   0.00001   0.00001   1.94163
    A8        1.94075  -0.00000   0.00001  -0.00003  -0.00003   1.94073
    A9        1.94161  -0.00000   0.00000   0.00001   0.00001   1.94162
   A10        1.88304  -0.00000  -0.00002  -0.00002  -0.00004   1.88301
   A11        1.87082   0.00000   0.00001   0.00002   0.00003   1.87086
   A12        1.88301   0.00000  -0.00001   0.00001   0.00000   1.88301
    D1       -0.00006   0.00000   0.00000   0.00003   0.00003  -0.00003
    D2        3.14159   0.00000   0.00007   0.00006   0.00013  -3.14147
    D3        3.14155   0.00000  -0.00000   0.00003   0.00003   3.14157
    D4        0.00001  -0.00000   0.00007   0.00005   0.00012   0.00013
    D5       -2.09932   0.00000   0.00004   0.00003   0.00007  -2.09925
    D6        0.00005  -0.00000   0.00003  -0.00001   0.00001   0.00007
    D7        2.09938  -0.00000   0.00002  -0.00001   0.00001   2.09939
    D8        1.04222   0.00000  -0.00002   0.00000  -0.00002   1.04220
    D9       -3.14159  -0.00000  -0.00004  -0.00003  -0.00007   3.14152
   D10       -1.04226  -0.00000  -0.00005  -0.00003  -0.00008  -1.04234
         Item               Value     Threshold  Converged?
 Maximum Force            0.000017     0.000015     NO 
 RMS     Force            0.000004     0.000010     YES
 Maximum Displacement     0.000089     0.000060     NO 
 RMS     Displacement     0.000033     0.000040     YES
 Predicted change in Energy=-4.198171D-10
 Lowest energy point so far.  Saving SCF results.
 GradGradGradGradGradGradGradGradGradGradGradGradGradGradGradGradGradGrad

 Leave Link  103 at Thu Apr  2 13:34:07 2026, MaxMem=  2147483648 cpu:               0.1 elap:               0.0
 (Enter /Users/yarger/Applications/g16/l202.exe)
                          Input orientation:                          
 ---------------------------------------------------------------------
 Center     Atomic      Atomic             Coordinates (Angstroms)
 Number     Number       Type             X           Y           Z
 ---------------------------------------------------------------------
      1          6           0        1.747892    1.032580    0.224285
      2          1           0        1.356392    1.928850    0.688517
      3          1           0        2.819068    0.934489    0.086170
      4          6           0        0.928587    0.068879   -0.169592
      5          6           0       -0.575276    0.057175   -0.047518
      6          9           0       -0.998329   -0.989718    0.695875
      7          9           0       -1.026442    1.188263    0.534647
      8          9           0       -1.164372   -0.049478   -1.259623
      9          9           0        1.371999   -1.065874   -0.752763
 ---------------------------------------------------------------------
                    Distance matrix (angstroms):
                    1          2          3          4          5
     1  C    0.000000
     2  H    1.082628   0.000000
     3  H    1.084489   1.868421   0.000000
     4  C    1.324810   2.092573   2.094902   0.000000
     5  C    2.534246   2.788594   3.508436   1.508855   0.000000
     6  F    3.442938   3.750041   4.318198   2.362767   1.351885
     7  F    2.795978   2.500009   3.879882   2.360321   1.349751
     8  F    3.442981   3.750105   4.318234   2.362765   1.351891
     9  F    2.345087   3.323538   2.607541   1.350691   2.355948
                    6          7          8          9
     6  F    0.000000
     7  F    2.184121   0.000000
     8  F    2.176142   2.184132   0.000000
     9  F    2.778994   3.534272   2.779055   0.000000
 Stoichiometry    C3H2F4
 Framework group  C1[X(C3H2F4)]
 Deg. of freedom    21
 Full point group                 C1      NOp   1
 RotChk:  IX=1 Diff= 2.27D-05
 Largest Abelian subgroup         C1      NOp   1
 Largest concise Abelian subgroup C1      NOp   1
                         Standard orientation:                         
 ---------------------------------------------------------------------
 Center     Atomic      Atomic             Coordinates (Angstroms)
 Number     Number       Type             X           Y           Z
 ---------------------------------------------------------------------
      1          6           0        1.728205   -1.078673    0.000010
      2          1           0        1.319384   -2.081143   -0.000045
      3          1           0        2.804758   -0.947715    0.000039
      4          6           0        0.923328   -0.026392    0.000056
      5          6           0       -0.585419   -0.044484    0.000003
      6          9           0       -1.082882    0.584960   -1.088079
      7          9           0       -1.058296   -1.308689   -0.000019
      8          9           0       -1.082949    0.584959    1.088063
      9          9           0        1.388481    1.241676   -0.000011
 ---------------------------------------------------------------------
 Rotational constants (GHZ):           3.6586233           2.4319951           1.9743742
 Leave Link  202 at Thu Apr  2 13:34:07 2026, MaxMem=  2147483648 cpu:               0.0 elap:               0.0
 (Enter /Users/yarger/Applications/g16/l301.exe)
 Standard basis: 6-31+G(d) (6D, 7F)
 Ernie: Thresh=  0.10000D-02 Tol=  0.10000D-05 Strict=F.
 There are   137 symmetry adapted cartesian basis functions of A   symmetry.
 There are   137 symmetry adapted basis functions of A   symmetry.
   137 basis functions,   232 primitive gaussians,   137 cartesian basis functions
    28 alpha electrons       28 beta electrons
       nuclear repulsion energy       330.8343684327 Hartrees.
 IExCor=  402 DFT=T Ex+Corr=B3LYP ExCW=0 ScaHFX=  0.200000
 ScaDFX=  0.800000  0.720000  1.000000  0.810000 ScalE2=  1.000000  1.000000
 IRadAn=      5 IRanWt=     -1 IRanGd=            0 ICorTp=0 IEmpDi=  4
 NAtoms=    9 NActive=    9 NUniq=    9 SFac= 1.00D+00 NAtFMM=   60 NAOKFM=F Big=F
 Integral buffers will be    131072 words long.
 Raffenetti 2 integral format.
 Two-electron integral symmetry is turned on.
 Leave Link  301 at Thu Apr  2 13:34:07 2026, MaxMem=  2147483648 cpu:               0.1 elap:               0.0
 (Enter /Users/yarger/Applications/g16/l302.exe)
 NPDir=0 NMtPBC=     1 NCelOv=     1 NCel=       1 NClECP=     1 NCelD=      1
         NCelK=      1 NCelE2=     1 NClLst=     1 CellRange=     0.0.
 One-electron integrals computed using PRISM.
 One-electron integral symmetry used in STVInt
 NBasis=   137 RedAO= T EigKep=  6.96D-05  NBF=   137
 NBsUse=   137 1.00D-06 EigRej= -1.00D+00 NBFU=   137
 Precomputing XC quadrature grid using
 IXCGrd= 4 IRadAn=           5 IRanWt=          -1 IRanGd=           0 AccXCQ= 0.00D+00.
 Generated NRdTot=       0 NPtTot=           0 NUsed=           0 NTot=          32
 NSgBfM=   137   137   137   137   137 MxSgAt=     9 MxSgA2=     9.
 Leave Link  302 at Thu Apr  2 13:34:07 2026, MaxMem=  2147483648 cpu:               0.8 elap:               0.1
 (Enter /Users/yarger/Applications/g16/l303.exe)
 DipDrv:  MaxL=1.
 Leave Link  303 at Thu Apr  2 13:34:07 2026, MaxMem=  2147483648 cpu:               0.1 elap:               0.0
 (Enter /Users/yarger/Applications/g16/l401.exe)
 Initial guess from the checkpoint file:  "2223Tetrafluoropropene_Opt_Freq_DFT_B3LYP_631pd_Gaussian16.chk"
 B after Tr=     0.000000    0.000000   -0.000000
         Rot=    1.000000   -0.000003    0.000001   -0.000002 Ang=  -0.00 deg.
 Guess basis will be translated and rotated to current coordinates.
 JPrj=2 DoOrth=T DoCkMO=T.
 Leave Link  401 at Thu Apr  2 13:34:07 2026, MaxMem=  2147483648 cpu:               0.4 elap:               0.1
 (Enter /Users/yarger/Applications/g16/l502.exe)
 Keep R1 ints in memory in canonical form, NReq=52385408.
 FoFCou: FMM=F IPFlag=           0 FMFlag=           0 FMFlg1=           0
         NFxFlg=           0 DoJE=F BraDBF=F KetDBF=F FulRan=T
         wScrn=  0.000000 ICntrl=       600 IOpCl=  0 I1Cent=           0 NGrid=           0
         NMat0=    1 NMatS0=   9453 NMatT0=    0 NMatD0=    1 NMtDS0=    0 NMtDT0=    0
 Symmetry not used in FoFCou.
 Two-electron integral symmetry not used.
 Closed shell SCF:
 Using DIIS extrapolation, IDIIS=  1040.
 NGot=  2147483648 LenX=  2102759234 LenY=  2102740024
 Requested convergence on RMS density matrix=1.00D-08 within 128 cycles.
 Requested convergence on MAX density matrix=1.00D-06.
 Requested convergence on             energy=1.00D-06.
 No special actions if energy rises.

 Cycle   1  Pass 1  IDiag  1:
 E= -514.890941779280    
 DIIS: error= 2.63D-06 at cycle   1 NSaved=   1.
 NSaved= 1 IEnMin= 1 EnMin= -514.890941779280     IErMin= 1 ErrMin= 2.63D-06
 ErrMax= 2.63D-06  0.00D+00 EMaxC= 1.00D-01 BMatC= 2.21D-09 BMatP= 2.21D-09
 IDIUse=1 WtCom= 1.00D+00 WtEn= 0.00D+00
 Coeff-Com:  0.100D+01
 Coeff:      0.100D+01
 Gap=     0.679 Goal=   None    Shift=    0.000
 RMSDP=8.89D-07 MaxDP=1.64D-05              OVMax= 1.48D-05

 Cycle   2  Pass 1  IDiag  1:
 E= -514.890941782485     Delta-E=       -0.000000003205 Rises=F Damp=F
 DIIS: error= 9.73D-07 at cycle   2 NSaved=   2.
 NSaved= 2 IEnMin= 2 EnMin= -514.890941782485     IErMin= 2 ErrMin= 9.73D-07
 ErrMax= 9.73D-07  0.00D+00 EMaxC= 1.00D-01 BMatC= 2.36D-10 BMatP= 2.21D-09
 IDIUse=1 WtCom= 1.00D+00 WtEn= 0.00D+00
 Coeff-Com:  0.112D+00 0.888D+00
 Coeff:      0.112D+00 0.888D+00
 Gap=     0.263 Goal=   None    Shift=    0.000
 RMSDP=1.60D-07 MaxDP=4.32D-06 DE=-3.21D-09 OVMax= 4.13D-06

 Cycle   3  Pass 1  IDiag  1:
 E= -514.890941782422     Delta-E=        0.000000000063 Rises=F Damp=F
 DIIS: error= 1.27D-06 at cycle   3 NSaved=   3.
 NSaved= 3 IEnMin= 2 EnMin= -514.890941782485     IErMin= 2 ErrMin= 9.73D-07
 ErrMax= 1.27D-06  0.00D+00 EMaxC= 1.00D-01 BMatC= 3.59D-10 BMatP= 2.36D-10
 IDIUse=1 WtCom= 1.00D+00 WtEn= 0.00D+00
 Coeff-Com: -0.367D-01 0.564D+00 0.472D+00
 Coeff:     -0.367D-01 0.564D+00 0.472D+00
 Gap=     0.263 Goal=   None    Shift=    0.000
 RMSDP=9.56D-08 MaxDP=2.72D-06 DE= 6.34D-11 OVMax= 2.84D-06

 Cycle   4  Pass 1  IDiag  1:
 E= -514.890941782646     Delta-E=       -0.000000000224 Rises=F Damp=F
 DIIS: error= 6.61D-08 at cycle   4 NSaved=   4.
 NSaved= 4 IEnMin= 4 EnMin= -514.890941782646     IErMin= 4 ErrMin= 6.61D-08
 ErrMax= 6.61D-08  0.00D+00 EMaxC= 1.00D-01 BMatC= 1.72D-12 BMatP= 2.36D-10
 IDIUse=1 WtCom= 1.00D+00 WtEn= 0.00D+00
 Coeff-Com: -0.860D-02 0.963D-01 0.126D+00 0.786D+00
 Coeff:     -0.860D-02 0.963D-01 0.126D+00 0.786D+00
 Gap=     0.263 Goal=   None    Shift=    0.000
 RMSDP=1.09D-08 MaxDP=2.05D-07 DE=-2.24D-10 OVMax= 1.99D-07

 Cycle   5  Pass 1  IDiag  1:
 E= -514.890941782646     Delta-E=       -0.000000000000 Rises=F Damp=F
 DIIS: error= 1.96D-08 at cycle   5 NSaved=   5.
 NSaved= 5 IEnMin= 5 EnMin= -514.890941782646     IErMin= 5 ErrMin= 1.96D-08
 ErrMax= 1.96D-08  0.00D+00 EMaxC= 1.00D-01 BMatC= 1.10D-13 BMatP= 1.72D-12
 IDIUse=1 WtCom= 1.00D+00 WtEn= 0.00D+00
 Coeff-Com: -0.250D-02 0.222D-01 0.395D-01 0.328D+00 0.612D+00
 Coeff:     -0.250D-02 0.222D-01 0.395D-01 0.328D+00 0.612D+00
 Gap=     0.263 Goal=   None    Shift=    0.000
 RMSDP=2.82D-09 MaxDP=6.42D-08 DE=-2.27D-13 OVMax= 8.15D-08

 SCF Done:  E(RB3LYP) =  -514.890941783     A.U. after    5 cycles
            NFock=  5  Conv=0.28D-08     -V/T= 2.0080
 KE= 5.108054271985D+02 PE=-1.879637451579D+03 EE= 5.231067141654D+02
 Leave Link  502 at Thu Apr  2 13:34:09 2026, MaxMem=  2147483648 cpu:              11.3 elap:               1.6
 (Enter /Users/yarger/Applications/g16/l701.exe)
 ... and contract with generalized density number  0.
 Compute integral first derivatives.
 Leave Link  701 at Thu Apr  2 13:34:09 2026, MaxMem=  2147483648 cpu:               0.5 elap:               0.1
 (Enter /Users/yarger/Applications/g16/l702.exe)
 L702 exits ... SP integral derivatives will be done elsewhere.
 Leave Link  702 at Thu Apr  2 13:34:09 2026, MaxMem=  2147483648 cpu:               0.1 elap:               0.0
 (Enter /Users/yarger/Applications/g16/l703.exe)
 Integral derivatives from FoFJK, PRISM(SPDF).
 Compute integral first derivatives, UseDBF=F ICtDFT=           0.
 Calling FoFJK, ICntrl=      2127 FMM=F ISym2X=0 I1Cent= 0 IOpClX= 0 NMat=1 NMatS=1 NMatT=0.
 FoFJK:  IHMeth= 1 ICntrl=    2127 DoSepK=F KAlg= 0 I1Cent=           0 FoldK=F
 IRaf=         0 NMat=       1 IRICut=       1 DoRegI=T DoRafI=F ISym2E= 0 IDoP0=0 IntGTp=1.
 FoFCou: FMM=F IPFlag=           0 FMFlag=      100000 FMFlg1=         800
         NFxFlg=           0 DoJE=F BraDBF=F KetDBF=F FulRan=T
         wScrn=  0.000000 ICntrl=      2127 IOpCl=  0 I1Cent=           0 NGrid=           0
         NMat0=    1 NMatS0=      1 NMatT0=    0 NMatD0=    1 NMtDS0=    0 NMtDT0=    0
 Symmetry not used in FoFCou.
 Leave Link  703 at Thu Apr  2 13:34:10 2026, MaxMem=  2147483648 cpu:               6.3 elap:               0.9
 (Enter /Users/yarger/Applications/g16/l716.exe)
 Dipole        = 6.93562105D-01-6.64021382D-01 4.15002323D-06
 ***** Axes restored to original set *****
 -------------------------------------------------------------------
 Center     Atomic                   Forces (Hartrees/Bohr)
 Number     Number              X              Y              Z
 -------------------------------------------------------------------
      1        6           0.000000487    0.000004270   -0.000001787
      2        1          -0.000001743    0.000000986   -0.000002459
      3        1          -0.000000490   -0.000002072    0.000001418
      4        6          -0.000000814   -0.000008456    0.000009754
      5        6          -0.000001366    0.000004195   -0.000001497
      6        9           0.000000554   -0.000002696   -0.000000878
      7        9           0.000000473    0.000000404   -0.000001174
      8        9           0.000000646   -0.000001221    0.000001418
      9        9           0.000002253    0.000004590   -0.000004795
 -------------------------------------------------------------------
 Cartesian Forces:  Max     0.000009754 RMS     0.000003280
 Leave Link  716 at Thu Apr  2 13:34:10 2026, MaxMem=  2147483648 cpu:               0.1 elap:               0.0
 (Enter /Users/yarger/Applications/g16/l103.exe)

 GradGradGradGradGradGradGradGradGradGradGradGradGradGradGradGradGradGrad
 Berny optimization.
 Using GEDIIS/GDIIS optimizer.
 FormGI is forming the generalized inverse of G from B-inverse, IUseBI=4.
 Internal  Forces:  Max     0.000004355 RMS     0.000001852
 Search for a local minimum.
 Step number  25 out of a maximum of   40
 All quantities printed in internal units (Hartrees-Bohrs-Radians)
 RMS Force = .18519D-05 SwitMx=.10000D-02 MixMth= 2
 Mixed Optimization -- En-DIIS/RFO-DIIS
 Swapping is turned off.
 Update second derivatives using D2CorX and points   18   17   19   20   21
                                                     22   23   24   25
 DE= -3.67D-10 DEPred=-4.20D-10 R= 8.75D-01
 Trust test= 8.75D-01 RLast= 2.48D-04 DXMaxT set to 1.09D+00
 ITU=  0  0  0  1  1  1  0 -1  1  0  1  0  1  0  0  0  0  0  0  0
 ITU=  1  1  1  1  0
     Eigenvalues ---    0.00263   0.01946   0.03104   0.03230   0.10641
     Eigenvalues ---    0.11154   0.11927   0.14435   0.20441   0.21751
     Eigenvalues ---    0.24465   0.26075   0.31697   0.32614   0.35203
     Eigenvalues ---    0.35548   0.39999   0.43865   0.45478   0.61000
     Eigenvalues ---    0.71266
 En-DIIS/RFO-DIIS/Sim-DIIS IScMMF=       -3 using points:    25   24   23   22   21   20
 RFO step:  Lambda=-8.24549813D-10.
 NNeg= 0 NGDIIS= 6 SimSw=  2.50D-01 Rises=F DC= -3.67D-10 SmlDif=  1.00D-05
 NRisDI= 0 DoIntr=F SqrtH=F CThrHd= 10.0 CDAdj=  3.0
 RMS Error=  0.4931504154D-04 NUsed= 6 OKEnD=F EnDIS=F
 InvSVX:  RCond= 3.03D-10 Info=           0 Equed=N FErr=  6.16D-14 BErr=  7.80D-17
 DIIS inversion failure, remove point   6.
 InvSVX:  RCond= 3.67D-10 Info=           0 Equed=N FErr=  4.25D-14 BErr=  7.22D-17
 DIIS inversion failure, remove point   5.
 InvSVX:  RCond= 5.65D-10 Info=           0 Equed=N FErr=  2.17D-14 BErr=  6.16D-17
 DIIS inversion failure, remove point   4.
 InvSVX:  RCond= 1.43D-09 Info=           0 Equed=N FErr=  2.43D-14 BErr=  1.02D-16
 DIIS inversion failure, remove point   3.
 InvSVX:  RCond= 6.94D-08 Info=           0 Equed=N FErr=  1.91D-15 BErr=  5.82D-17
 DIIS inversion failure, remove point   2.
 Use linear search instead of GDIIS.
 RFO step:  Lambda= 0.00000000D+00 EMin= 2.63195589D-03
 Quartic linear search produced a step of -0.41928.
 Iteration  1 RMS(Cart)=  0.00003382 RMS(Int)=  0.00000000
 Iteration  2 RMS(Cart)=  0.00000000 RMS(Int)=  0.00000000
 ITry= 1 IFail=0 DXMaxC= 9.17D-05 DCOld= 1.00D+10 DXMaxT= 1.09D+00 DXLimC= 3.00D+00 Rises=F
 Variable       Old X    -DE/DX   Delta X   Delta X   Delta X     New X
                                 (Linear)    (Quad)   (Total)
    R1        2.04587  -0.00000  -0.00000  -0.00000  -0.00000   2.04587
    R2        2.04939  -0.00000  -0.00000   0.00000  -0.00000   2.04939
    R3        2.50353  -0.00000   0.00000  -0.00000   0.00000   2.50353
    R4        2.85132  -0.00000  -0.00000   0.00000  -0.00000   2.85132
    R5        2.55244  -0.00000  -0.00000  -0.00001  -0.00001   2.55242
    R6        2.55469   0.00000  -0.00000   0.00001   0.00000   2.55470
    R7        2.55066   0.00000  -0.00003   0.00002  -0.00000   2.55066
    R8        2.55470  -0.00000   0.00002  -0.00003  -0.00000   2.55470
    A1        2.07907   0.00000   0.00001   0.00000   0.00001   2.07908
    A2        2.10141   0.00000   0.00000   0.00000   0.00001   2.10141
    A3        2.10271  -0.00000  -0.00001  -0.00001  -0.00001   2.10269
    A4        2.21177  -0.00000  -0.00001   0.00001  -0.00000   2.21177
    A5        2.13705  -0.00000  -0.00001   0.00000  -0.00001   2.13704
    A6        1.93437   0.00000   0.00002  -0.00001   0.00001   1.93438
    A7        1.94163  -0.00000  -0.00001   0.00001   0.00000   1.94164
    A8        1.94073  -0.00000   0.00001  -0.00001   0.00000   1.94073
    A9        1.94162   0.00000  -0.00001   0.00000  -0.00000   1.94162
   A10        1.88301   0.00000   0.00002  -0.00001   0.00001   1.88301
   A11        1.87086  -0.00000  -0.00001   0.00001  -0.00000   1.87085
   A12        1.88301   0.00000  -0.00000   0.00000  -0.00000   1.88301
    D1       -0.00003  -0.00000  -0.00001   0.00005   0.00003  -0.00000
    D2       -3.14147  -0.00000  -0.00005  -0.00008  -0.00013   3.14158
    D3        3.14157   0.00000  -0.00001   0.00004   0.00003  -3.14158
    D4        0.00013  -0.00000  -0.00005  -0.00009  -0.00014  -0.00001
    D5       -2.09925  -0.00000  -0.00003  -0.00006  -0.00008  -2.09934
    D6        0.00007  -0.00000  -0.00001  -0.00007  -0.00008  -0.00001
    D7        2.09939  -0.00000  -0.00000  -0.00007  -0.00008   2.09931
    D8        1.04220   0.00000   0.00001   0.00006   0.00007   1.04227
    D9        3.14152   0.00000   0.00003   0.00004   0.00007  -3.14159
   D10       -1.04234   0.00000   0.00003   0.00004   0.00007  -1.04227
         Item               Value     Threshold  Converged?
 Maximum Force            0.000004     0.000015     YES
 RMS     Force            0.000002     0.000010     YES
 Maximum Displacement     0.000092     0.000060     NO 
 RMS     Displacement     0.000034     0.000040     YES
 Predicted change in Energy=-1.001925D-09
 Lowest energy point so far.  Saving SCF results.
 GradGradGradGradGradGradGradGradGradGradGradGradGradGradGradGradGradGrad

 Leave Link  103 at Thu Apr  2 13:34:10 2026, MaxMem=  2147483648 cpu:               0.1 elap:               0.0
 (Enter /Users/yarger/Applications/g16/l202.exe)
                          Input orientation:                          
 ---------------------------------------------------------------------
 Center     Atomic      Atomic             Coordinates (Angstroms)
 Number     Number       Type             X           Y           Z
 ---------------------------------------------------------------------
      1          6           0        1.747890    1.032583    0.224286
      2          1           0        1.356391    1.928875    0.688473
      3          1           0        2.819065    0.934475    0.086172
      4          6           0        0.928591    0.068855   -0.169544
      5          6           0       -0.575275    0.057169   -0.047502
      6          9           0       -0.998360   -0.989730    0.695867
      7          9           0       -1.026442    1.188257    0.534659
      8          9           0       -1.164344   -0.049467   -1.259621
      9          9           0        1.372002   -1.065850   -0.752792
 ---------------------------------------------------------------------
                    Distance matrix (angstroms):
                    1          2          3          4          5
     1  C    0.000000
     2  H    1.082627   0.000000
     3  H    1.084489   1.868425   0.000000
     4  C    1.324811   2.092577   2.094894   0.000000
     5  C    2.534245   2.788597   3.508429   1.508855   0.000000
     6  F    3.442968   3.750088   4.318220   2.362769   1.351887
     7  F    2.795977   2.500013   3.879880   2.360321   1.349749
     8  F    3.442952   3.750069   4.318200   2.362762   1.351890
     9  F    2.345078   3.323532   2.607518   1.350685   2.355949
                    6          7          8          9
     6  F    0.000000
     7  F    2.184126   0.000000
     8  F    2.176139   2.184129   0.000000
     9  F    2.779033   3.534270   2.779022   0.000000
 Stoichiometry    C3H2F4
 Framework group  C1[X(C3H2F4)]
 Deg. of freedom    21
 Full point group                 C1      NOp   1
 RotChk:  IX=3 Diff= 2.49D-05
 Largest Abelian subgroup         C1      NOp   1
 Largest concise Abelian subgroup C1      NOp   1
                         Standard orientation:                         
 ---------------------------------------------------------------------
 Center     Atomic      Atomic             Coordinates (Angstroms)
 Number     Number       Type             X           Y           Z
 ---------------------------------------------------------------------
      1          6           0        1.728205   -1.078670   -0.000003
      2          1           0        1.319390   -2.081143    0.000008
      3          1           0        2.804755   -0.947696    0.000001
      4          6           0        0.923327   -0.026390   -0.000009
      5          6           0       -0.585420   -0.044486   -0.000002
      6          9           0       -1.082930    0.584963   -1.088062
      7          9           0       -1.058294   -1.308690   -0.000002
      8          9           0       -1.082906    0.584958    1.088076
      9          9           0        1.388484    1.241671   -0.000004
 ---------------------------------------------------------------------
 Rotational constants (GHZ):           3.6586339           2.4319932           1.9743740
 Leave Link  202 at Thu Apr  2 13:34:10 2026, MaxMem=  2147483648 cpu:               0.0 elap:               0.0
 (Enter /Users/yarger/Applications/g16/l301.exe)
 Standard basis: 6-31+G(d) (6D, 7F)
 Ernie: Thresh=  0.10000D-02 Tol=  0.10000D-05 Strict=F.
 There are   137 symmetry adapted cartesian basis functions of A   symmetry.
 There are   137 symmetry adapted basis functions of A   symmetry.
   137 basis functions,   232 primitive gaussians,   137 cartesian basis functions
    28 alpha electrons       28 beta electrons
       nuclear repulsion energy       330.8345206644 Hartrees.
 IExCor=  402 DFT=T Ex+Corr=B3LYP ExCW=0 ScaHFX=  0.200000
 ScaDFX=  0.800000  0.720000  1.000000  0.810000 ScalE2=  1.000000  1.000000
 IRadAn=      5 IRanWt=     -1 IRanGd=            0 ICorTp=0 IEmpDi=  4
 NAtoms=    9 NActive=    9 NUniq=    9 SFac= 1.00D+00 NAtFMM=   60 NAOKFM=F Big=F
 Integral buffers will be    131072 words long.
 Raffenetti 2 integral format.
 Two-electron integral symmetry is turned on.
 Leave Link  301 at Thu Apr  2 13:34:10 2026, MaxMem=  2147483648 cpu:               0.2 elap:               0.0
 (Enter /Users/yarger/Applications/g16/l302.exe)
 NPDir=0 NMtPBC=     1 NCelOv=     1 NCel=       1 NClECP=     1 NCelD=      1
         NCelK=      1 NCelE2=     1 NClLst=     1 CellRange=     0.0.
 One-electron integrals computed using PRISM.
 One-electron integral symmetry used in STVInt
 NBasis=   137 RedAO= T EigKep=  6.96D-05  NBF=   137
 NBsUse=   137 1.00D-06 EigRej= -1.00D+00 NBFU=   137
 Precomputing XC quadrature grid using
 IXCGrd= 4 IRadAn=           5 IRanWt=          -1 IRanGd=           0 AccXCQ= 0.00D+00.
 Generated NRdTot=       0 NPtTot=           0 NUsed=           0 NTot=          32
 NSgBfM=   137   137   137   137   137 MxSgAt=     9 MxSgA2=     9.
 Leave Link  302 at Thu Apr  2 13:34:10 2026, MaxMem=  2147483648 cpu:               0.8 elap:               0.1
 (Enter /Users/yarger/Applications/g16/l303.exe)
 DipDrv:  MaxL=1.
 Leave Link  303 at Thu Apr  2 13:34:10 2026, MaxMem=  2147483648 cpu:               0.1 elap:               0.0
 (Enter /Users/yarger/Applications/g16/l401.exe)
 Initial guess from the checkpoint file:  "2223Tetrafluoropropene_Opt_Freq_DFT_B3LYP_631pd_Gaussian16.chk"
 B after Tr=    -0.000000   -0.000000    0.000000
         Rot=    1.000000   -0.000001   -0.000008   -0.000000 Ang=  -0.00 deg.
 Guess basis will be translated and rotated to current coordinates.
 JPrj=2 DoOrth=T DoCkMO=T.
 Leave Link  401 at Thu Apr  2 13:34:10 2026, MaxMem=  2147483648 cpu:               0.4 elap:               0.1
 (Enter /Users/yarger/Applications/g16/l502.exe)
 Keep R1 ints in memory in canonical form, NReq=52385408.
 FoFCou: FMM=F IPFlag=           0 FMFlag=           0 FMFlg1=           0
         NFxFlg=           0 DoJE=F BraDBF=F KetDBF=F FulRan=T
         wScrn=  0.000000 ICntrl=       600 IOpCl=  0 I1Cent=           0 NGrid=           0
         NMat0=    1 NMatS0=   9453 NMatT0=    0 NMatD0=    1 NMtDS0=    0 NMtDT0=    0
 Symmetry not used in FoFCou.
 Two-electron integral symmetry not used.
 Closed shell SCF:
 Using DIIS extrapolation, IDIIS=  1040.
 NGot=  2147483648 LenX=  2102759234 LenY=  2102740024
 Requested convergence on RMS density matrix=1.00D-08 within 128 cycles.
 Requested convergence on MAX density matrix=1.00D-06.
 Requested convergence on             energy=1.00D-06.
 No special actions if energy rises.

 Cycle   1  Pass 1  IDiag  1:
 E= -514.890941780159    
 DIIS: error= 3.21D-06 at cycle   1 NSaved=   1.
 NSaved= 1 IEnMin= 1 EnMin= -514.890941780159     IErMin= 1 ErrMin= 3.21D-06
 ErrMax= 3.21D-06  0.00D+00 EMaxC= 1.00D-01 BMatC= 1.85D-09 BMatP= 1.85D-09
 IDIUse=1 WtCom= 1.00D+00 WtEn= 0.00D+00
 Coeff-Com:  0.100D+01
 Coeff:      0.100D+01
 Gap=     0.679 Goal=   None    Shift=    0.000
 RMSDP=1.14D-06 MaxDP=2.93D-05              OVMax= 1.91D-05

 Cycle   2  Pass 1  IDiag  1:
 E= -514.890941783501     Delta-E=       -0.000000003341 Rises=F Damp=F
 DIIS: error= 4.00D-07 at cycle   2 NSaved=   2.
 NSaved= 2 IEnMin= 2 EnMin= -514.890941783501     IErMin= 2 ErrMin= 4.00D-07
 ErrMax= 4.00D-07  0.00D+00 EMaxC= 1.00D-01 BMatC= 2.53D-11 BMatP= 1.85D-09
 IDIUse=1 WtCom= 1.00D+00 WtEn= 0.00D+00
 Coeff-Com: -0.708D-01 0.107D+01
 Coeff:     -0.708D-01 0.107D+01
 Gap=     0.263 Goal=   None    Shift=    0.000
 RMSDP=9.32D-08 MaxDP=1.75D-06 DE=-3.34D-09 OVMax= 2.01D-06

 Cycle   3  Pass 1  IDiag  1:
 E= -514.890941783524     Delta-E=       -0.000000000023 Rises=F Damp=F
 DIIS: error= 3.44D-07 at cycle   3 NSaved=   3.
 NSaved= 3 IEnMin= 3 EnMin= -514.890941783524     IErMin= 3 ErrMin= 3.44D-07
 ErrMax= 3.44D-07  0.00D+00 EMaxC= 1.00D-01 BMatC= 2.37D-11 BMatP= 2.53D-11
 IDIUse=1 WtCom= 1.00D+00 WtEn= 0.00D+00
 Coeff-Com: -0.437D-01 0.589D+00 0.455D+00
 Coeff:     -0.437D-01 0.589D+00 0.455D+00
 Gap=     0.263 Goal=   None    Shift=    0.000
 RMSDP=3.07D-08 MaxDP=7.96D-07 DE=-2.32D-11 OVMax= 9.91D-07

 Cycle   4  Pass 1  IDiag  1:
 E= -514.890941783546     Delta-E=       -0.000000000022 Rises=F Damp=F
 DIIS: error= 7.50D-08 at cycle   4 NSaved=   4.
 NSaved= 4 IEnMin= 4 EnMin= -514.890941783546     IErMin= 4 ErrMin= 7.50D-08
 ErrMax= 7.50D-08  0.00D+00 EMaxC= 1.00D-01 BMatC= 1.24D-12 BMatP= 2.37D-11
 IDIUse=1 WtCom= 1.00D+00 WtEn= 0.00D+00
 Coeff-Com: -0.553D-02 0.687D-01 0.197D+00 0.740D+00
 Coeff:     -0.553D-02 0.687D-01 0.197D+00 0.740D+00
 Gap=     0.263 Goal=   None    Shift=    0.000
 RMSDP=7.85D-09 MaxDP=1.75D-07 DE=-2.18D-11 OVMax= 3.85D-07

 SCF Done:  E(RB3LYP) =  -514.890941784     A.U. after    4 cycles
            NFock=  4  Conv=0.78D-08     -V/T= 2.0080
 KE= 5.108054412333D+02 PE=-1.879637762417D+03 EE= 5.231068587355D+02
 Leave Link  502 at Thu Apr  2 13:34:12 2026, MaxMem=  2147483648 cpu:               9.3 elap:               1.3
 (Enter /Users/yarger/Applications/g16/l701.exe)
 ... and contract with generalized density number  0.
 Compute integral first derivatives.
 Leave Link  701 at Thu Apr  2 13:34:12 2026, MaxMem=  2147483648 cpu:               0.5 elap:               0.1
 (Enter /Users/yarger/Applications/g16/l702.exe)
 L702 exits ... SP integral derivatives will be done elsewhere.
 Leave Link  702 at Thu Apr  2 13:34:12 2026, MaxMem=  2147483648 cpu:               0.1 elap:               0.0
 (Enter /Users/yarger/Applications/g16/l703.exe)
 Integral derivatives from FoFJK, PRISM(SPDF).
 Compute integral first derivatives, UseDBF=F ICtDFT=           0.
 Calling FoFJK, ICntrl=      2127 FMM=F ISym2X=0 I1Cent= 0 IOpClX= 0 NMat=1 NMatS=1 NMatT=0.
 FoFJK:  IHMeth= 1 ICntrl=    2127 DoSepK=F KAlg= 0 I1Cent=           0 FoldK=F
 IRaf=         0 NMat=       1 IRICut=       1 DoRegI=T DoRafI=F ISym2E= 0 IDoP0=0 IntGTp=1.
 FoFCou: FMM=F IPFlag=           0 FMFlag=      100000 FMFlg1=         800
         NFxFlg=           0 DoJE=F BraDBF=F KetDBF=F FulRan=T
         wScrn=  0.000000 ICntrl=      2127 IOpCl=  0 I1Cent=           0 NGrid=           0
         NMat0=    1 NMatS0=      1 NMatT0=    0 NMatD0=    1 NMtDS0=    0 NMtDT0=    0
 Symmetry not used in FoFCou.
 Leave Link  703 at Thu Apr  2 13:34:13 2026, MaxMem=  2147483648 cpu:               6.5 elap:               0.9
 (Enter /Users/yarger/Applications/g16/l716.exe)
 Dipole        = 6.93560183D-01-6.64010750D-01-5.14402770D-06
 ***** Axes restored to original set *****
 -------------------------------------------------------------------
 Center     Atomic                   Forces (Hartrees/Bohr)
 Number     Number              X              Y              Z
 -------------------------------------------------------------------
      1        6           0.000000381    0.000001632    0.000000356
      2        1          -0.000001306   -0.000000276    0.000000561
      3        1          -0.000000319   -0.000000135    0.000000036
      4        6          -0.000002194    0.000001732    0.000000566
      5        6          -0.000001365    0.000001536   -0.000000848
      6        9           0.000000796   -0.000001638   -0.000000331
      7        9           0.000000352    0.000000379    0.000000015
      8        9           0.000000507   -0.000000986    0.000000339
      9        9           0.000003147   -0.000002246   -0.000000695
 -------------------------------------------------------------------
 Cartesian Forces:  Max     0.000003147 RMS     0.000001197
 Leave Link  716 at Thu Apr  2 13:34:13 2026, MaxMem=  2147483648 cpu:               0.1 elap:               0.0
 (Enter /Users/yarger/Applications/g16/l103.exe)

 GradGradGradGradGradGradGradGradGradGradGradGradGradGradGradGradGradGrad
 Berny optimization.
 Using GEDIIS/GDIIS optimizer.
 FormGI is forming the generalized inverse of G from B-inverse, IUseBI=4.
 Internal  Forces:  Max     0.000003330 RMS     0.000001027
 Search for a local minimum.
 Step number  26 out of a maximum of   40
 All quantities printed in internal units (Hartrees-Bohrs-Radians)
 RMS Force = .10272D-05 SwitMx=.10000D-02 MixMth= 2
 Mixed Optimization -- En-DIIS/RFO-DIIS
 Swapping is turned off.
 Update second derivatives using D2CorX and points   18   17   19   20   21
                                                     22   23   24   25   26
 DE= -9.00D-10 DEPred=-1.00D-09 R= 8.98D-01
 Trust test= 8.98D-01 RLast= 2.72D-04 DXMaxT set to 1.09D+00
 ITU=  0  0  0  0  1  1  1  0 -1  1  0  1  0  1  0  0  0  0  0  0
 ITU=  0  1  1  1  1  0
     Eigenvalues ---    0.00263   0.02021   0.03055   0.03679   0.10675
     Eigenvalues ---    0.11261   0.11974   0.14358   0.20460   0.22355
     Eigenvalues ---    0.24492   0.26536   0.30503   0.32860   0.35204
     Eigenvalues ---    0.35544   0.40102   0.44021   0.44415   0.61064
     Eigenvalues ---    0.71097
 En-DIIS/RFO-DIIS/Sim-DIIS IScMMF=       -3 using points:    26   25   24   23   22   21   20
 RFO step:  Lambda=-9.02271805D-11.
 NNeg= 0 NGDIIS= 7 SimSw=  2.50D-01 Rises=F DC= -9.00D-10 SmlDif=  1.00D-05
 NRisDI= 0 DoIntr=F SqrtH=F CThrHd= 10.0 CDAdj=  3.0
 RMS Error=  0.5970996873D-05 NUsed= 7 OKEnD=F EnDIS=F
 InvSVX:  RCond= 1.93D-10 Info=           0 Equed=N FErr=  1.64D-14 BErr=  5.64D-17
 DIIS inversion failure, remove point   7.
 InvSVX:  RCond= 2.44D-10 Info=           0 Equed=N FErr=  1.44D-14 BErr=  7.15D-17
 DIIS inversion failure, remove point   6.
 InvSVX:  RCond= 3.63D-10 Info=           0 Equed=N FErr=  9.49D-15 BErr=  7.92D-17
 DIIS inversion failure, remove point   5.
 InvSVX:  RCond= 4.68D-10 Info=           0 Equed=N FErr=  7.97D-15 BErr=  7.44D-17
 DIIS inversion failure, remove point   4.
 InvSVX:  RCond= 7.44D-09 Info=           0 Equed=N FErr=  1.26D-15 BErr=  9.53D-17
 DIIS inversion failure, remove point   3.
 InvSVX:  RCond= 8.32D-08 Info=           0 Equed=N FErr=  9.87D-16 BErr=  1.39D-17
 DIIS inversion failure, remove point   2.
 Use linear search instead of GDIIS.
 RFO step:  Lambda= 0.00000000D+00 EMin= 2.62889491D-03
 Quartic linear search produced a step of -0.08128.
 Iteration  1 RMS(Cart)=  0.00000793 RMS(Int)=  0.00000000
 Iteration  2 RMS(Cart)=  0.00000000 RMS(Int)=  0.00000000
 ITry= 1 IFail=0 DXMaxC= 1.75D-05 DCOld= 1.00D+10 DXMaxT= 1.09D+00 DXLimC= 3.00D+00 Rises=F
 Variable       Old X    -DE/DX   Delta X   Delta X   Delta X     New X
                                 (Linear)    (Quad)   (Total)
    R1        2.04587  -0.00000   0.00000  -0.00000  -0.00000   2.04587
    R2        2.04939   0.00000   0.00000  -0.00000  -0.00000   2.04939
    R3        2.50353  -0.00000  -0.00000   0.00000   0.00000   2.50353
    R4        2.85132   0.00000   0.00000   0.00000   0.00000   2.85132
    R5        2.55242   0.00000   0.00000   0.00001   0.00001   2.55243
    R6        2.55470   0.00000  -0.00000   0.00000   0.00000   2.55470
    R7        2.55066   0.00000   0.00000   0.00000   0.00000   2.55066
    R8        2.55470  -0.00000   0.00000  -0.00000  -0.00000   2.55470
    A1        2.07908   0.00000  -0.00000   0.00001   0.00001   2.07909
    A2        2.10141  -0.00000  -0.00000  -0.00000  -0.00000   2.10141
    A3        2.10269  -0.00000   0.00000  -0.00001  -0.00000   2.10269
    A4        2.21177  -0.00000   0.00000  -0.00000  -0.00000   2.21176
    A5        2.13704  -0.00000   0.00000  -0.00001  -0.00000   2.13704
    A6        1.93438   0.00000  -0.00000   0.00001   0.00001   1.93438
    A7        1.94164  -0.00000  -0.00000  -0.00000  -0.00000   1.94163
    A8        1.94073  -0.00000  -0.00000  -0.00000  -0.00000   1.94072
    A9        1.94162   0.00000   0.00000   0.00000   0.00000   1.94163
   A10        1.88301   0.00000  -0.00000   0.00000   0.00000   1.88302
   A11        1.87085  -0.00000   0.00000  -0.00000  -0.00000   1.87085
   A12        1.88301   0.00000   0.00000   0.00000   0.00000   1.88302
    D1       -0.00000   0.00000  -0.00000   0.00001   0.00001   0.00001
    D2        3.14158   0.00000   0.00001   0.00001   0.00002  -3.14159
    D3       -3.14158  -0.00000  -0.00000  -0.00001  -0.00001  -3.14159
    D4       -0.00001   0.00000   0.00001  -0.00001   0.00000  -0.00000
    D5       -2.09934  -0.00000   0.00001  -0.00000   0.00001  -2.09933
    D6       -0.00001   0.00000   0.00001   0.00000   0.00001  -0.00000
    D7        2.09931   0.00000   0.00001   0.00000   0.00001   2.09932
    D8        1.04227  -0.00000  -0.00001  -0.00000  -0.00001   1.04226
    D9       -3.14159  -0.00000  -0.00001   0.00000  -0.00000   3.14159
   D10       -1.04227   0.00000  -0.00001   0.00000  -0.00000  -1.04227
         Item               Value     Threshold  Converged?
 Maximum Force            0.000003     0.000015     YES
 RMS     Force            0.000001     0.000010     YES
 Maximum Displacement     0.000018     0.000060     YES
 RMS     Displacement     0.000008     0.000040     YES
 Predicted change in Energy=-5.900556D-11
 Optimization completed.
    -- Stationary point found.
                           ----------------------------
                           !   Optimized Parameters   !
                           ! (Angstroms and Degrees)  !
 --------------------------                            --------------------------
 ! Name  Definition              Value          Derivative Info.                !
 --------------------------------------------------------------------------------
 ! R1    R(1,2)                  1.0826         -DE/DX =    0.0                 !
 ! R2    R(1,3)                  1.0845         -DE/DX =    0.0                 !
 ! R3    R(1,4)                  1.3248         -DE/DX =    0.0                 !
 ! R4    R(4,5)                  1.5089         -DE/DX =    0.0                 !
 ! R5    R(4,9)                  1.3507         -DE/DX =    0.0                 !
 ! R6    R(5,6)                  1.3519         -DE/DX =    0.0                 !
 ! R7    R(5,7)                  1.3497         -DE/DX =    0.0                 !
 ! R8    R(5,8)                  1.3519         -DE/DX =    0.0                 !
 ! A1    A(2,1,3)              119.1225         -DE/DX =    0.0                 !
 ! A2    A(2,1,4)              120.4021         -DE/DX =    0.0                 !
 ! A3    A(3,1,4)              120.4754         -DE/DX =    0.0                 !
 ! A4    A(1,4,5)              126.7248         -DE/DX =    0.0                 !
 ! A5    A(1,4,9)              122.4436         -DE/DX =    0.0                 !
 ! A6    A(5,4,9)              110.8315         -DE/DX =    0.0                 !
 ! A7    A(4,5,6)              111.2475         -DE/DX =    0.0                 !
 ! A8    A(4,5,7)              111.1954         -DE/DX =    0.0                 !
 ! A9    A(4,5,8)              111.2468         -DE/DX =    0.0                 !
 ! A10   A(6,5,7)              107.8887         -DE/DX =    0.0                 !
 ! A11   A(6,5,8)              107.1918         -DE/DX =    0.0                 !
 ! A12   A(7,5,8)              107.8887         -DE/DX =    0.0                 !
 ! D1    D(2,1,4,5)              0.0            -DE/DX =    0.0                 !
 ! D2    D(2,1,4,9)           -180.0009         -DE/DX =    0.0                 !
 ! D3    D(3,1,4,5)           -179.9994         -DE/DX =    0.0                 !
 ! D4    D(3,1,4,9)             -0.0003         -DE/DX =    0.0                 !
 ! D5    D(1,4,5,6)           -120.2831         -DE/DX =    0.0                 !
 ! D6    D(1,4,5,7)             -0.0006         -DE/DX =    0.0                 !
 ! D7    D(1,4,5,8)            120.2816         -DE/DX =    0.0                 !
 ! D8    D(9,4,5,6)             59.7177         -DE/DX =    0.0                 !
 ! D9    D(9,4,5,7)            180.0002         -DE/DX =    0.0                 !
 ! D10   D(9,4,5,8)            -59.7176         -DE/DX =    0.0                 !
 --------------------------------------------------------------------------------
 Lowest energy point so far.  Saving SCF results.
 Largest change from initial coordinates is atom    8       0.061 Angstoms.
 GradGradGradGradGradGradGradGradGradGradGradGradGradGradGradGradGradGrad

 Leave Link  103 at Thu Apr  2 13:34:13 2026, MaxMem=  2147483648 cpu:               0.1 elap:               0.0
 (Enter /Users/yarger/Applications/g16/l202.exe)
                          Input orientation:                          
 ---------------------------------------------------------------------
 Center     Atomic      Atomic             Coordinates (Angstroms)
 Number     Number       Type             X           Y           Z
 ---------------------------------------------------------------------
      1          6           0        1.747890    1.032583    0.224286
      2          1           0        1.356391    1.928875    0.688473
      3          1           0        2.819065    0.934475    0.086172
      4          6           0        0.928591    0.068855   -0.169544
      5          6           0       -0.575275    0.057169   -0.047502
      6          9           0       -0.998360   -0.989730    0.695867
      7          9           0       -1.026442    1.188257    0.534659
      8          9           0       -1.164344   -0.049467   -1.259621
      9          9           0        1.372002   -1.065850   -0.752792
 ---------------------------------------------------------------------
                    Distance matrix (angstroms):
                    1          2          3          4          5
     1  C    0.000000
     2  H    1.082627   0.000000
     3  H    1.084489   1.868425   0.000000
     4  C    1.324811   2.092577   2.094894   0.000000
     5  C    2.534245   2.788597   3.508429   1.508855   0.000000
     6  F    3.442968   3.750088   4.318220   2.362769   1.351887
     7  F    2.795977   2.500013   3.879880   2.360321   1.349749
     8  F    3.442952   3.750069   4.318200   2.362762   1.351890
     9  F    2.345078   3.323532   2.607518   1.350685   2.355949
                    6          7          8          9
     6  F    0.000000
     7  F    2.184126   0.000000
     8  F    2.176139   2.184129   0.000000
     9  F    2.779033   3.534270   2.779022   0.000000
 Stoichiometry    C3H2F4
 Framework group  C1[X(C3H2F4)]
 Deg. of freedom    21
 Full point group                 C1      NOp   1
 RotChk:  IX=3 Diff= 1.16D-15
 Largest Abelian subgroup         C1      NOp   1
 Largest concise Abelian subgroup C1      NOp   1
                         Standard orientation:                         
 ---------------------------------------------------------------------
 Center     Atomic      Atomic             Coordinates (Angstroms)
 Number     Number       Type             X           Y           Z
 ---------------------------------------------------------------------
      1          6           0        1.728205   -1.078670   -0.000003
      2          1           0        1.319390   -2.081143    0.000008
      3          1           0        2.804755   -0.947696    0.000001
      4          6           0        0.923327   -0.026390   -0.000009
      5          6           0       -0.585420   -0.044486   -0.000002
      6          9           0       -1.082930    0.584963   -1.088062
      7          9           0       -1.058294   -1.308690   -0.000002
      8          9           0       -1.082906    0.584958    1.088076
      9          9           0        1.388484    1.241671   -0.000004
 ---------------------------------------------------------------------
 Rotational constants (GHZ):           3.6586339           2.4319932           1.9743740
 Leave Link  202 at Thu Apr  2 13:34:13 2026, MaxMem=  2147483648 cpu:               0.0 elap:               0.0
 (Enter /Users/yarger/Applications/g16/l601.exe)
 Copying SCF densities to generalized density rwf, IOpCl= 0 IROHF=0.

 **********************************************************************

            Population analysis using the SCF density.

 **********************************************************************

 Orbital symmetries:
       Occupied  (A) (A) (A) (A) (A) (A) (A) (A) (A) (A) (A) (A)
                 (A) (A) (A) (A) (A) (A) (A) (A) (A) (A) (A) (A)
                 (A) (A) (A) (A)
       Virtual   (A) (A) (A) (A) (A) (A) (A) (A) (A) (A) (A) (A)
                 (A) (A) (A) (A) (A) (A) (A) (A) (A) (A) (A) (A)
                 (A) (A) (A) (A) (A) (A) (A) (A) (A) (A) (A) (A)
                 (A) (A) (A) (A) (A) (A) (A) (A) (A) (A) (A) (A)
                 (A) (A) (A) (A) (A) (A) (A) (A) (A) (A) (A) (A)
                 (A) (A) (A) (A) (A) (A) (A) (A) (A) (A) (A) (A)
                 (A) (A) (A) (A) (A) (A) (A) (A) (A) (A) (A) (A)
                 (A) (A) (A) (A) (A) (A) (A) (A) (A) (A) (A) (A)
                 (A) (A) (A) (A) (A) (A) (A) (A) (A) (A) (A) (A)
                 (A)
 The electronic state is 1-A.
 Alpha  occ. eigenvalues --  -24.77039 -24.76420 -24.76419 -24.75730 -10.47370
 Alpha  occ. eigenvalues --  -10.32337 -10.23494  -1.33989  -1.26510  -1.25338
 Alpha  occ. eigenvalues --   -1.24942  -0.83736  -0.74517  -0.66072  -0.62007
 Alpha  occ. eigenvalues --   -0.61646  -0.59881  -0.52450  -0.50558  -0.49376
 Alpha  occ. eigenvalues --   -0.48684  -0.48445  -0.46382  -0.45140  -0.43785
 Alpha  occ. eigenvalues --   -0.43421  -0.40301  -0.30981
 Alpha virt. eigenvalues --   -0.04639   0.00219   0.02328   0.03603   0.04699
 Alpha virt. eigenvalues --    0.05037   0.06485   0.09153   0.09297   0.09856
 Alpha virt. eigenvalues --    0.10540   0.11931   0.12701   0.15602   0.16561
 Alpha virt. eigenvalues --    0.17744   0.19065   0.19578   0.22193   0.24267
 Alpha virt. eigenvalues --    0.26096   0.27210   0.29735   0.29753   0.30554
 Alpha virt. eigenvalues --    0.32599   0.33936   0.33966   0.35539   0.35887
 Alpha virt. eigenvalues --    0.36922   0.37375   0.38632   0.41173   0.43157
 Alpha virt. eigenvalues --    0.43824   0.46628   0.64011   0.64100   0.72423
 Alpha virt. eigenvalues --    0.72874   0.74756   0.75718   0.79561   0.81822
 Alpha virt. eigenvalues --    0.89104   0.95817   1.01337   1.13376   1.17985
 Alpha virt. eigenvalues --    1.19945   1.31603   1.35160   1.41175   1.49437
 Alpha virt. eigenvalues --    1.53616   1.53955   1.55632   1.57029   1.60307
 Alpha virt. eigenvalues --    1.60639   1.60749   1.61215   1.64455   1.65251
 Alpha virt. eigenvalues --    1.65827   1.68218   1.72014   1.72659   1.78188
 Alpha virt. eigenvalues --    1.79026   1.80796   1.81778   1.82689   1.85808
 Alpha virt. eigenvalues --    1.86417   1.89470   1.94536   1.96745   2.01135
 Alpha virt. eigenvalues --    2.01147   2.02702   2.05495   2.06964   2.14476
 Alpha virt. eigenvalues --    2.15895   2.18708   2.27815   2.29588   2.37083
 Alpha virt. eigenvalues --    2.41588   2.42596   2.52989   2.65787   2.72636
 Alpha virt. eigenvalues --    2.74690   2.85844   2.95582   3.11101   3.15894
 Alpha virt. eigenvalues --    3.23013   3.35420   4.16415   4.34750   4.62016
 Alpha virt. eigenvalues --    5.43684   5.63191   5.73532   6.59222
          Condensed to atoms (all electrons):
               1          2          3          4          5          6
     1  C    5.553217   0.359278   0.354775   0.431521  -0.174157  -0.003665
     2  H    0.359278   0.446606  -0.024071  -0.022632   0.000657   0.000223
     3  H    0.354775  -0.024071   0.460347  -0.027773   0.016191  -0.000253
     4  C    0.431521  -0.022632  -0.027773   4.825990   0.469170  -0.083342
     5  C   -0.174157   0.000657   0.016191   0.469170   4.392880   0.195383
     6  F   -0.003665   0.000223  -0.000253  -0.083342   0.195383   9.265617
     7  F    0.043158   0.003622   0.000028  -0.096273   0.159990  -0.040368
     8  F   -0.003667   0.000223  -0.000253  -0.083341   0.195384  -0.056592
     9  F   -0.089755   0.005283  -0.003785   0.192627  -0.097804   0.007355
               7          8          9
     1  C    0.043158  -0.003667  -0.089755
     2  H    0.003622   0.000223   0.005283
     3  H    0.000028  -0.000253  -0.003785
     4  C   -0.096273  -0.083341   0.192627
     5  C    0.159990   0.195384  -0.097804
     6  F   -0.040368  -0.056592   0.007355
     7  F    9.293419  -0.040367   0.008498
     8  F   -0.040367   9.265618   0.007355
     9  F    0.008498   0.007355   9.291058
 Mulliken charges:
               1
     1  C   -0.470705
     2  H    0.230810
     3  H    0.224794
     4  C    0.394052
     5  C    0.842306
     6  F   -0.284357
     7  F   -0.331707
     8  F   -0.284359
     9  F   -0.320833
 Sum of Mulliken charges =  -0.00000
 Mulliken charges with hydrogens summed into heavy atoms:
               1
     1  C   -0.015101
     4  C    0.394052
     5  C    0.842306
     6  F   -0.284357
     7  F   -0.331707
     8  F   -0.284359
     9  F   -0.320833
 Electronic spatial extent (au):  <R**2>=            627.8388
 Charge=             -0.0000 electrons
 Dipole moment (field-independent basis, Debye):
    X=              1.7629    Y=             -1.6877    Z=             -0.0000  Tot=              2.4405
 Quadrupole moment (field-independent basis, Debye-Ang):
   XX=            -36.0084   YY=            -37.7720   ZZ=            -39.5196
   XY=             -2.9711   XZ=              0.0000   YZ=             -0.0000
 Traceless Quadrupole moment (field-independent basis, Debye-Ang):
   XX=              1.7583   YY=             -0.0053   ZZ=             -1.7529
   XY=             -2.9711   XZ=              0.0000   YZ=             -0.0000
 Octapole moment (field-independent basis, Debye-Ang**2):
  XXX=             -3.1965  YYY=              3.1297  ZZZ=              0.0000  XYY=             -1.9966
  XXY=             -2.6606  XXZ=              0.0001  XZZ=             -4.6194  YZZ=              2.9973
  YYZ=              0.0001  XYZ=             -0.0000
 Hexadecapole moment (field-independent basis, Debye-Ang**3):
 XXXX=           -331.7304 YYYY=           -196.5624 ZZZZ=           -104.8267 XXXY=              1.0711
 XXXZ=              0.0002 YYYX=              5.1405 YYYZ=             -0.0002 ZZZX=              0.0002
 ZZZY=             -0.0001 XXYY=            -94.9693 XXZZ=            -82.5644 YYZZ=            -53.1321
 XXYZ=             -0.0001 YYXZ=              0.0001 ZZXY=              7.1057
 N-N= 3.308345206644D+02 E-N=-1.879637758759D+03  KE= 5.108054412333D+02
 No NMR shielding tensors so no spin-rotation constants.
 Leave Link  601 at Thu Apr  2 13:34:13 2026, MaxMem=  2147483648 cpu:               0.5 elap:               0.1
 (Enter /Users/yarger/Applications/g16/l9999.exe)
 1\1\GINC-YARGERMBP2021-2\FOpt\RB3LYP\6-31+G(d)\C3H2F4\ROOT\02-Apr-2026
 \0\\#p opt=tight freq=raman b3lyp/6-31+g(d) guess=save geom=connectivi
 ty polar\\r1234yf - 2,3,3,3-Tetrafluoropropene\\0,1\C,1.7478903436,1.0
 3258251,0.2242855102\H,1.3563909477,1.9288747735,0.6884731088\H,2.8190
 650195,0.9344745043,0.0861721588\C,0.9285907712,0.0688554808,-0.169543
 9068\C,-0.5752748934,0.0571694505,-0.0475023539\F,-0.9983595188,-0.989
 7304222,0.6958668871\F,-1.026441844,1.1882567908,0.5346592814\F,-1.164
 3442208,-0.0494670996,-1.2596212713\F,1.372002395,-1.065849988,-0.7527
 924143\\Version=EM64M-G16RevA.03\State=1-A\HF=-514.8909418\RMSD=7.847e
 -09\RMSF=1.197e-06\Dipole=0.7020961,0.6115742,0.2344656\Quadrupole=1.3
 623344,-0.1721292,-1.1902051,2.0534058,0.761022,0.3695385\PG=C01 [X(C3
 H2F4)]\\@


 IF AT FIRST YOU DON'T SUCCEED, TRY, TRY AGAIN.
 THEN GIVE UP;
 THERE'S NO USE BEING A DAMN FOOL ABOUT IT.

                                 -- W. C. FIELDS
 Leave Link 9999 at Thu Apr  2 13:34:13 2026, MaxMem=  2147483648 cpu:               0.1 elap:               0.0
 Job cpu time:       0 days  0 hours 11 minutes 51.8 seconds.
 Elapsed time:       0 days  0 hours  1 minutes 41.4 seconds.
 File lengths (MBytes):  RWF=     15 Int=      0 D2E=      0 Chk=      3 Scr=      1
 Normal termination of Gaussian 16 at Thu Apr  2 13:34:13 2026.
 (Enter /Users/yarger/Applications/g16/l1.exe)
 Link1:  Proceeding to internal job step number  2.
 ---------------------------------------------------------------------
 #P Geom=AllCheck Guess=TCheck SCRF=Check GenChk RB3LYP/6-31+G(d) Freq
 ---------------------------------------------------------------------
 1/7=10,10=4,29=7,30=1,38=1,40=1/1,3;
 2/12=2,40=1/2;
 3/5=1,6=6,7=11,11=2,14=-4,25=1,30=1,70=2,71=2,74=-5,116=1,140=1/1,2,3;
 4/5=101/1;
 5/5=2,38=6,98=1/2;
 8/6=4,10=90,11=11/1;
 10/13=10,15=4/2;
 11/6=3,8=1,9=11,15=111,16=1/1,2,10;
 10/6=1/2;
 6/7=2,8=2,9=2,10=2,28=1/1;
 7/8=1,10=1,25=1/1,2,3,16;
 1/7=10,10=4,30=1/3;
 99//99;
 Leave Link    1 at Thu Apr  2 13:34:13 2026, MaxMem=  2147483648 cpu:               0.1 elap:               0.0
 (Enter /Users/yarger/Applications/g16/l101.exe)
 Structure from the checkpoint file:  "2223Tetrafluoropropene_Opt_Freq_DFT_B3LYP_631pd_Gaussian16.chk"
 ------------------------------------
 r1234yf - 2,3,3,3-Tetrafluoropropene
 ------------------------------------
 Charge =  0 Multiplicity = 1
 Redundant internal coordinates found in file.  (old form).
 C,0,1.7478903436,1.03258251,0.2242855102
 H,0,1.3563909477,1.9288747735,0.6884731088
 H,0,2.8190650195,0.9344745043,0.0861721588
 C,0,0.9285907712,0.0688554808,-0.1695439068
 C,0,-0.5752748934,0.0571694505,-0.0475023539
 F,0,-0.9983595188,-0.9897304222,0.6958668871
 F,0,-1.026441844,1.1882567908,0.5346592814
 F,0,-1.1643442208,-0.0494670996,-1.2596212713
 F,0,1.372002395,-1.065849988,-0.7527924143
 Recover connectivity data from disk.
 ITRead=  0  0  0  0  0  0  0  0  0
 MicOpt= -1 -1 -1 -1 -1 -1 -1 -1 -1
 NAtoms=      9 NQM=        9 NQMF=       0 NMMI=      0 NMMIF=      0
                NMic=       0 NMicF=      0.
                    Isotopes and Nuclear Properties:
 (Nuclear quadrupole moments (NQMom) in fm**2, nuclear magnetic moments (NMagM)
  in nuclear magnetons)

  Atom         1           2           3           4           5           6           7           8           9
 IAtWgt=          12           1           1          12          12          19          19          19          19
 AtmWgt=  12.0000000   1.0078250   1.0078250  12.0000000  12.0000000  18.9984033  18.9984033  18.9984033  18.9984033
 NucSpn=           0           1           1           0           0           1           1           1           1
 AtZEff=   3.6000000   1.0000000   1.0000000   3.6000000   3.6000000   6.7500000   6.7500000   6.7500000   6.7500000
 NQMom=    0.0000000   0.0000000   0.0000000   0.0000000   0.0000000   0.0000000   0.0000000   0.0000000   0.0000000
 NMagM=    0.0000000   2.7928460   2.7928460   0.0000000   0.0000000   2.6288670   2.6288670   2.6288670   2.6288670
 AtZNuc=   6.0000000   1.0000000   1.0000000   6.0000000   6.0000000   9.0000000   9.0000000   9.0000000   9.0000000
 Leave Link  101 at Thu Apr  2 13:34:13 2026, MaxMem=  2147483648 cpu:               2.0 elap:               0.3
 (Enter /Users/yarger/Applications/g16/l103.exe)

 GradGradGradGradGradGradGradGradGradGradGradGradGradGradGradGradGradGrad
 Berny optimization.
 Initialization pass.
                           ----------------------------
                           !    Initial Parameters    !
                           ! (Angstroms and Degrees)  !
 --------------------------                            --------------------------
 ! Name  Definition              Value          Derivative Info.                !
 --------------------------------------------------------------------------------
 ! R1    R(1,2)                  1.0826         calculate D2E/DX2 analytically  !
 ! R2    R(1,3)                  1.0845         calculate D2E/DX2 analytically  !
 ! R3    R(1,4)                  1.3248         calculate D2E/DX2 analytically  !
 ! R4    R(4,5)                  1.5089         calculate D2E/DX2 analytically  !
 ! R5    R(4,9)                  1.3507         calculate D2E/DX2 analytically  !
 ! R6    R(5,6)                  1.3519         calculate D2E/DX2 analytically  !
 ! R7    R(5,7)                  1.3497         calculate D2E/DX2 analytically  !
 ! R8    R(5,8)                  1.3519         calculate D2E/DX2 analytically  !
 ! A1    A(2,1,3)              119.1225         calculate D2E/DX2 analytically  !
 ! A2    A(2,1,4)              120.4021         calculate D2E/DX2 analytically  !
 ! A3    A(3,1,4)              120.4754         calculate D2E/DX2 analytically  !
 ! A4    A(1,4,5)              126.7248         calculate D2E/DX2 analytically  !
 ! A5    A(1,4,9)              122.4436         calculate D2E/DX2 analytically  !
 ! A6    A(5,4,9)              110.8315         calculate D2E/DX2 analytically  !
 ! A7    A(4,5,6)              111.2475         calculate D2E/DX2 analytically  !
 ! A8    A(4,5,7)              111.1954         calculate D2E/DX2 analytically  !
 ! A9    A(4,5,8)              111.2468         calculate D2E/DX2 analytically  !
 ! A10   A(6,5,7)              107.8887         calculate D2E/DX2 analytically  !
 ! A11   A(6,5,8)              107.1918         calculate D2E/DX2 analytically  !
 ! A12   A(7,5,8)              107.8887         calculate D2E/DX2 analytically  !
 ! D1    D(2,1,4,5)              0.0            calculate D2E/DX2 analytically  !
 ! D2    D(2,1,4,9)            179.9991         calculate D2E/DX2 analytically  !
 ! D3    D(3,1,4,5)           -179.9994         calculate D2E/DX2 analytically  !
 ! D4    D(3,1,4,9)             -0.0003         calculate D2E/DX2 analytically  !
 ! D5    D(1,4,5,6)           -120.2831         calculate D2E/DX2 analytically  !
 ! D6    D(1,4,5,7)             -0.0006         calculate D2E/DX2 analytically  !
 ! D7    D(1,4,5,8)            120.2816         calculate D2E/DX2 analytically  !
 ! D8    D(9,4,5,6)             59.7177         calculate D2E/DX2 analytically  !
 ! D9    D(9,4,5,7)           -179.9998         calculate D2E/DX2 analytically  !
 ! D10   D(9,4,5,8)            -59.7176         calculate D2E/DX2 analytically  !
 --------------------------------------------------------------------------------
 Trust Radius=3.00D-01 FncErr=1.00D-07 GrdErr=1.00D-07 EigMax=2.50D+02 EigMin=1.00D-04
 Number of steps in this run=      2 maximum allowed number of steps=      2.
 GradGradGradGradGradGradGradGradGradGradGradGradGradGradGradGradGradGrad

 Leave Link  103 at Thu Apr  2 13:34:13 2026, MaxMem=  2147483648 cpu:               0.0 elap:               0.0
 (Enter /Users/yarger/Applications/g16/l202.exe)
                          Input orientation:                          
 ---------------------------------------------------------------------
 Center     Atomic      Atomic             Coordinates (Angstroms)
 Number     Number       Type             X           Y           Z
 ---------------------------------------------------------------------
      1          6           0        1.747890    1.032583    0.224286
      2          1           0        1.356391    1.928875    0.688473
      3          1           0        2.819065    0.934475    0.086172
      4          6           0        0.928591    0.068855   -0.169544
      5          6           0       -0.575275    0.057169   -0.047502
      6          9           0       -0.998360   -0.989730    0.695867
      7          9           0       -1.026442    1.188257    0.534659
      8          9           0       -1.164344   -0.049467   -1.259621
      9          9           0        1.372002   -1.065850   -0.752792
 ---------------------------------------------------------------------
                    Distance matrix (angstroms):
                    1          2          3          4          5
     1  C    0.000000
     2  H    1.082627   0.000000
     3  H    1.084489   1.868425   0.000000
     4  C    1.324811   2.092577   2.094894   0.000000
     5  C    2.534245   2.788597   3.508429   1.508855   0.000000
     6  F    3.442968   3.750088   4.318220   2.362769   1.351887
     7  F    2.795977   2.500013   3.879880   2.360321   1.349749
     8  F    3.442952   3.750069   4.318200   2.362762   1.351890
     9  F    2.345078   3.323532   2.607518   1.350685   2.355949
                    6          7          8          9
     6  F    0.000000
     7  F    2.184126   0.000000
     8  F    2.176139   2.184129   0.000000
     9  F    2.779033   3.534270   2.779022   0.000000
 Stoichiometry    C3H2F4
 Framework group  C1[X(C3H2F4)]
 Deg. of freedom    21
 Full point group                 C1      NOp   1
 RotChk:  IX=3 Diff= 7.72D-16
 Largest Abelian subgroup         C1      NOp   1
 Largest concise Abelian subgroup C1      NOp   1
                         Standard orientation:                         
 ---------------------------------------------------------------------
 Center     Atomic      Atomic             Coordinates (Angstroms)
 Number     Number       Type             X           Y           Z
 ---------------------------------------------------------------------
      1          6           0        1.728205   -1.078670   -0.000003
      2          1           0        1.319390   -2.081143    0.000008
      3          1           0        2.804755   -0.947696    0.000001
      4          6           0        0.923327   -0.026390   -0.000009
      5          6           0       -0.585420   -0.044486   -0.000002
      6          9           0       -1.082930    0.584963   -1.088062
      7          9           0       -1.058294   -1.308690   -0.000002
      8          9           0       -1.082906    0.584958    1.088076
      9          9           0        1.388484    1.241671   -0.000004
 ---------------------------------------------------------------------
 Rotational constants (GHZ):           3.6586339           2.4319932           1.9743740
 Leave Link  202 at Thu Apr  2 13:34:14 2026, MaxMem=  2147483648 cpu:               0.0 elap:               0.0
 (Enter /Users/yarger/Applications/g16/l301.exe)
 Standard basis: 6-31+G(d) (6D, 7F)
 Ernie: Thresh=  0.10000D-02 Tol=  0.10000D-05 Strict=F.
 There are   137 symmetry adapted cartesian basis functions of A   symmetry.
 There are   137 symmetry adapted basis functions of A   symmetry.
   137 basis functions,   232 primitive gaussians,   137 cartesian basis functions
    28 alpha electrons       28 beta electrons
       nuclear repulsion energy       330.8345206644 Hartrees.
 IExCor=  402 DFT=T Ex+Corr=B3LYP ExCW=0 ScaHFX=  0.200000
 ScaDFX=  0.800000  0.720000  1.000000  0.810000 ScalE2=  1.000000  1.000000
 IRadAn=      5 IRanWt=     -1 IRanGd=            0 ICorTp=0 IEmpDi=  4
 NAtoms=    9 NActive=    9 NUniq=    9 SFac= 1.00D+00 NAtFMM=   60 NAOKFM=F Big=F
 Integral buffers will be    131072 words long.
 Raffenetti 2 integral format.
 Two-electron integral symmetry is turned on.
 Leave Link  301 at Thu Apr  2 13:34:14 2026, MaxMem=  2147483648 cpu:               0.1 elap:               0.0
 (Enter /Users/yarger/Applications/g16/l302.exe)
 NPDir=0 NMtPBC=     1 NCelOv=     1 NCel=       1 NClECP=     1 NCelD=      1
         NCelK=      1 NCelE2=     1 NClLst=     1 CellRange=     0.0.
 One-electron integrals computed using PRISM.
 One-electron integral symmetry used in STVInt
 NBasis=   137 RedAO= T EigKep=  6.96D-05  NBF=   137
 NBsUse=   137 1.00D-06 EigRej= -1.00D+00 NBFU=   137
 Precomputing XC quadrature grid using
 IXCGrd= 4 IRadAn=           5 IRanWt=          -1 IRanGd=           0 AccXCQ= 0.00D+00.
 Generated NRdTot=       0 NPtTot=           0 NUsed=           0 NTot=          32
 NSgBfM=   137   137   137   137   137 MxSgAt=     9 MxSgA2=     9.
 Leave Link  302 at Thu Apr  2 13:34:14 2026, MaxMem=  2147483648 cpu:               0.8 elap:               0.1
 (Enter /Users/yarger/Applications/g16/l303.exe)
 DipDrv:  MaxL=1.
 Leave Link  303 at Thu Apr  2 13:34:14 2026, MaxMem=  2147483648 cpu:               0.1 elap:               0.0
 (Enter /Users/yarger/Applications/g16/l401.exe)
 Initial guess from the checkpoint file:  "2223Tetrafluoropropene_Opt_Freq_DFT_B3LYP_631pd_Gaussian16.chk"
 B after Tr=     0.000000   -0.000000   -0.000000
         Rot=    1.000000    0.000000    0.000000   -0.000000 Ang=   0.00 deg.
 Guess basis will be translated and rotated to current coordinates.
 JPrj=2 DoOrth=T DoCkMO=T.
 Leave Link  401 at Thu Apr  2 13:34:14 2026, MaxMem=  2147483648 cpu:               0.4 elap:               0.1
 (Enter /Users/yarger/Applications/g16/l502.exe)
 Keep R1 ints in memory in canonical form, NReq=52385408.
 FoFCou: FMM=F IPFlag=           0 FMFlag=           0 FMFlg1=           0
         NFxFlg=           0 DoJE=F BraDBF=F KetDBF=F FulRan=T
         wScrn=  0.000000 ICntrl=       600 IOpCl=  0 I1Cent=           0 NGrid=           0
         NMat0=    1 NMatS0=   9453 NMatT0=    0 NMatD0=    1 NMtDS0=    0 NMtDT0=    0
 Symmetry not used in FoFCou.
 Two-electron integral symmetry not used.
 Closed shell SCF:
 Using DIIS extrapolation, IDIIS=  1040.
 NGot=  2147483648 LenX=  2102759234 LenY=  2102740024
 Requested convergence on RMS density matrix=1.00D-08 within 128 cycles.
 Requested convergence on MAX density matrix=1.00D-06.
 Requested convergence on             energy=1.00D-06.
 No special actions if energy rises.

 Cycle   1  Pass 1  IDiag  1:
 E= -514.890941783546    
 DIIS: error= 1.53D-08 at cycle   1 NSaved=   1.
 NSaved= 1 IEnMin= 1 EnMin= -514.890941783546     IErMin= 1 ErrMin= 1.53D-08
 ErrMax= 1.53D-08  0.00D+00 EMaxC= 1.00D-01 BMatC= 5.68D-14 BMatP= 5.68D-14
 IDIUse=1 WtCom= 1.00D+00 WtEn= 0.00D+00
 Coeff-Com:  0.100D+01
 Coeff:      0.100D+01
 Gap=     0.263 Goal=   None    Shift=    0.000
 RMSDP=4.86D-09 MaxDP=1.70D-07              OVMax= 3.47D-07

 SCF Done:  E(RB3LYP) =  -514.890941784     A.U. after    1 cycles
            NFock=  1  Conv=0.49D-08     -V/T= 2.0080
 KE= 5.108054415262D+02 PE=-1.879637759052D+03 EE= 5.231068550781D+02
 Leave Link  502 at Thu Apr  2 13:34:14 2026, MaxMem=  2147483648 cpu:               4.1 elap:               0.6
 (Enter /Users/yarger/Applications/g16/l801.exe)
 DoSCS=F DFT=T ScalE2(SS,OS)=  1.000000  1.000000
 Range of M.O.s used for correlation:     1   137
 NBasis=   137 NAE=    28 NBE=    28 NFC=     0 NFV=     0
 NROrb=    137 NOA=    28 NOB=    28 NVA=   109 NVB=   109

 **** Warning!!: The largest alpha MO coefficient is  0.51350024D+02

 Leave Link  801 at Thu Apr  2 13:34:15 2026, MaxMem=  2147483648 cpu:               0.1 elap:               0.0
 (Enter /Users/yarger/Applications/g16/l1002.exe)
 Minotr:  Closed shell wavefunction.
          Direct CPHF calculation.
          Differentiating once with respect to electric field.
                with respect to dipole field.
          Electric field/nuclear overlap derivatives assumed to be zero.
          Requested convergence is 1.0D-08 RMS, and 1.0D-07 maximum.
          Secondary convergence is 1.0D-12 RMS, and 1.0D-12 maximum.
          NewPWx=F KeepS1=T KeepF1=T KeepIn=T MapXYZ=F SortEE=F KeepMc=T.
         2753 words used for storage of precomputed grid.
 Keep R1 ints in memory in canonical form, NReq=52363675.
 FoFCou: FMM=F IPFlag=           0 FMFlag=           0 FMFlg1=           0
         NFxFlg=           0 DoJE=F BraDBF=F KetDBF=F FulRan=T
         wScrn=  0.000000 ICntrl=       600 IOpCl=  0 I1Cent=           0 NGrid=           0
         NMat0=    1 NMatS0=   9453 NMatT0=    0 NMatD0=    1 NMtDS0=    0 NMtDT0=    0
 Symmetry not used in FoFCou.
 Two-electron integral symmetry not used.
          MDV=    2147483648 using IRadAn=       1.
          Solving linear equations simultaneously, MaxMat=       0.
          There are     3 degrees of freedom in the 1st order CPHF.  IDoFFX=0 NUNeed=     3.
      3 vectors produced by pass  0 Test12= 1.02D-13 3.33D-08 XBig12= 2.97D+01 3.45D+00.
 AX will form     3 AO Fock derivatives at one time.
      3 vectors produced by pass  1 Test12= 1.02D-13 3.33D-08 XBig12= 7.50D+00 7.11D-01.
      3 vectors produced by pass  2 Test12= 1.02D-13 3.33D-08 XBig12= 9.70D-01 2.26D-01.
      3 vectors produced by pass  3 Test12= 1.02D-13 3.33D-08 XBig12= 1.85D-01 7.71D-02.
      3 vectors produced by pass  4 Test12= 1.02D-13 3.33D-08 XBig12= 3.53D-02 5.55D-02.
      3 vectors produced by pass  5 Test12= 1.02D-13 3.33D-08 XBig12= 6.12D-03 2.20D-02.
      3 vectors produced by pass  6 Test12= 1.02D-13 3.33D-08 XBig12= 5.58D-04 4.66D-03.
      3 vectors produced by pass  7 Test12= 1.02D-13 3.33D-08 XBig12= 2.09D-05 7.98D-04.
      3 vectors produced by pass  8 Test12= 1.02D-13 3.33D-08 XBig12= 3.87D-07 9.83D-05.
      3 vectors produced by pass  9 Test12= 1.02D-13 3.33D-08 XBig12= 8.28D-09 1.37D-05.
      3 vectors produced by pass 10 Test12= 1.02D-13 3.33D-08 XBig12= 1.42D-10 2.10D-06.
      2 vectors produced by pass 11 Test12= 1.02D-13 3.33D-08 XBig12= 1.75D-12 3.30D-07.
 InvSVY:  IOpt=1 It=  1 EMax= 8.88D-16
 Solved reduced A of dimension    35 with     3 vectors.
 End of Minotr F.D. properties file   721 does not exist.
 End of Minotr F.D. properties file   722 does not exist.
 End of Minotr F.D. properties file   788 does not exist.
 Leave Link 1002 at Thu Apr  2 13:34:17 2026, MaxMem=  2147483648 cpu:              19.6 elap:               2.6
 (Enter /Users/yarger/Applications/g16/l1101.exe)
 Using compressed storage, NAtomX=     9.
 Will process     10 centers per pass.
 Leave Link 1101 at Thu Apr  2 13:34:17 2026, MaxMem=  2147483648 cpu:               0.5 elap:               0.1
 (Enter /Users/yarger/Applications/g16/l1102.exe)
 Symmetrizing basis deriv contribution to polar:
 IMax=3 JMax=2 DiffMx= 0.00D+00
 Leave Link 1102 at Thu Apr  2 13:34:17 2026, MaxMem=  2147483648 cpu:               0.1 elap:               0.0
 (Enter /Users/yarger/Applications/g16/l1110.exe)
 Forming Gx(P) for the SCF density, NAtomX=     9.
 Integral derivatives from FoFJK, PRISM(SPDF).
 Do as many integral derivatives as possible in FoFJK.
 G2DrvN: MDV=    2147482864.
 G2DrvN: will do    10 centers at a time, making    1 passes.
 PxScal for G2LodP:  IOpCl= 0 ISclPx=1 IMOff=     1 NMtTot=     4 NTT=    9453 ScalPx= 6.34D+00
 Calling FoFCou, ICntrl=  3107 FMM=F I1Cent=   0 AccDes= 0.00D+00.
 FoFJK:  IHMeth= 1 ICntrl=    3107 DoSepK=F KAlg= 0 I1Cent=           0 FoldK=F
 IRaf=         0 NMat=       1 IRICut=       1 DoRegI=T DoRafI=F ISym2E= 0 IDoP0=0 IntGTp=1.
 FoFCou: FMM=F IPFlag=           0 FMFlag=      100000 FMFlg1=           0
         NFxFlg=           0 DoJE=F BraDBF=F KetDBF=F FulRan=T
         wScrn=  0.000000 ICntrl=      3107 IOpCl=  0 I1Cent=           0 NGrid=           0
         NMat0=    1 NMatS0=      1 NMatT0=    0 NMatD0=    4 NMtDS0=    3 NMtDT0=    0
 Symmetry not used in FoFCou.
 End of G2Drv F.D. properties file   721 does not exist.
 End of G2Drv F.D. properties file   722 does not exist.
 End of G2Drv F.D. properties file   788 does not exist.
 Leave Link 1110 at Thu Apr  2 13:34:25 2026, MaxMem=  2147483648 cpu:              64.1 elap:               8.1
 (Enter /Users/yarger/Applications/g16/l1002.exe)
 Minotr:  Closed shell wavefunction.
          IDoAtm=111111111
          Direct CPHF calculation.
          Differentiating once with respect to electric field.
                with respect to dipole field.
          Differentiating once with respect to nuclear coordinates.
          Requested convergence is 1.0D-08 RMS, and 1.0D-07 maximum.
          Secondary convergence is 1.0D-12 RMS, and 1.0D-12 maximum.
          NewPWx=T KeepS1=F KeepF1=F KeepIn=T MapXYZ=F SortEE=F KeepMc=T.
         2753 words used for storage of precomputed grid.
 Keep R1 ints in memory in canonical form, NReq=52366164.
 FoFCou: FMM=F IPFlag=           0 FMFlag=           0 FMFlg1=           0
         NFxFlg=           0 DoJE=F BraDBF=F KetDBF=F FulRan=T
         wScrn=  0.000000 ICntrl=       600 IOpCl=  0 I1Cent=           0 NGrid=           0
         NMat0=    1 NMatS0=   9453 NMatT0=    0 NMatD0=    1 NMtDS0=    0 NMtDT0=    0
 Symmetry not used in FoFCou.
 Two-electron integral symmetry not used.
          MDV=    2147483648 using IRadAn=       1.
          Solving linear equations simultaneously, MaxMat=       0.
          There are    30 degrees of freedom in the 1st order CPHF.  IDoFFX=5 NUNeed=    30.
 Will reuse    3 saved solutions.
     24 vectors produced by pass  0 Test12= 1.02D-14 3.33D-09 XBig12= 1.54D-01 1.09D-01.
 AX will form    24 AO Fock derivatives at one time.
     24 vectors produced by pass  1 Test12= 1.02D-14 3.33D-09 XBig12= 1.44D-02 3.44D-02.
     24 vectors produced by pass  2 Test12= 1.02D-14 3.33D-09 XBig12= 1.63D-04 2.95D-03.
     24 vectors produced by pass  3 Test12= 1.02D-14 3.33D-09 XBig12= 2.05D-06 3.24D-04.
     24 vectors produced by pass  4 Test12= 1.02D-14 3.33D-09 XBig12= 5.01D-09 1.36D-05.
     24 vectors produced by pass  5 Test12= 1.02D-14 3.33D-09 XBig12= 9.57D-12 4.99D-07.
      7 vectors produced by pass  6 Test12= 1.02D-14 3.33D-09 XBig12= 1.04D-14 1.57D-08.
 InvSVY:  IOpt=1 It=  1 EMax= 1.11D-15
 Solved reduced A of dimension   151 with    24 vectors.
 FullF1:  Do perturbations      1 to       3.
 Isotropic polarizability for W=    0.000000       39.20 Bohr**3.
 FullF1:  Do perturbations      1 to       6.
 End of Minotr F.D. properties file   721 does not exist.
 End of Minotr F.D. properties file   722 does not exist.
 End of Minotr F.D. properties file   788 does not exist.
 Leave Link 1002 at Thu Apr  2 13:34:31 2026, MaxMem=  2147483648 cpu:              43.1 elap:               5.6
 (Enter /Users/yarger/Applications/g16/l601.exe)
 Copying SCF densities to generalized density rwf, IOpCl= 0 IROHF=0.

 **********************************************************************

            Population analysis using the SCF density.

 **********************************************************************

 Orbital symmetries:
       Occupied  (A) (A) (A) (A) (A) (A) (A) (A) (A) (A) (A) (A)
                 (A) (A) (A) (A) (A) (A) (A) (A) (A) (A) (A) (A)
                 (A) (A) (A) (A)
       Virtual   (A) (A) (A) (A) (A) (A) (A) (A) (A) (A) (A) (A)
                 (A) (A) (A) (A) (A) (A) (A) (A) (A) (A) (A) (A)
                 (A) (A) (A) (A) (A) (A) (A) (A) (A) (A) (A) (A)
                 (A) (A) (A) (A) (A) (A) (A) (A) (A) (A) (A) (A)
                 (A) (A) (A) (A) (A) (A) (A) (A) (A) (A) (A) (A)
                 (A) (A) (A) (A) (A) (A) (A) (A) (A) (A) (A) (A)
                 (A) (A) (A) (A) (A) (A) (A) (A) (A) (A) (A) (A)
                 (A) (A) (A) (A) (A) (A) (A) (A) (A) (A) (A) (A)
                 (A) (A) (A) (A) (A) (A) (A) (A) (A) (A) (A) (A)
                 (A)
 The electronic state is 1-A.
 Alpha  occ. eigenvalues --  -24.77039 -24.76420 -24.76419 -24.75730 -10.47370
 Alpha  occ. eigenvalues --  -10.32337 -10.23494  -1.33989  -1.26510  -1.25338
 Alpha  occ. eigenvalues --   -1.24942  -0.83736  -0.74517  -0.66072  -0.62007
 Alpha  occ. eigenvalues --   -0.61646  -0.59881  -0.52450  -0.50558  -0.49376
 Alpha  occ. eigenvalues --   -0.48684  -0.48445  -0.46382  -0.45140  -0.43785
 Alpha  occ. eigenvalues --   -0.43421  -0.40301  -0.30981
 Alpha virt. eigenvalues --   -0.04639   0.00219   0.02328   0.03603   0.04699
 Alpha virt. eigenvalues --    0.05037   0.06485   0.09153   0.09297   0.09856
 Alpha virt. eigenvalues --    0.10540   0.11931   0.12701   0.15602   0.16561
 Alpha virt. eigenvalues --    0.17744   0.19065   0.19578   0.22193   0.24267
 Alpha virt. eigenvalues --    0.26096   0.27210   0.29735   0.29753   0.30554
 Alpha virt. eigenvalues --    0.32599   0.33936   0.33966   0.35539   0.35887
 Alpha virt. eigenvalues --    0.36922   0.37375   0.38632   0.41173   0.43157
 Alpha virt. eigenvalues --    0.43824   0.46628   0.64011   0.64100   0.72423
 Alpha virt. eigenvalues --    0.72874   0.74755   0.75718   0.79561   0.81822
 Alpha virt. eigenvalues --    0.89104   0.95817   1.01337   1.13376   1.17985
 Alpha virt. eigenvalues --    1.19945   1.31603   1.35160   1.41175   1.49437
 Alpha virt. eigenvalues --    1.53616   1.53955   1.55632   1.57029   1.60307
 Alpha virt. eigenvalues --    1.60639   1.60749   1.61215   1.64455   1.65251
 Alpha virt. eigenvalues --    1.65827   1.68218   1.72014   1.72659   1.78188
 Alpha virt. eigenvalues --    1.79026   1.80796   1.81778   1.82689   1.85808
 Alpha virt. eigenvalues --    1.86417   1.89470   1.94536   1.96745   2.01135
 Alpha virt. eigenvalues --    2.01147   2.02702   2.05495   2.06964   2.14476
 Alpha virt. eigenvalues --    2.15895   2.18708   2.27815   2.29588   2.37083
 Alpha virt. eigenvalues --    2.41588   2.42596   2.52989   2.65787   2.72636
 Alpha virt. eigenvalues --    2.74690   2.85844   2.95582   3.11101   3.15894
 Alpha virt. eigenvalues --    3.23013   3.35420   4.16416   4.34750   4.62016
 Alpha virt. eigenvalues --    5.43684   5.63191   5.73532   6.59222
          Condensed to atoms (all electrons):
               1          2          3          4          5          6
     1  C    5.553216   0.359278   0.354775   0.431522  -0.174157  -0.003665
     2  H    0.359278   0.446606  -0.024071  -0.022632   0.000657   0.000223
     3  H    0.354775  -0.024071   0.460347  -0.027773   0.016191  -0.000253
     4  C    0.431522  -0.022632  -0.027773   4.825991   0.469170  -0.083342
     5  C   -0.174157   0.000657   0.016191   0.469170   4.392880   0.195383
     6  F   -0.003665   0.000223  -0.000253  -0.083342   0.195383   9.265617
     7  F    0.043158   0.003622   0.000028  -0.096273   0.159990  -0.040368
     8  F   -0.003667   0.000223  -0.000253  -0.083341   0.195384  -0.056592
     9  F   -0.089755   0.005283  -0.003785   0.192627  -0.097804   0.007355
               7          8          9
     1  C    0.043158  -0.003667  -0.089755
     2  H    0.003622   0.000223   0.005283
     3  H    0.000028  -0.000253  -0.003785
     4  C   -0.096273  -0.083341   0.192627
     5  C    0.159990   0.195384  -0.097804
     6  F   -0.040368  -0.056592   0.007355
     7  F    9.293419  -0.040367   0.008498
     8  F   -0.040367   9.265618   0.007355
     9  F    0.008498   0.007355   9.291058
 Mulliken charges:
               1
     1  C   -0.470703
     2  H    0.230809
     3  H    0.224794
     4  C    0.394051
     5  C    0.842306
     6  F   -0.284357
     7  F   -0.331707
     8  F   -0.284359
     9  F   -0.320833
 Sum of Mulliken charges =  -0.00000
 Mulliken charges with hydrogens summed into heavy atoms:
               1
     1  C   -0.015100
     4  C    0.394051
     5  C    0.842306
     6  F   -0.284357
     7  F   -0.331707
     8  F   -0.284359
     9  F   -0.320833
 APT charges:
               1
     1  C   -0.193542
     2  H    0.097600
     3  H    0.093308
     4  C    0.446446
     5  C    1.702393
     6  F   -0.568140
     7  F   -0.521466
     8  F   -0.568142
     9  F   -0.488459
 Sum of APT charges =  -0.00000
 APT charges with hydrogens summed into heavy atoms:
               1
     1  C   -0.002633
     4  C    0.446446
     5  C    1.702393
     6  F   -0.568140
     7  F   -0.521466
     8  F   -0.568142
     9  F   -0.488459
 Electronic spatial extent (au):  <R**2>=            627.8388
 Charge=             -0.0000 electrons
 Dipole moment (field-independent basis, Debye):
    X=              1.7629    Y=             -1.6878    Z=             -0.0000  Tot=              2.4405
 Quadrupole moment (field-independent basis, Debye-Ang):
   XX=            -36.0084   YY=            -37.7720   ZZ=            -39.5196
   XY=             -2.9711   XZ=              0.0000   YZ=             -0.0000
 Traceless Quadrupole moment (field-independent basis, Debye-Ang):
   XX=              1.7583   YY=             -0.0054   ZZ=             -1.7530
   XY=             -2.9711   XZ=              0.0000   YZ=             -0.0000
 Octapole moment (field-independent basis, Debye-Ang**2):
  XXX=             -3.1964  YYY=              3.1297  ZZZ=              0.0000  XYY=             -1.9966
  XXY=             -2.6607  XXZ=              0.0001  XZZ=             -4.6194  YZZ=              2.9973
  YYZ=              0.0001  XYZ=             -0.0000
 Hexadecapole moment (field-independent basis, Debye-Ang**3):
 XXXX=           -331.7303 YYYY=           -196.5624 ZZZZ=           -104.8267 XXXY=              1.0711
 XXXZ=              0.0002 YYYX=              5.1405 YYYZ=             -0.0002 ZZZX=              0.0002
 ZZZY=             -0.0001 XXYY=            -94.9693 XXZZ=            -82.5644 YYZZ=            -53.1321
 XXYZ=             -0.0001 YYXZ=              0.0001 ZZXY=              7.1057
 N-N= 3.308345206644D+02 E-N=-1.879637762029D+03  KE= 5.108054415262D+02
  Exact polarizability:  42.887  -6.740  43.826   0.000  -0.000  30.901
 Approx polarizability:  54.132 -12.109  65.914   0.000  -0.000  41.632
 No NMR shielding tensors so no spin-rotation constants.
 Leave Link  601 at Thu Apr  2 13:34:31 2026, MaxMem=  2147483648 cpu:               0.5 elap:               0.1
 (Enter /Users/yarger/Applications/g16/l701.exe)
 ... and contract with generalized density number  0.
 Compute integral second derivatives.
 Leave Link  701 at Thu Apr  2 13:34:31 2026, MaxMem=  2147483648 cpu:               0.7 elap:               0.1
 (Enter /Users/yarger/Applications/g16/l702.exe)
 L702 exits ... SP integral derivatives will be done elsewhere.
 Leave Link  702 at Thu Apr  2 13:34:31 2026, MaxMem=  2147483648 cpu:               0.1 elap:               0.0
 (Enter /Users/yarger/Applications/g16/l703.exe)
 Integral derivatives from FoFJK, PRISM(SPDF).
 Compute integral second derivatives, UseDBF=F ICtDFT=           0.
 Calling FoFJK, ICntrl=    100127 FMM=F ISym2X=0 I1Cent= 0 IOpClX= 0 NMat=1 NMatS=1 NMatT=0.
 FoFJK:  IHMeth= 1 ICntrl=  100127 DoSepK=F KAlg= 0 I1Cent=           0 FoldK=F
 IRaf=         0 NMat=       1 IRICut=       1 DoRegI=T DoRafI=F ISym2E= 0 IDoP0=0 IntGTp=1.
 FoFCou: FMM=F IPFlag=           0 FMFlag=      100000 FMFlg1=         800
         NFxFlg=           0 DoJE=F BraDBF=F KetDBF=F FulRan=T
         wScrn=  0.000000 ICntrl=    100127 IOpCl=  0 I1Cent=           0 NGrid=           0
         NMat0=    1 NMatS0=      1 NMatT0=    0 NMatD0=    1 NMtDS0=    0 NMtDT0=    0
 Symmetry not used in FoFCou.
 Leave Link  703 at Thu Apr  2 13:34:44 2026, MaxMem=  2147483648 cpu:              97.1 elap:              12.6
 (Enter /Users/yarger/Applications/g16/l716.exe)
 Dipole        = 6.93561500D-01-6.64012876D-01-5.39320632D-06
 Polarizability= 4.28867141D+01-6.73996415D+00 4.38263780D+01
                 3.02993705D-05-1.38746959D-05 3.09013512D+01
 HyperPolar    = 2.27273858D+01-1.57415688D+01 1.72307555D+01
                -7.02515048D+01-3.68051802D-04 3.39733734D-04
                -8.61273105D-04 2.87297946D+01-3.83225706D+01
                -1.71194061D-03
 Full mass-weighted force constant matrix:
 Low frequencies ---   -2.5821    0.0010    0.0011    0.0015    2.5192    3.1706
 Low frequencies ---   61.6513  231.0661  231.8672
 Diagonal vibrational polarizability:
        7.6260323       9.5345200      18.1251352
 Diagonal vibrational hyperpolarizability:
       28.8694859     -13.7631400       0.0012188
 Harmonic frequencies (cm**-1), IR intensities (KM/Mole), Raman scattering
 activities (A**4/AMU), depolarization ratios for plane and unpolarized
 incident light, reduced masses (AMU), force constants (mDyne/A),
 and normal coordinates:
                      1                      2                      3
                      A                      A                      A
 Frequencies --     61.6507               231.0661               231.8672
 Red. masses --      7.1665                 9.2286                 8.1198
 Frc consts  --      0.0160                 0.2903                 0.2572
 IR Inten    --      1.3756                 1.1433                 0.0278
 Raman Activ --      1.5619                 0.2305                 1.9250
 Depolar (P) --      0.7500                 0.6398                 0.7500
 Depolar (U) --      0.8571                 0.7803                 0.8571
  Atom  AN      X      Y      Z        X      Y      Z        X      Y      Z
     1   6    -0.00  -0.00  -0.38    -0.28  -0.08   0.00     0.00   0.00   0.25
     2   1    -0.00  -0.00  -0.66    -0.54   0.03   0.00     0.00  -0.00   0.09
     3   1    -0.00  -0.00  -0.40    -0.24  -0.38   0.00     0.00   0.00   0.74
     4   6     0.00   0.00  -0.01     0.00   0.14  -0.00    -0.00  -0.00  -0.17
     5   6    -0.00   0.00  -0.01    -0.02   0.12  -0.00     0.00  -0.00  -0.18
     6   9    -0.00  -0.18  -0.12    -0.25  -0.03   0.02    -0.37  -0.04  -0.04
     7   9     0.00  -0.00   0.19     0.34  -0.04  -0.00    -0.00   0.00  -0.09
     8   9     0.00   0.18  -0.12    -0.25  -0.03  -0.02     0.37   0.04  -0.04
     9   9     0.00  -0.00   0.35     0.38  -0.00   0.00    -0.00   0.00   0.19
                      4                      5                      6
                      A                      A                      A
 Frequencies --    362.0887               410.3397               483.9243
 Red. masses --      4.3554                10.4589                11.7017
 Frc consts  --      0.3364                 1.0376                 1.6146
 IR Inten    --      0.6017                 1.5482                 0.7130
 Raman Activ --      2.3608                 1.7523                 1.6361
 Depolar (P) --      0.4990                 0.7252                 0.7500
 Depolar (U) --      0.6657                 0.8407                 0.8571
  Atom  AN      X      Y      Z        X      Y      Z        X      Y      Z
     1   6     0.28   0.13  -0.00     0.19  -0.11  -0.00     0.00   0.00   0.06
     2   1     0.65  -0.02   0.00     0.53  -0.25   0.00     0.00  -0.00  -0.07
     3   1     0.24   0.54  -0.00     0.14   0.26  -0.00    -0.00   0.00   0.57
     4   6     0.04  -0.04   0.00    -0.04  -0.25   0.00    -0.00  -0.00  -0.38
     5   6    -0.06  -0.01  -0.00    -0.00   0.03   0.00    -0.00   0.00  -0.20
     6   9    -0.13  -0.01   0.03    -0.11   0.26   0.18     0.06   0.33  -0.12
     7   9    -0.17   0.03  -0.00     0.33  -0.09  -0.00     0.00  -0.00   0.47
     8   9    -0.13  -0.01  -0.03    -0.11   0.26  -0.18    -0.06  -0.33  -0.12
     9   9     0.22  -0.09  -0.00    -0.24  -0.23  -0.00    -0.00  -0.00   0.07
                      7                      8                      9
                      A                      A                      A
 Frequencies --    564.6334               605.5721               668.0909
 Red. masses --      7.0686                 6.3962                 8.0699
 Frc consts  --      1.3277                 1.3820                 2.1222
 IR Inten    --      6.2189                23.7986                 0.6037
 Raman Activ --      1.3420                 2.0667                 0.3528
 Depolar (P) --      0.6358                 0.4075                 0.7500
 Depolar (U) --      0.7774                 0.5791                 0.8571
  Atom  AN      X      Y      Z        X      Y      Z        X      Y      Z
     1   6    -0.01   0.07   0.00     0.20  -0.25  -0.00    -0.00   0.00  -0.05
     2   1     0.47  -0.12   0.00    -0.18  -0.10  -0.00     0.00  -0.00  -0.07
     3   1    -0.07   0.62  -0.00     0.25  -0.71  -0.00    -0.00   0.00  -0.67
     4   6    -0.19  -0.08  -0.00     0.29  -0.08   0.00    -0.00   0.00   0.62
     5   6    -0.08   0.18   0.00     0.14   0.10  -0.00    -0.00  -0.00  -0.13
     6   9     0.01  -0.07  -0.28    -0.13  -0.10  -0.01    -0.15   0.15  -0.14
     7   9     0.18   0.21  -0.00     0.00   0.29   0.00     0.00  -0.00   0.11
     8   9     0.01  -0.07   0.28    -0.13  -0.10   0.01     0.15  -0.15  -0.14
     9   9    -0.05  -0.20  -0.00    -0.14   0.08  -0.00     0.00  -0.00  -0.07
                     10                     11                     12
                      A                      A                      A
 Frequencies --    750.5667               781.9578               929.9070
 Red. masses --      1.0875                 9.4569                 1.3470
 Frc consts  --      0.3610                 3.4069                 0.6863
 IR Inten    --      0.5958                 2.5325                52.7251
 Raman Activ --      0.9524                10.4345                 2.7133
 Depolar (P) --      0.7500                 0.0267                 0.7500
 Depolar (U) --      0.8571                 0.0520                 0.8571
  Atom  AN      X      Y      Z        X      Y      Z        X      Y      Z
     1   6    -0.00  -0.00   0.01    -0.20   0.17  -0.00    -0.00  -0.00  -0.17
     2   1     0.00   0.00   0.77     0.13   0.05  -0.00     0.00   0.00   0.67
     3   1     0.00  -0.00  -0.63    -0.26   0.63   0.00    -0.00   0.00   0.72
     4   6    -0.00   0.00  -0.06    -0.18   0.05   0.00     0.00  -0.00   0.06
     5   6     0.00   0.00   0.00     0.19  -0.01   0.00     0.00  -0.00  -0.00
     6   9    -0.01   0.01  -0.01     0.06  -0.17   0.31    -0.00   0.00   0.00
     7   9    -0.00   0.00  -0.00     0.03   0.32  -0.00    -0.00  -0.00   0.00
     8   9     0.01  -0.01  -0.01     0.06  -0.17  -0.31     0.00  -0.00   0.00
     9   9    -0.00   0.00   0.04    -0.02  -0.15  -0.00     0.00   0.00  -0.00
                     13                     14                     15
                      A                      A                      A
 Frequencies --    957.8517              1152.1213              1152.3021
 Red. masses --      2.1311                 4.9186                12.2094
 Frc consts  --      1.1520                 3.8467                 9.5516
 IR Inten    --     25.3379               198.7753               324.8220
 Raman Activ --      3.9607                 0.1388                 3.5256
 Depolar (P) --      0.3941                 0.3309                 0.7500
 Depolar (U) --      0.5654                 0.4973                 0.8571
  Atom  AN      X      Y      Z        X      Y      Z        X      Y      Z
     1   6    -0.07  -0.18   0.00    -0.18  -0.01  -0.00    -0.00  -0.00   0.00
     2   1     0.63  -0.48  -0.00     0.27  -0.18   0.00     0.01  -0.00  -0.10
     3   1    -0.15   0.52  -0.00    -0.26   0.71  -0.00    -0.01   0.02   0.25
     4   6    -0.05  -0.09  -0.00     0.21   0.16   0.00     0.01   0.00  -0.09
     5   6    -0.02   0.03   0.00     0.41  -0.04  -0.01     0.01  -0.00   0.88
     6   9     0.01  -0.01   0.01    -0.07   0.04  -0.07    -0.10   0.10  -0.23
     7   9     0.00   0.00  -0.00    -0.08  -0.08   0.00    -0.00  -0.00  -0.06
     8   9     0.01  -0.01  -0.01    -0.07   0.05   0.07     0.09  -0.10  -0.22
     9   9     0.04   0.17   0.00    -0.06  -0.10   0.00    -0.00  -0.00  -0.00
                     16                     17                     18
                      A                      A                      A
 Frequencies --   1186.1849              1363.3695              1437.4118
 Red. masses --     12.8618                 5.7841                 1.2259
 Frc consts  --     10.6624                 6.3346                 1.4924
 IR Inten    --    318.1325               144.9454                36.1953
 Raman Activ --      2.3885                 0.9403                14.2285
 Depolar (P) --      0.4730                 0.6504                 0.4467
 Depolar (U) --      0.6422                 0.7882                 0.6175
  Atom  AN      X      Y      Z        X      Y      Z        X      Y      Z
     1   6     0.04  -0.02  -0.00     0.08   0.09  -0.00     0.01  -0.04   0.00
     2   1    -0.08   0.04   0.00    -0.66   0.38  -0.00    -0.63   0.23  -0.00
     3   1     0.03   0.08  -0.00     0.07  -0.01   0.00    -0.09   0.72  -0.00
     4   6     0.07   0.02   0.00    -0.32  -0.35   0.00     0.09  -0.06   0.00
     5   6     0.00   0.91  -0.00     0.39   0.04   0.00    -0.07  -0.01  -0.00
     6   9     0.05  -0.11   0.09    -0.05   0.02  -0.04     0.00  -0.00   0.00
     7   9    -0.11  -0.29   0.00    -0.03  -0.04  -0.00     0.01   0.01  -0.00
     8   9     0.05  -0.11  -0.09    -0.05   0.02   0.04     0.00  -0.00  -0.00
     9   9    -0.06  -0.08  -0.00     0.06   0.12   0.00    -0.00   0.01   0.00
                     19                     20                     21
                      A                      A                      A
 Frequencies --   1758.4755              3204.9614              3299.4912
 Red. masses --      6.7040                 1.0615                 1.1184
 Frc consts  --     12.2140                 6.4239                 7.1739
 IR Inten    --     45.3342                 3.0043                 0.4686
 Raman Activ --     39.2123                94.3165                47.7588
 Depolar (P) --      0.1110                 0.1420                 0.7497
 Depolar (U) --      0.1999                 0.2487                 0.8570
  Atom  AN      X      Y      Z        X      Y      Z        X      Y      Z
     1   6     0.29  -0.35   0.00    -0.05   0.05  -0.00    -0.07  -0.07   0.00
     2   1    -0.50  -0.11  -0.00    -0.24  -0.58   0.00     0.29   0.72  -0.00
     3   1     0.27   0.39  -0.00     0.77   0.10   0.00     0.61   0.07   0.00
     4   6    -0.34   0.43  -0.00     0.01  -0.01   0.00    -0.00  -0.00  -0.00
     5   6     0.08  -0.02   0.00     0.00   0.00  -0.00     0.00  -0.00  -0.00
     6   9     0.00  -0.00   0.00    -0.00   0.00  -0.00     0.00   0.00   0.00
     7   9    -0.01  -0.00   0.00     0.00  -0.00   0.00    -0.00   0.00  -0.00
     8   9     0.00  -0.00  -0.00    -0.00   0.00   0.00     0.00   0.00  -0.00
     9   9    -0.00  -0.04  -0.00    -0.00  -0.00  -0.00     0.00   0.00   0.00

 -------------------
 - Thermochemistry -
 -------------------
 Temperature   298.150 Kelvin.  Pressure   1.00000 Atm.
 Atom     1 has atomic number  6 and mass  12.00000
 Atom     2 has atomic number  1 and mass   1.00783
 Atom     3 has atomic number  1 and mass   1.00783
 Atom     4 has atomic number  6 and mass  12.00000
 Atom     5 has atomic number  6 and mass  12.00000
 Atom     6 has atomic number  9 and mass  18.99840
 Atom     7 has atomic number  9 and mass  18.99840
 Atom     8 has atomic number  9 and mass  18.99840
 Atom     9 has atomic number  9 and mass  18.99840
 Molecular mass:   114.00926 amu.
 Principal axes and moments of inertia in atomic units:
                           1         2         3
     Eigenvalues --   493.28281 742.08315 914.08276
           X            0.99426  -0.10703   0.00000
           Y            0.10703   0.99426  -0.00000
           Z           -0.00000   0.00000   1.00000
 This molecule is an asymmetric top.
 Rotational symmetry number  1.
 Warning -- assumption of classical behavior for rotation
           may cause significant error
 Rotational temperatures (Kelvin)      0.17559     0.11672     0.09476
 Rotational constants (GHZ):           3.65863     2.43199     1.97437
 Zero-point vibrational energy     129159.8 (Joules/Mol)
                                   30.86994 (Kcal/Mol)
 Warning -- explicit consideration of   8 degrees of freedom as
           vibrations may cause significant error
 Vibrational temperatures:     88.70   332.45   333.61   520.96   590.39
          (Kelvin)            696.26   812.38   871.28   961.23  1079.90
                             1125.06  1337.93  1378.13  1657.65  1657.91
                             1706.66  1961.58  2068.11  2530.05  4611.22
                             4747.23
 
 Zero-point correction=                           0.049194 (Hartree/Particle)
 Thermal correction to Energy=                    0.055555
 Thermal correction to Enthalpy=                  0.056499
 Thermal correction to Gibbs Free Energy=         0.018258
 Sum of electronic and zero-point Energies=           -514.841747
 Sum of electronic and thermal Energies=              -514.835387
 Sum of electronic and thermal Enthalpies=            -514.834442
 Sum of electronic and thermal Free Energies=         -514.872684
 
                     E (Thermal)             CV                S
                      KCal/Mol        Cal/Mol-Kelvin    Cal/Mol-Kelvin
 Total                   34.861             22.059             80.486
 Electronic               0.000              0.000              0.000
 Translational            0.889              2.981             40.109
 Rotational               0.889              2.981             27.306
 Vibrational             33.084             16.097             13.071
 Vibration     1          0.597              1.973              4.404
 Vibration     2          0.653              1.794              1.871
 Vibration     3          0.653              1.792              1.864
 Vibration     4          0.736              1.550              1.113
 Vibration     5          0.775              1.448              0.925
 Vibration     6          0.840              1.286              0.700
 Vibration     7          0.920              1.108              0.515
 Vibration     8          0.964              1.020              0.440
                       Q            Log10(Q)             Ln(Q)
 Total Bot       0.399854D-08         -8.398099        -19.337337
 Total V=0       0.169716D+15         14.229723         32.765147
 Vib (Bot)       0.403575D-21        -21.394075        -49.261679
 Vib (Bot)    1  0.334891D+01          0.524903          1.208634
 Vib (Bot)    2  0.851991D+00         -0.069565         -0.160180
 Vib (Bot)    3  0.848747D+00         -0.071222         -0.163994
 Vib (Bot)    4  0.505498D+00         -0.296281         -0.682212
 Vib (Bot)    5  0.431050D+00         -0.365472         -0.841531
 Vib (Bot)    6  0.344439D+00         -0.462888         -1.065838
 Vib (Bot)    7  0.274019D+00         -0.562220         -1.294559
 Vib (Bot)    8  0.245162D+00         -0.610547         -1.405837
 Vib (V=0)       0.171295D+02          1.233746          2.840805
 Vib (V=0)    1  0.388603D+01          0.589506          1.357387
 Vib (V=0)    2  0.148787D+01          0.172565          0.397346
 Vib (V=0)    3  0.148507D+01          0.171748          0.395465
 Vib (V=0)    4  0.121100D+01          0.083146          0.191450
 Vib (V=0)    5  0.116015D+01          0.064516          0.148553
 Vib (V=0)    6  0.110716D+01          0.044209          0.101795
 Vib (V=0)    7  0.107016D+01          0.029450          0.067811
 Vib (V=0)    8  0.105687D+01          0.024022          0.055312
 Electronic      0.100000D+01          0.000000          0.000000
 Translational   0.478480D+08          7.679864         17.683541
 Rotational      0.207068D+06          5.316113         12.240802
 
                                                 r1234yf - 2,3,3,3-Tetrafluoropro
 pene
                                                             IR Spectrum
 
     3   3                                                       1           1  1     111                                            
     2   2                                                       7           4  3     111       99    7 7  6 6 5  4  4 3   22        
     9   0                                                       5           3  6     855       53    8 5  6 0 6  8  1 6   33     6  
     9   5                                                       8           7  3     622       80    2 1  8 6 5  4  0 2   21     2  
 
     X   X                                                       X           X  X     XXX       XX    X X  X X X  X  X X    X     X  
                                                                 X           X  X     XXX       XX                                   
                                                                 X              X     XXX        X                                   
                                                                                X     XXX                                            
                                                                                X     XXX                                            
                                                                                X     XXX                                            
                                                                                X     XXX                                            
                                                                                X     XXX                                            
                                                                                X     XXX                                            
                                                                                      XXX                                            
                                                                                      XXX                                            
                                                                                      XXX                                            
                                                                                      XX                                             
                                                                                      XX                                             
                                                                                      XX                                             
                                                                                      XX                                             
                                                                                      XX                                             
                                                                                      XX                                             
                                                                                      XX                                             
                                                                                      XX                                             
 
 
                                                 r1234yf - 2,3,3,3-Tetrafluoropro
 pene
                                                            Raman Spectrum
 
     3   3                                                       1           1  1     111                                            
     2   2                                                       7           4  3     111       99    7 7  6 6 5  4  4 3   22        
     9   0                                                       5           3  6     855       53    8 5  6 0 6  8  1 6   33     6  
     9   5                                                       8           7  3     622       80    2 1  8 6 5  4  0 2   21     2  
 
     X   X                                                       X           X  X     XXX       XX    X X  X X X  X  X X   XX     X  
     X   X                                                       X           X                        X                              
     X   X                                                       X           X                                                       
     X   X                                                       X                                                                   
     X   X                                                       X                                                                   
     X   X                                                       X                                                                   
     X   X                                                       X                                                                   
     X   X                                                       X                                                                   
     X   X                                                                                                                           
     X   X                                                                                                                           
         X                                                                                                                           
         X                                                                                                                           
         X                                                                                                                           
         X                                                                                                                           
         X                                                                                                                           
         X                                                                                                                           
         X                                                                                                                           
         X                                                                                                                           
         X                                                                                                                           
         X                                                                                                                           
 
 ***** Axes restored to original set *****
 -------------------------------------------------------------------
 Center     Atomic                   Forces (Hartrees/Bohr)
 Number     Number              X              Y              Z
 -------------------------------------------------------------------
      1        6           0.000000406    0.000001651    0.000000346
      2        1          -0.000001299   -0.000000316    0.000000536
      3        1          -0.000000379   -0.000000137    0.000000038
      4        6          -0.000002120    0.000001868    0.000000640
      5        6          -0.000001409    0.000001557   -0.000000748
      6        9           0.000000789   -0.000001660   -0.000000333
      7        9           0.000000365    0.000000374    0.000000003
      8        9           0.000000473   -0.000000999    0.000000264
      9        9           0.000003174   -0.000002339   -0.000000745
 -------------------------------------------------------------------
 Cartesian Forces:  Max     0.000003174 RMS     0.000001214
 Force constants in Cartesian coordinates: 
                1             2             3             4             5 
      1  0.749207D+00
      2  0.107887D+00  0.682168D+00
      3 -0.314195D-02  0.270206D+00  0.231340D+00
      4 -0.967078D-01  0.935015D-01  0.505269D-01  0.932590D-01
      5  0.870225D-01 -0.257177D+00 -0.116089D+00 -0.955949D-01  0.268314D+00
      6  0.474116D-01 -0.116639D+00 -0.912073D-01 -0.519365D-01  0.126113D+00
      7 -0.344447D+00  0.243099D-01  0.379828D-01 -0.387252D-02 -0.945736D-03
      8  0.299308D-01 -0.550125D-01 -0.122910D-01  0.224729D-01  0.298700D-02
      9  0.406856D-01 -0.118139D-01 -0.438691D-01  0.113199D-01  0.464438D-03
     10 -0.306873D+00 -0.208729D+00 -0.783528D-01  0.112192D-01  0.112941D-01
     11 -0.218159D+00 -0.329412D+00 -0.116972D+00 -0.146935D-01 -0.144140D-01
     12 -0.828870D-01 -0.117773D+00 -0.972100D-01 -0.802905D-02 -0.782351D-02
     13 -0.845105D-02 -0.722749D-02 -0.244152D-02  0.492388D-03  0.338811D-03
     14 -0.210180D-01  0.538156D-02  0.258091D-02 -0.150716D-02 -0.263239D-02
     15 -0.907219D-02  0.141022D-02  0.517273D-02 -0.112979D-02  0.763065D-03
     16 -0.407425D-02  0.323120D-02  0.266108D-02  0.170293D-03 -0.549124D-03
     17 -0.166791D-02  0.239863D-02  0.137248D-02  0.534764D-03  0.135239D-03
     18  0.321471D-02 -0.155011D-02 -0.990058D-03 -0.177647D-03  0.512717D-04
     19 -0.261219D-02 -0.128899D-02 -0.384226D-03 -0.273599D-02  0.926640D-03
     20 -0.154582D-02 -0.101411D-02 -0.434437D-03  0.476983D-03  0.145598D-02
     21 -0.507742D-03 -0.456319D-03 -0.138147D-04  0.413991D-03  0.891110D-03
     22 -0.468068D-02  0.414969D-02  0.163860D-02 -0.930897D-05  0.802547D-03
     23  0.116614D-02  0.606030D-03  0.717007D-04  0.176238D-03  0.270293D-03
     24 -0.270519D-02  0.232526D-02  0.140921D-02  0.421011D-03  0.602705D-03
     25  0.186393D-01 -0.158339D-01 -0.848891D-02 -0.181532D-02 -0.329476D-02
     26  0.163837D-01 -0.479387D-01 -0.284442D-01 -0.536678D-02  0.106126D-02
     27  0.700221D-02 -0.257088D-01 -0.463130D-02 -0.140886D-02 -0.497310D-02
                6             7             8             9            10 
      6  0.879494D-01
      7  0.597988D-04  0.362866D+00
      8 -0.152379D-02 -0.263557D-01  0.472039D-01
      9  0.145032D-02 -0.415711D-01  0.141288D-01  0.327954D-01
     10  0.446632D-02 -0.164760D-01 -0.266144D-01 -0.108409D-01  0.676556D+00
     11 -0.561736D-02  0.369751D-02  0.534185D-02 -0.900644D-03  0.173992D+00
     12 -0.321720D-02  0.373370D-02  0.167278D-02  0.704939D-02  0.396737D-01
     13 -0.242194D-03  0.844356D-03  0.503757D-03  0.103601D-02 -0.214568D+00
     14  0.919864D-03 -0.156963D-02 -0.226295D-02 -0.585720D-02 -0.898335D-02
     15 -0.381648D-02  0.392389D-04 -0.603316D-02  0.729152D-02  0.855287D-02
     16  0.136673D-02 -0.710765D-03  0.288645D-03 -0.312076D-02 -0.159790D-01
     17  0.734420D-03 -0.512636D-03  0.206949D-03 -0.108377D-02 -0.117499D-01
     18 -0.374990D-03  0.416240D-03  0.480043D-03  0.715393D-03  0.825022D-02
     19  0.630220D-03  0.302358D-03  0.589278D-03  0.257172D-03 -0.773105D-02
     20  0.929248D-03 -0.185835D-03  0.968592D-03  0.484246D-03  0.750104D-02
     21 -0.167632D-03 -0.115512D-03  0.418454D-03  0.205278D-03  0.486446D-02
     22 -0.134339D-02 -0.322574D-03 -0.243298D-02  0.229101D-02 -0.233854D-01
     23 -0.119292D-03  0.352037D-04  0.681290D-04  0.613586D-03 -0.314018D-02
     24 -0.330565D-03 -0.444567D-03 -0.808744D-03  0.466215D-03 -0.138821D-01
     25 -0.412544D-03  0.181686D-02  0.161771D-02 -0.568917D-04 -0.102763D+00
     26 -0.479743D-02  0.152692D-02  0.499063D-03  0.396445D-02  0.664303D-01
     27  0.971444D-02 -0.100550D-03  0.395661D-02 -0.610437D-02  0.372682D-01
               11            12            13            14            15 
     11  0.665430D+00
     12  0.229016D+00  0.265165D+00
     13  0.399439D-02  0.147934D-01  0.597775D+00
     14 -0.552026D-01  0.447591D-02 -0.667493D-02  0.507001D+00
     15  0.337439D-02 -0.620281D-01 -0.139814D-01  0.179156D-01  0.480714D+00
     16 -0.397355D-01  0.219138D-01 -0.112552D+00 -0.554786D-01  0.437515D-01
     17 -0.197457D-01  0.100209D-01 -0.592700D-01 -0.167683D+00  0.724434D-01
     18  0.171956D-01 -0.120549D-03  0.446689D-01  0.683439D-01 -0.120428D+00
     19  0.344204D-01  0.178081D-01 -0.120700D+00  0.626503D-01  0.344625D-01
     20 -0.166357D-01 -0.120422D-01  0.714010D-01 -0.187525D+00 -0.627662D-01
     21 -0.143271D-01 -0.217632D-03  0.386701D-01 -0.620236D-01 -0.102699D+00
     22 -0.107238D-01 -0.446482D-01 -0.133665D+00 -0.504197D-02 -0.814932D-01
     23  0.476558D-02 -0.568979D-02 -0.722317D-02 -0.706565D-01 -0.140456D-01
     24 -0.984530D-02 -0.172268D-01 -0.852822D-01 -0.104528D-01 -0.196334D+00
     25  0.672076D-01  0.376417D-01 -0.917613D-02  0.376234D-01  0.188704D-01
     26 -0.240128D+00 -0.101857D+00  0.415766D-02 -0.264203D-01 -0.130617D-01
     27 -0.101923D+00 -0.921940D-01  0.277892D-02 -0.159026D-01 -0.787239D-02
               16            17            18            19            20 
     16  0.970721D-01
     17  0.739089D-01  0.257146D+00
     18 -0.506348D-01 -0.129566D+00  0.166277D+00
     19  0.167981D-01 -0.483224D-02 -0.506265D-02  0.109057D+00
     20  0.668106D-02 -0.776163D-01  0.228043D-02 -0.849106D-01  0.291773D+00
     21 -0.577778D-02  0.120324D-01  0.174185D-01 -0.437530D-01  0.111631D+00
     22  0.185771D-01  0.482422D-02 -0.233994D-03  0.178593D-01 -0.381754D-02
     23  0.102253D-01 -0.145853D-02  0.433641D-01 -0.116795D-01 -0.134130D-01
     24 -0.960438D-02  0.328151D-01 -0.632703D-01 -0.695393D-02 -0.398609D-01
     25  0.698150D-03 -0.123524D-02 -0.440960D-03 -0.102382D-01  0.439979D-02
     26  0.142822D-02  0.661616D-02 -0.599575D-03  0.412468D-02  0.200680D-02
     27 -0.555300D-03  0.123077D-02  0.773375D-03  0.299584D-02 -0.220803D-03
               21            22            23            24            25 
     21  0.131991D+00
     22  0.307746D-02  0.124760D+00
     23 -0.479681D-01  0.114321D-01  0.764867D-01
     24 -0.478453D-01  0.118952D+00  0.215168D-01  0.319242D+00
     25  0.312802D-02  0.867095D-03 -0.992117D-03 -0.500715D-03  0.101971D+00
     26 -0.197432D-03  0.807791D-03  0.333129D-02  0.370797D-02 -0.894924D-01
     27  0.132879D-02  0.175963D-02  0.225662D-02  0.388932D-02 -0.497401D-01
               26            27 
     26  0.300972D+00
     27  0.141285D+00  0.950961D-01
 FormGI is forming the generalized inverse of G from B-inverse, IUseBI=4.
 Force constants in internal coordinates: 
                1             2             3             4             5 
      1  0.375143D+00
      2  0.159786D-02  0.370423D+00
      3  0.249320D-02  0.383564D-02  0.646290D+00
      4 -0.218208D-02 -0.189771D-03  0.129403D-01  0.302900D+00
      5 -0.161829D-02 -0.400541D-03  0.349266D-01  0.187275D-01  0.407108D+00
      6 -0.232338D-03  0.555589D-03 -0.198528D-03  0.252175D-01  0.527279D-02
      7  0.742580D-03 -0.426413D-03  0.160482D-02  0.209774D-01  0.285773D-02
      8 -0.232333D-03  0.555586D-03 -0.198617D-03  0.252179D-01  0.527272D-02
      9  0.430704D-02  0.385986D-02 -0.203089D-01 -0.134326D-02 -0.164590D-02
     10  0.545504D-02 -0.109377D-01  0.108280D-01  0.142070D-02  0.701713D-02
     11 -0.976207D-02  0.707780D-02  0.948096D-02 -0.774406D-04 -0.537123D-02
     12 -0.685614D-02  0.410818D-02  0.118764D-01  0.172526D-01 -0.491568D-01
     13  0.575360D-02 -0.447697D-02  0.148541D-01 -0.262952D-01  0.293369D-01
     14  0.110254D-02  0.368792D-03 -0.267306D-01  0.904268D-02  0.198199D-01
     15  0.867102D-03  0.278663D-03  0.509513D-03  0.162838D-01 -0.533346D-02
     16 -0.459935D-02 -0.246588D-03  0.334900D-02  0.248868D-01  0.168250D-01
     17  0.867076D-03  0.278641D-03  0.509354D-03  0.162851D-01 -0.533352D-02
     18  0.148167D-02 -0.568160D-04 -0.263023D-02 -0.208249D-01 -0.246674D-02
     19  0.110504D-03 -0.213854D-03  0.610886D-03 -0.194561D-01 -0.174215D-02
     20  0.148163D-02 -0.568148D-04 -0.263021D-02 -0.208249D-01 -0.246663D-02
     21  0.000000D+00  0.000000D+00  0.000000D+00  0.000000D+00  0.000000D+00
     22  0.000000D+00  0.000000D+00  0.000000D+00  0.000000D+00  0.000000D+00
     23  0.000000D+00  0.000000D+00  0.000000D+00  0.000000D+00  0.000000D+00
     24  0.000000D+00  0.000000D+00  0.000000D+00  0.000000D+00  0.000000D+00
     25  0.647148D-03  0.505080D-04  0.725041D-03 -0.144101D-02 -0.465114D-02
     26  0.000000D+00  0.000000D+00  0.000000D+00  0.000000D+00  0.000000D+00
     27 -0.647110D-03 -0.505333D-04 -0.724781D-03  0.144104D-02  0.465147D-02
     28  0.647120D-03  0.505273D-04  0.724712D-03 -0.144102D-02 -0.465147D-02
     29  0.000000D+00  0.000000D+00  0.000000D+00  0.000000D+00  0.000000D+00
     30 -0.647138D-03 -0.505140D-04 -0.725110D-03  0.144103D-02  0.465114D-02
                6             7             8             9            10 
      6  0.377588D+00
      7  0.519965D-01  0.382514D+00
      8  0.537827D-01  0.519960D-01  0.377581D+00
      9 -0.309290D-03 -0.186949D-02 -0.309299D-03  0.692251D-01
     10 -0.154273D-02  0.201325D-02 -0.154266D-02 -0.355473D-01  0.751597D-01
     11  0.185203D-02 -0.143759D-03  0.185196D-02 -0.336778D-01 -0.396124D-01
     12  0.902549D-02 -0.630800D-02  0.902544D-02 -0.358134D-02 -0.533426D-02
     13 -0.260265D-02 -0.703948D-02 -0.260259D-02 -0.760603D-04  0.127097D-01
     14 -0.642281D-02  0.133475D-01 -0.642287D-02  0.365740D-02 -0.737543D-02
     15  0.167257D-01 -0.297204D-01 -0.287514D-01 -0.101790D-02 -0.168804D-02
     16 -0.292713D-01  0.189886D-01 -0.292708D-01 -0.998871D-04  0.576522D-02
     17 -0.287515D-01 -0.297199D-01  0.167267D-01 -0.101789D-02 -0.168785D-02
     18  0.224758D-01  0.212985D-01 -0.141591D-02  0.868245D-03 -0.154409D-02
     19  0.230021D-01  0.371680D-04  0.230016D-01  0.526583D-03  0.510048D-03
     20 -0.141599D-02  0.212982D-01  0.224749D-01  0.868245D-03 -0.154409D-02
     21 -0.207423D-02  0.000000D+00  0.207429D-02  0.000000D+00  0.000000D+00
     22  0.160493D-04  0.000000D+00 -0.160381D-04  0.000000D+00  0.000000D+00
     23 -0.285018D-02  0.000000D+00  0.285026D-02  0.000000D+00  0.000000D+00
     24 -0.759905D-03  0.000000D+00  0.759932D-03  0.000000D+00  0.000000D+00
     25  0.151516D-03 -0.197660D-01  0.208872D-01 -0.345308D-03 -0.801826D-03
     26  0.201554D-01  0.000000D+00 -0.201555D-01  0.000000D+00  0.000000D+00
     27 -0.208869D-01  0.197659D-01 -0.151644D-03  0.345294D-03  0.801982D-03
     28 -0.173590D-02 -0.197660D-01  0.227746D-01 -0.345289D-03 -0.801957D-03
     29  0.182680D-01  0.000000D+00 -0.182681D-01  0.000000D+00  0.000000D+00
     30 -0.227743D-01  0.197659D-01  0.173579D-02  0.345313D-03  0.801852D-03
               11            12            13            14            15 
     11  0.732903D-01
     12  0.891560D-02  0.129452D+00
     13 -0.126336D-01 -0.663609D-01  0.144734D+00
     14  0.371803D-02 -0.630914D-01 -0.783732D-01  0.141465D+00
     15  0.270597D-02  0.710332D-02  0.152101D-03 -0.725539D-02  0.176996D+00
     16 -0.566533D-02  0.792814D-02 -0.181236D-01  0.101954D-01 -0.867121D-02
     17  0.270572D-02  0.710292D-02  0.152033D-03 -0.725499D-02  0.121994D-02
     18  0.675839D-03 -0.834822D-02  0.837435D-02 -0.261348D-04 -0.814622D-01
     19 -0.103663D-02 -0.682664D-02  0.228072D-02  0.454591D-02 -0.848781D-01
     20  0.675851D-03 -0.834793D-02  0.837426D-02 -0.263202D-04 -0.133529D-01
     21  0.000000D+00  0.000000D+00  0.000000D+00  0.000000D+00 -0.363310D-02
     22  0.000000D+00  0.000000D+00  0.000000D+00  0.000000D+00 -0.781722D-03
     23  0.000000D+00  0.000000D+00  0.000000D+00  0.000000D+00 -0.631818D-02
     24  0.000000D+00  0.000000D+00  0.000000D+00  0.000000D+00 -0.346680D-02
     25  0.114714D-02  0.419401D-03  0.154172D-02 -0.196107D-02  0.965729D-03
     26  0.000000D+00  0.000000D+00  0.000000D+00  0.000000D+00  0.114569D-01
     27 -0.114727D-02 -0.419583D-03 -0.154079D-02  0.196042D-02 -0.105199D-01
     28  0.114723D-02  0.419523D-03  0.154090D-02 -0.196049D-02 -0.160895D-02
     29  0.000000D+00  0.000000D+00  0.000000D+00  0.000000D+00  0.888225D-02
     30 -0.114718D-02 -0.419461D-03 -0.154160D-02  0.196100D-02 -0.130946D-01
               16            17            18            19            20 
     16  0.201151D+00
     17 -0.867059D-02  0.176997D+00
     18 -0.915474D-01 -0.133532D-01  0.135182D+00
     19 -0.132805D-01 -0.848799D-01  0.296473D-01  0.135090D+00
     20 -0.915454D-01 -0.814623D-01  0.333279D-01  0.296473D-01  0.135180D+00
     21  0.000000D+00  0.363312D-02  0.124436D-02  0.000000D+00 -0.124426D-02
     22  0.000000D+00  0.781758D-03  0.325040D-03  0.000000D+00 -0.325113D-03
     23  0.000000D+00  0.631823D-02  0.162637D-02  0.000000D+00 -0.162628D-02
     24  0.000000D+00  0.346687D-02  0.707054D-03  0.000000D+00 -0.707137D-03
     25 -0.141586D-01  0.105201D-01 -0.265299D-01  0.287756D-01  0.833678D-03
     26  0.000000D+00 -0.114571D-01  0.278778D-01  0.000000D+00 -0.278779D-01
     27  0.141586D-01 -0.965734D-03 -0.833723D-03 -0.287757D-01  0.265302D-01
     28 -0.141585D-01  0.130947D-01 -0.256999D-01  0.287757D-01  0.366261D-05
     29  0.000000D+00 -0.888247D-02  0.287078D-01  0.000000D+00 -0.287080D-01
     30  0.141586D-01  0.160885D-02 -0.370863D-05 -0.287757D-01  0.257002D-01
               21            22            23            24            25 
     21  0.170895D-01
     22  0.152070D-01  0.238041D-01
     23 -0.812256D-03 -0.595376D-02  0.200487D-01
     24 -0.269477D-02  0.264343D-02  0.149072D-01  0.202454D-01
     25  0.228197D-04  0.393293D-02 -0.100943D-02  0.290068D-02  0.307613D-01
     26 -0.855544D-03  0.381665D-02 -0.321874D-02  0.145345D-02 -0.118121D-01
     27  0.227854D-04  0.393293D-02 -0.100948D-02  0.290066D-02 -0.132232D-01
     28  0.172262D-02 -0.382985D-02  0.363306D-02 -0.191941D-02  0.272307D-01
     29  0.844258D-03 -0.394614D-02  0.142375D-02 -0.336664D-02 -0.153427D-01
     30  0.172259D-02 -0.382986D-02  0.363301D-02 -0.191944D-02 -0.167539D-01
               26            27            28            29            30 
     26  0.312885D-01
     27 -0.118120D-01  0.307612D-01
     28 -0.160308D-01 -0.167539D-01  0.322442D-01
     29  0.270697D-01 -0.153426D-01 -0.110173D-01  0.313952D-01
     30 -0.160307D-01  0.272306D-01 -0.117403D-01 -0.110171D-01  0.322442D-01
 Leave Link  716 at Thu Apr  2 13:34:44 2026, MaxMem=  2147483648 cpu:               0.2 elap:               0.0
 (Enter /Users/yarger/Applications/g16/l103.exe)

 GradGradGradGradGradGradGradGradGradGradGradGradGradGradGradGradGradGrad
 Berny optimization.
 Red2BG is reusing G-inverse.
 Internal  Forces:  Max     0.000003438 RMS     0.000001038
 Search for a local minimum.
 Step number   1 out of a maximum of    2
 All quantities printed in internal units (Hartrees-Bohrs-Radians)
 Second derivative matrix not updated -- analytic derivatives used.
 ITU=  0
     Eigenvalues ---    0.00258   0.01973   0.03303   0.04049   0.10114
     Eigenvalues ---    0.10701   0.12110   0.12871   0.17176   0.20658
     Eigenvalues ---    0.21641   0.24439   0.26463   0.35001   0.36053
     Eigenvalues ---    0.37076   0.37518   0.39703   0.42423   0.51261
     Eigenvalues ---    0.65545
 Angle between quadratic step and forces=  48.69 degrees.
 Linear search not attempted -- first point.
 Iteration  1 RMS(Cart)=  0.00000997 RMS(Int)=  0.00000000
 Iteration  2 RMS(Cart)=  0.00000000 RMS(Int)=  0.00000000
 ITry= 1 IFail=0 DXMaxC= 2.43D-05 DCOld= 1.00D+10 DXMaxT= 3.00D-01 DXLimC= 3.00D+00 Rises=F
 Variable       Old X    -DE/DX   Delta X   Delta X   Delta X     New X
                                 (Linear)    (Quad)   (Total)
    R1        2.04587  -0.00000   0.00000  -0.00000  -0.00000   2.04587
    R2        2.04939  -0.00000   0.00000  -0.00000  -0.00000   2.04939
    R3        2.50353  -0.00000   0.00000   0.00000   0.00000   2.50353
    R4        2.85132   0.00000   0.00000   0.00000   0.00000   2.85132
    R5        2.55242   0.00000   0.00000   0.00001   0.00001   2.55243
    R6        2.55470   0.00000   0.00000   0.00000   0.00000   2.55470
    R7        2.55066   0.00000   0.00000   0.00000   0.00000   2.55066
    R8        2.55470  -0.00000   0.00000  -0.00000  -0.00000   2.55470
    A1        2.07908   0.00000   0.00000   0.00001   0.00001   2.07909
    A2        2.10141  -0.00000   0.00000  -0.00000  -0.00000   2.10141
    A3        2.10269  -0.00000   0.00000  -0.00001  -0.00001   2.10268
    A4        2.21177  -0.00000   0.00000  -0.00000  -0.00000   2.21176
    A5        2.13704  -0.00000   0.00000  -0.00001  -0.00001   2.13704
    A6        1.93438   0.00000   0.00000   0.00001   0.00001   1.93439
    A7        1.94164  -0.00000   0.00000  -0.00001  -0.00001   1.94163
    A8        1.94073  -0.00000   0.00000  -0.00001  -0.00001   1.94072
    A9        1.94162   0.00000   0.00000   0.00001   0.00001   1.94163
   A10        1.88301   0.00000   0.00000   0.00000   0.00000   1.88302
   A11        1.87085  -0.00000   0.00000  -0.00000  -0.00000   1.87085
   A12        1.88301   0.00000   0.00000   0.00000   0.00000   1.88302
    D1       -0.00000   0.00000   0.00000   0.00000   0.00000  -0.00000
    D2        3.14158   0.00000   0.00000   0.00002   0.00002  -3.14159
    D3       -3.14158  -0.00000   0.00000  -0.00001  -0.00001   3.14159
    D4       -0.00001   0.00000   0.00000   0.00001   0.00001   0.00000
    D5       -2.09934  -0.00000   0.00000   0.00001   0.00001  -2.09932
    D6       -0.00001   0.00000   0.00000   0.00001   0.00001   0.00000
    D7        2.09931   0.00000   0.00000   0.00001   0.00001   2.09932
    D8        1.04227  -0.00000   0.00000  -0.00000  -0.00000   1.04227
    D9       -3.14159  -0.00000   0.00000  -0.00000  -0.00000   3.14159
   D10       -1.04227   0.00000   0.00000   0.00000   0.00000  -1.04227
         Item               Value     Threshold  Converged?
 Maximum Force            0.000003     0.000015     YES
 RMS     Force            0.000001     0.000010     YES
 Maximum Displacement     0.000024     0.000060     YES
 RMS     Displacement     0.000010     0.000040     YES
 Predicted change in Energy=-7.334131D-11
 Optimization completed.
    -- Stationary point found.
                           ----------------------------
                           !   Optimized Parameters   !
                           ! (Angstroms and Degrees)  !
 --------------------------                            --------------------------
 ! Name  Definition              Value          Derivative Info.                !
 --------------------------------------------------------------------------------
 ! R1    R(1,2)                  1.0826         -DE/DX =    0.0                 !
 ! R2    R(1,3)                  1.0845         -DE/DX =    0.0                 !
 ! R3    R(1,4)                  1.3248         -DE/DX =    0.0                 !
 ! R4    R(4,5)                  1.5089         -DE/DX =    0.0                 !
 ! R5    R(4,9)                  1.3507         -DE/DX =    0.0                 !
 ! R6    R(5,6)                  1.3519         -DE/DX =    0.0                 !
 ! R7    R(5,7)                  1.3497         -DE/DX =    0.0                 !
 ! R8    R(5,8)                  1.3519         -DE/DX =    0.0                 !
 ! A1    A(2,1,3)              119.1225         -DE/DX =    0.0                 !
 ! A2    A(2,1,4)              120.4021         -DE/DX =    0.0                 !
 ! A3    A(3,1,4)              120.4754         -DE/DX =    0.0                 !
 ! A4    A(1,4,5)              126.7248         -DE/DX =    0.0                 !
 ! A5    A(1,4,9)              122.4436         -DE/DX =    0.0                 !
 ! A6    A(5,4,9)              110.8315         -DE/DX =    0.0                 !
 ! A7    A(4,5,6)              111.2475         -DE/DX =    0.0                 !
 ! A8    A(4,5,7)              111.1954         -DE/DX =    0.0                 !
 ! A9    A(4,5,8)              111.2468         -DE/DX =    0.0                 !
 ! A10   A(6,5,7)              107.8887         -DE/DX =    0.0                 !
 ! A11   A(6,5,8)              107.1918         -DE/DX =    0.0                 !
 ! A12   A(7,5,8)              107.8887         -DE/DX =    0.0                 !
 ! D1    D(2,1,4,5)              0.0            -DE/DX =    0.0                 !
 ! D2    D(2,1,4,9)           -180.0009         -DE/DX =    0.0                 !
 ! D3    D(3,1,4,5)            180.0006         -DE/DX =    0.0                 !
 ! D4    D(3,1,4,9)             -0.0003         -DE/DX =    0.0                 !
 ! D5    D(1,4,5,6)           -120.2831         -DE/DX =    0.0                 !
 ! D6    D(1,4,5,7)             -0.0006         -DE/DX =    0.0                 !
 ! D7    D(1,4,5,8)            120.2816         -DE/DX =    0.0                 !
 ! D8    D(9,4,5,6)             59.7177         -DE/DX =    0.0                 !
 ! D9    D(9,4,5,7)            180.0002         -DE/DX =    0.0                 !
 ! D10   D(9,4,5,8)            -59.7176         -DE/DX =    0.0                 !
 --------------------------------------------------------------------------------
 GradGradGradGradGradGradGradGradGradGradGradGradGradGradGradGradGradGrad

 Leave Link  103 at Thu Apr  2 13:34:44 2026, MaxMem=  2147483648 cpu:               0.2 elap:               0.0
 (Enter /Users/yarger/Applications/g16/l9999.exe)

 ----------------------------------------------------------------------

 Electric dipole moment (input orientation):
 (Debye = 10**-18 statcoulomb cm , SI units = C m)
                  (au)            (Debye)         (10**-30 SI)
   Tot        0.960177D+00      0.244053D+01      0.814072D+01
   x          0.702097D+00      0.178455D+01      0.595263D+01
   y          0.611576D+00      0.155447D+01      0.518516D+01
   z          0.234467D+00      0.595955D+00      0.198789D+01

 Dipole polarizability, Alpha (input orientation).
 (esu units = cm**3 , SI units = C**2 m**2 J**-1)
 Alpha(0;0):
               (au)            (10**-24 esu)      (10**-40 SI)
   iso        0.392048D+02      0.580955D+01      0.646400D+01
   aniso      0.170902D+02      0.253251D+01      0.281780D+01
   xx         0.430327D+02      0.637678D+01      0.709513D+01
   yx         0.646922D+01      0.958640D+00      0.106663D+01
   yy         0.416387D+02      0.617022D+01      0.686529D+01
   zx         0.208070D+01      0.308327D+00      0.343060D+00
   zy         0.461363D+01      0.683669D+00      0.760685D+00
   zz         0.329431D+02      0.488166D+01      0.543158D+01

 First dipole hyperpolarizability, Beta (input orientation).
 ||, _|_  parallel and perpendicular components, (z) with respect to z axis,
 vector components x,y,z.  Values do not include the 1/n! factor of 1/2.
 (esu units = statvolt**-1 cm**4 , SI units = C**3 m**3 J**-2)
 Beta(0;0,0):
               (au)            (10**-30 esu)      (10**-50 SI)
   || (z)     0.291172D+02      0.251550D+00      0.933603D-01
   _|_(z)     0.970574D+01      0.838500D-01      0.311201D-01
   x          0.211417D+03      0.182648D+01      0.677879D+00
   y          0.340087D+03      0.293809D+01      0.109044D+01
   z          0.145586D+03      0.125775D+01      0.466802D+00
   ||         0.852178D+02      0.736215D+00      0.273239D+00
   xxx        0.237975D+02      0.205592D+00      0.763034D-01
   xxy        0.133241D+02      0.115110D+00      0.427220D-01
   yxy        0.185722D+02      0.160450D+00      0.595493D-01
   yyy        0.719396D+02      0.621502D+00      0.230664D+00
   xxz        0.935423D+01      0.808133D-01      0.299931D-01
   yxz       -0.328966D+01     -0.284201D-01     -0.105478D-01
   yyz       -0.726227D+00     -0.627403D-02     -0.232855D-02
   zxz        0.281025D+02      0.242784D+00      0.901069D-01
   zyz        0.280987D+02      0.242750D+00      0.900944D-01
   zzz        0.399007D+02      0.344711D+00      0.127936D+00

 ----------------------------------------------------------------------

 Dipole orientation:
     6          0.84323937         -0.19135522          3.76159111
     1         -0.85409364          0.66833661          4.51363529
     1          2.25782210         -0.90779512          5.05991883
     6          1.18625203         -0.36511162          1.28776620
     6         -0.59473979          0.53692526         -0.74802261
     9         -1.33729545         -1.39181401         -2.24970368
     9         -2.68547998          1.59584808          0.25862216
     9          0.52079476          2.27677752         -2.24968746
     9          3.27269603         -1.42184806          0.26554865

 Electric dipole moment (dipole orientation):
 (Debye = 10**-18 statcoulomb cm , SI units = C m)
                  (au)            (Debye)         (10**-30 SI)
   Tot        0.960177D+00      0.244053D+01      0.814072D+01
   x          0.000000D+00      0.000000D+00      0.000000D+00
   y          0.000000D+00      0.000000D+00      0.000000D+00
   z          0.960177D+00      0.244053D+01      0.814072D+01

 Dipole polarizability, Alpha (dipole orientation).
 (esu units = cm**3 , SI units = C**2 m**2 J**-1)
 Alpha(0;0):
               (au)            (10**-24 esu)      (10**-40 SI)
   iso        0.392048D+02      0.580955D+01      0.646400D+01
   aniso      0.170902D+02      0.253251D+01      0.281780D+01
   xx         0.354712D+02      0.525628D+01      0.584840D+01
   yx        -0.231451D+01     -0.342975D+00     -0.381611D+00
   yy         0.320736D+02      0.475282D+01      0.528822D+01
   zx        -0.680299D+00     -0.100810D+00     -0.112166D+00
   zy         0.344713D+00      0.510812D-01      0.568355D-01
   zz         0.500697D+02      0.741956D+01      0.825538D+01

 First dipole hyperpolarizability, Beta (dipole orientation).
 ||, _|_  parallel and perpendicular components, (z) with respect to z axis,
 vector components x,y,z.  Values do not include the 1/n! factor of 1/2.
 (esu units = statvolt**-1 cm**4 , SI units = C**3 m**3 J**-2)
 Beta(0;0,0):
               (au)            (10**-30 esu)      (10**-50 SI)
   || (z)     0.813515D+02      0.702814D+00      0.260842D+00
   _|_(z)     0.271172D+02      0.234271D+00      0.869475D-01
   x         -0.113198D+03     -0.977942D+00     -0.362953D+00
   y          0.573251D+02      0.495244D+00      0.183805D+00
   z          0.406758D+03      0.351407D+01      0.130421D+01
   ||         0.852178D+02      0.736215D+00      0.273239D+00
   xxx       -0.160702D+02     -0.138834D+00     -0.515269D-01
   xxy        0.107832D+01      0.931588D-02      0.345750D-02
   yxy       -0.572870D+01     -0.494915D-01     -0.183683D-01
   yyy        0.996116D+01      0.860567D-01      0.319391D-01
   xxz        0.268654D+02      0.232096D+00      0.861403D-01
   yxz        0.103268D+02      0.892153D-01      0.331114D-01
   yyz        0.420240D+02      0.363054D+00      0.134744D+00
   zxz       -0.159337D+02     -0.137655D+00     -0.510893D-01
   zyz        0.806887D+01      0.697087D-01      0.258717D-01
   zzz        0.666965D+02      0.576206D+00      0.213853D+00

 ----------------------------------------------------------------------
 1\1\GINC-YARGERMBP2021-2\Freq\RB3LYP\6-31+G(d)\C3H2F4\ROOT\02-Apr-2026
 \0\\#P Geom=AllCheck Guess=TCheck SCRF=Check GenChk RB3LYP/6-31+G(d) F
 req\\r1234yf - 2,3,3,3-Tetrafluoropropene\\0,1\C,1.7478903436,1.032582
 51,0.2242855102\H,1.3563909477,1.9288747735,0.6884731088\H,2.819065019
 5,0.9344745043,0.0861721588\C,0.9285907712,0.0688554808,-0.1695439068\
 C,-0.5752748934,0.0571694505,-0.0475023539\F,-0.9983595188,-0.98973042
 22,0.6958668871\F,-1.026441844,1.1882567908,0.5346592814\F,-1.16434422
 08,-0.0494670996,-1.2596212713\F,1.372002395,-1.065849988,-0.752792414
 3\\Version=EM64M-G16RevA.03\State=1-A\HF=-514.8909418\RMSD=4.860e-09\R
 MSF=1.214e-06\ZeroPoint=0.0491944\Thermal=0.0555553\Dipole=0.7020974,0
 .611576,0.2344667\DipoleDeriv=-0.1217917,-0.1521145,-0.0845912,-0.0116
 986,-0.218637,0.0192616,-0.0170776,0.0311792,-0.2401964,0.0799147,0.03
 82785,0.0248393,0.0289989,0.0783602,-0.0396473,0.0203779,-0.0404318,0.
 1345259,0.0137373,0.0129011,0.0207953,0.0170994,0.102294,-0.0415174,0.
 0228161,-0.0411605,0.1638941,0.1964365,-0.287159,-0.1600429,0.004509,0
 .9563391,0.4894438,-0.0197942,0.5142107,0.1865621,1.7383295,0.3002968,
 0.1467316,0.0214352,1.6443196,-0.0603226,0.0126478,-0.0839964,1.724531
 1,-0.5281312,-0.2806059,0.1141039,-0.1951799,-0.7028839,0.2596858,0.12
 13732,0.2991106,-0.4734049,-0.4802827,0.1985974,0.1119874,0.1798476,-0
 .688276,-0.2087044,0.1029705,-0.2102944,-0.3958399,-0.5958157,-0.11360
 44,-0.3273695,-0.050017,-0.2994425,-0.046015,-0.262994,-0.0727933,-0.8
 091665,-0.3023967,0.2834101,0.1535462,0.0050054,-0.8720736,-0.3721845,
 0.0196804,-0.395824,-0.2909056\Polar=43.0326652,6.4692236,41.6386972,2
 .0806951,4.613629,32.9430809\PolarDeriv=0.9362469,3.4776276,4.5240109,
 2.3372439,0.1949871,4.3721079,3.7283544,5.1848495,5.074255,0.426894,-2
 .4309646,2.5029645,2.4688355,0.4503549,-2.3871647,4.6133616,2.5482662,
 4.5198535,0.0794536,1.386674,-1.3620417,0.580055,-0.5490418,-0.7335474
 ,1.185349,-0.4027241,5.7188524,-0.0304077,2.5874387,1.4022918,0.476593
 ,-0.0501723,2.6839746,-0.5624147,1.4148767,1.0044254,9.8966183,0.93480
 32,1.0671863,-0.3270698,0.2427916,0.4584676,-0.530682,1.2548933,0.6442
 304,0.4283987,0.4897089,0.074563,-1.0244862,0.2919201,0.5739444,0.6332
 401,-0.0517529,-0.4287807,-5.3073377,-3.9992987,-3.9865885,-1.8494748,
 -0.837371,-2.4248987,-4.5999738,-4.667822,-5.0550411,-1.1736719,2.0166
 768,-3.7294673,-2.1633376,-1.0228482,0.8157948,-2.8820635,-1.3806647,-
 4.093098,3.1012424,1.921158,1.3464366,0.8103584,0.9279001,-0.1249692,2
 .6704065,2.0889517,0.4239885,-0.2288254,-1.5927768,0.2413141,1.4169348
 ,-0.1097456,-1.8437554,2.2194915,0.7962186,1.6639902,-3.1438153,-2.238
 9617,-1.0168185,1.0239101,0.1430134,-0.1921501,-2.5216468,-2.3587951,-
 5.3094815,0.5574609,1.7190485,-1.1598003,1.1798362,0.8685151,1.6827169
 ,-1.2138456,-2.0723862,2.6460075,-2.6533694,1.7205516,-0.9308261,0.984
 7582,-0.4167669,-0.3868169,1.3303827,-1.6467821,4.0979803,-0.542388,1.
 2306847,0.9660219,0.755897,-0.5274162,0.8975334,-0.9330643,1.5218205,1
 .7582963,-4.0375116,-0.8707415,-0.5736575,-2.3503229,-0.4150868,-1.038
 7129,-0.8073416,-1.2568744,-0.671298,-0.2128382,-1.639389,-0.1645286,-
 2.8661163,-0.6736906,-1.0321347,-2.716797,-0.7445456,-5.8745904,1.1284
 728,-2.3318124,0.9322986,-1.209458,0.7095743,0.0705197,-0.4548485,1.80
 43031,-4.923486,0.7753774,-2.3804273,-0.1333589,-0.2441564,0.7730828,-
 1.3909092,0.842092,-2.0318325,-1.1961038\HyperPolar=23.7974886,13.3241
 284,18.5722422,71.939633,9.3542341,-3.2896571,-0.7262268,28.102542,28.
 0986525,39.9006833\Quadrupole=1.362338,-0.1721298,-1.1902082,2.0534106
 ,0.7610234,0.3695393\PG=C01 [X(C3H2F4)]\NImag=0\\0.74920743,0.10788719
 ,0.68216770,-0.00314195,0.27020578,0.23133969,-0.09670780,0.09350153,0
 .05052695,0.09325904,0.08702248,-0.25717698,-0.11608913,-0.09559493,0.
 26831361,0.04741157,-0.11663881,-0.09120728,-0.05193651,0.12611315,0.0
 8794939,-0.34444748,0.02430992,0.03798275,-0.00387252,-0.00094574,0.00
 005980,0.36286574,0.02993083,-0.05501251,-0.01229098,0.02247285,0.0029
 8700,-0.00152379,-0.02635572,0.04720388,0.04068557,-0.01181389,-0.0438
 6914,0.01131990,0.00046444,0.00145032,-0.04157110,0.01412879,0.0327953
 9,-0.30687329,-0.20872916,-0.07835277,0.01121922,0.01129407,0.00446632
 ,-0.01647598,-0.02661437,-0.01084090,0.67655637,-0.21815863,-0.3294115
 9,-0.11697212,-0.01469350,-0.01441401,-0.00561736,0.00369751,0.0053418
 5,-0.00090064,0.17399158,0.66542991,-0.08288697,-0.11777331,-0.0972100
 5,-0.00802905,-0.00782351,-0.00321720,0.00373370,0.00167278,0.00704939
 ,0.03967366,0.22901577,0.26516490,-0.00845105,-0.00722749,-0.00244152,
 0.00049239,0.00033881,-0.00024219,0.00084436,0.00050376,0.00103601,-0.
 21456804,0.00399439,0.01479337,0.59777526,-0.02101796,0.00538156,0.002
 58091,-0.00150716,-0.00263239,0.00091986,-0.00156963,-0.00226295,-0.00
 585720,-0.00898335,-0.05520264,0.00447591,-0.00667493,0.50700081,-0.00
 907219,0.00141022,0.00517273,-0.00112979,0.00076307,-0.00381648,0.0000
 3924,-0.00603316,0.00729152,0.00855287,0.00337439,-0.06202805,-0.01398
 139,0.01791557,0.48071392,-0.00407425,0.00323120,0.00266108,0.00017029
 ,-0.00054912,0.00136673,-0.00071076,0.00028864,-0.00312076,-0.01597902
 ,-0.03973553,0.02191375,-0.11255172,-0.05547865,0.04375150,0.09707210,
 -0.00166791,0.00239863,0.00137248,0.00053476,0.00013524,0.00073442,-0.
 00051264,0.00020695,-0.00108377,-0.01174990,-0.01974566,0.01002093,-0.
 05926998,-0.16768258,0.07244340,0.07390893,0.25714605,0.00321471,-0.00
 155011,-0.00099006,-0.00017765,0.00005127,-0.00037499,0.00041624,0.000
 48004,0.00071539,0.00825022,0.01719565,-0.00012055,0.04466893,0.068343
 89,-0.12042835,-0.05063484,-0.12956567,0.16627701,-0.00261219,-0.00128
 899,-0.00038423,-0.00273599,0.00092664,0.00063022,0.00030236,0.0005892
 8,0.00025717,-0.00773105,0.03442043,0.01780806,-0.12069975,0.06265028,
 0.03446249,0.01679812,-0.00483224,-0.00506265,0.10905736,-0.00154582,-
 0.00101411,-0.00043444,0.00047698,0.00145598,0.00092925,-0.00018583,0.
 00096859,0.00048425,0.00750104,-0.01663572,-0.01204216,0.07140095,-0.1
 8752505,-0.06276619,0.00668106,-0.07761626,0.00228043,-0.08491062,0.29
 177274,-0.00050774,-0.00045632,-0.00001381,0.00041399,0.00089111,-0.00
 016763,-0.00011551,0.00041845,0.00020528,0.00486446,-0.01432714,-0.000
 21763,0.03867010,-0.06202359,-0.10269876,-0.00577778,0.01203237,0.0174
 1847,-0.04375298,0.11163061,0.13199063,-0.00468068,0.00414969,0.001638
 60,-0.00000931,0.00080255,-0.00134339,-0.00032257,-0.00243298,0.002291
 01,-0.02338540,-0.01072382,-0.04464818,-0.13366532,-0.00504197,-0.0814
 9316,0.01857709,0.00482422,-0.00023399,0.01785931,-0.00381754,0.003077
 46,0.12475978,0.00116614,0.00060603,0.00007170,0.00017624,0.00027029,-
 0.00011929,0.00003520,0.00006813,0.00061359,-0.00314018,0.00476558,-0.
 00568979,-0.00722317,-0.07065649,-0.01404559,0.01022526,-0.00145853,0.
 04336408,-0.01167945,-0.01341297,-0.04796807,0.01143208,0.07648667,-0.
 00270519,0.00232526,0.00140921,0.00042101,0.00060270,-0.00033056,-0.00
 044457,-0.00080874,0.00046621,-0.01388205,-0.00984530,-0.01722683,-0.0
 8528221,-0.01045276,-0.19633415,-0.00960438,0.03281506,-0.06327030,-0.
 00695393,-0.03986094,-0.04784532,0.11895204,0.02151676,0.31924243,0.01
 863930,-0.01583389,-0.00848891,-0.00181532,-0.00329476,-0.00041254,0.0
 0181686,0.00161771,-0.00005689,-0.10276280,0.06720758,0.03764167,-0.00
 917613,0.03762336,0.01887043,0.00069815,-0.00123524,-0.00044096,-0.010
 23816,0.00439979,0.00312802,0.00086709,-0.00099212,-0.00050071,0.10197
 101,0.01638367,-0.04793873,-0.02844422,-0.00536678,0.00106126,-0.00479
 743,0.00152692,0.00049906,0.00396445,0.06643027,-0.24012772,-0.1018566
 2,0.00415766,-0.02642027,-0.01306169,0.00142822,0.00661616,-0.00059957
 ,0.00412468,0.00200680,-0.00019743,0.00080779,0.00333129,0.00370797,-0
 .08949244,0.30097213,0.00700221,-0.02570882,-0.00463130,-0.00140886,-0
 .00497310,0.00971444,-0.00010055,0.00395661,-0.00610437,0.03726821,-0.
 10192325,-0.09219397,0.00277892,-0.01590259,-0.00787239,-0.00055530,0.
 00123077,0.00077337,0.00299584,-0.00022080,0.00132879,0.00175963,0.002
 25662,0.00388932,-0.04974010,0.14128455,0.09509611\\-0.00000041,-0.000
 00165,-0.00000035,0.00000130,0.00000032,-0.00000054,0.00000038,0.00000
 014,-0.00000004,0.00000212,-0.00000187,-0.00000064,0.00000141,-0.00000
 156,0.00000075,-0.00000079,0.00000166,0.00000033,-0.00000036,-0.000000
 37,0.,-0.00000047,0.00000100,-0.00000026,-0.00000317,0.00000234,0.0000
 0074\\\@


 "THE ACADEMIC HIERARCHY"


 THE PRESIDENT:
   LEAPS TALL BUILDINGS IN A SINGLE BOUND,
     IS MORE POWERFUL THAN A LOCOMOTIVE,
       IS FASTER THAN A SPEEDING BULLET,
         WALKS ON WATER,
           GIVES POLICY TO GOD.

 THE VICE PRESIDENT FOR ACADEMIC AFFAIRS:
   LEAPS SHORT BUILDINGS IN A SINGLE BOUND,
     IS MORE POWERFUL THAN A SWITCH ENGINE,
       IS JUST AS FAST AS A SPEEDING BULLET,
         WALKS ON WATER IF SEA IS CALM,
           TALKS WITH GOD.

 PROFESSOR:
   LEAPS SHORT BUILDINGS WITH A RUNNING START AND FAVORABLE WINDS,
     IS ALMOST AS POWERFUL AS A SWITCH ENGINE,
       CAN FIRE A SPEEDING BULLET,
         WALKS ON WATER IN AN INDOOR SWIMMING POOL,
          TALKS WITH GOD IF SPECIAL REQUEST IS APPROVED.

 ASSOCIATE PROFESSOR:
   BARELY CLEARS A QUONSET HUT,
     LOSES TUG OF WAR WITH LOCOMOTIVE,
       MISFIRES FREQUENTLY,
         SWIMS WELL,
           IS OCCASIONALLY ADDRESSED BY GOD.

 ASSISTANT PROFESSOR:
   MAKES HIGH MARKS ON WALLS WHEN TRYING TO LEAP TALL BUILDINGS,
     IS RUN OVER BY LOCOMOTIVES,
       CAN SOMETIMES HANDLE A GUN WITHOUT INFLICTING SELF INJURY,
         DOG PADDLES,
           TALKS TO ANIMALS.

 GRADUATE STUDENT:
   RUNS INTO BUILDINGS,
     RECOGNIZES LOCOMOTIVES TWO OUT OF THREE TIMES,
       IS NOT ISSUED AMMUNITION,
         CAN STAY AFLOAT WITH A LIFE JACKET,
           TALKS TO WALLS.

 UNDERGRADUATE AND WORK STUDY STUDENT:
   FALLS OVER DOORSTEP WHEN TRYING TO ENTER BUILDINGS,
     SAYS, "LOOK AT THE CHOO-CHOO,"
       WETS HIMSELF WITH A WATER PISTOL,
        PLAYS IN MUD PUDDLES,
          MUMBLES TO HIMSELF.

 DEPARTMENT SECRETARY:
   LIFTS TALL BUILDINGS AND WALKS UNDER THEM,
     KICKS LOCOMOTIVES OFF THE TRACKS,
       CATCHES SPEEDING BULLETS IN HER TEETH AND EATS THEM,
         FREEZES WATER WITH A SINGLE GLANCE,
           IS GOD.
 Job cpu time:       0 days  0 hours  3 minutes 54.8 seconds.
 Elapsed time:       0 days  0 hours  0 minutes 30.5 seconds.
 File lengths (MBytes):  RWF=     27 Int=      0 D2E=      0 Chk=      3 Scr=      1
 Normal termination of Gaussian 16 at Thu Apr  2 13:34:44 2026.
