%chk=Argon_PM6_Freq.chk
#p freq pm6

Argon Freq PM6

0 1
 Ar                -0.23848683    0.24668938    0.00322934

