%chk=Argon_PM6.chk
#p pm6

Argon Energy PM6

0 1
 Ar                -0.23848683    0.24668938    0.00322934

