%nprocshared=8
%mem=8GB
%chk=CO2_DFT_B3LPY_apVTZ_Opt_Freq_Full_NBO.chk
#p opt=tight freq=raman b3lyp/aug-cc-pvtz guess=save
pop=(hirshfeld,full,nbo) geom=connectivity polar

CO2 DFT aug-cc-pVTZ Opt Freq - Full - NBO

0 1
 C                  2.92043382    0.67811934    0.00000000
 O                  4.17883382    0.67811934    0.00000000
 O                  1.66203382    0.67811934    0.00000000

 1 2 2.0 3 2.0
 2
 3

