%nprocshared=8
%mem=8GB
%chk=CO2_DFT_uB3LPY_6311pp2d3p_Opt_Freq_Full_NBO.chk
#p opt=tight freq=raman uhf/6-311++g(2d,3p) guess=save
pop=(hirshfeld,full,nbo) geom=connectivity polar

CO2 uHF 6-311++g(2d,3p) Opt Freq - Full - NBO

0 1
 C                 -0.78661840    0.11754069    0.00000000
 O                  0.47178160    0.11754069    0.00000000
 O                 -2.04501840    0.11754069    0.00000000

 1 2 2.0 3 2.0
 2
 3

