 Entering Gaussian System, Link 0=g16
 Input=/Users/asuyarger/Downloads/Difluoromethane_Opt_Freq_DFT_WB97XD_631pd_Gaussian16.gjf
 Output=/Users/asuyarger/Downloads/Difluoromethane_Opt_Freq_DFT_WB97XD_631pd_Gaussian16.log
 Initial command:
 /Users/asuyarger/Applications/G16/g16/l1.exe "/Users/asuyarger/Applications/G16/scratch/Gau-28620.inp" -scrdir="/Users/asuyarger/Applications/G16/scratch/"
 Entering Link 1 = /Users/asuyarger/Applications/G16/g16/l1.exe PID=     28622.
  
 Copyright (c) 1988,1990,1992,1993,1995,1998,2003,2009,2016,
            Gaussian, Inc.  All Rights Reserved.
  
 This is part of the Gaussian(R) 16 program.  It is based on
 the Gaussian(R) 09 system (copyright 2009, Gaussian, Inc.),
 the Gaussian(R) 03 system (copyright 2003, Gaussian, Inc.),
 the Gaussian(R) 98 system (copyright 1998, Gaussian, Inc.),
 the Gaussian(R) 94 system (copyright 1995, Gaussian, Inc.),
 the Gaussian 92(TM) system (copyright 1992, Gaussian, Inc.),
 the Gaussian 90(TM) system (copyright 1990, Gaussian, Inc.),
 the Gaussian 88(TM) system (copyright 1988, Gaussian, Inc.),
 the Gaussian 86(TM) system (copyright 1986, Carnegie Mellon
 University), and the Gaussian 82(TM) system (copyright 1983,
 Carnegie Mellon University). Gaussian is a federally registered
 trademark of Gaussian, Inc.
  
 This software contains proprietary and confidential information,
 including trade secrets, belonging to Gaussian, Inc.
  
 This software is provided under written license and may be
 used, copied, transmitted, or stored only in accord with that
 written license.
  
 The following legend is applicable only to US Government
 contracts under FAR:
  
                    RESTRICTED RIGHTS LEGEND
  
 Use, reproduction and disclosure by the US Government is
 subject to restrictions as set forth in subparagraphs (a)
 and (c) of the Commercial Computer Software - Restricted
 Rights clause in FAR 52.227-19.
  
 Gaussian, Inc.
 340 Quinnipiac St., Bldg. 40, Wallingford CT 06492
  
  
 ---------------------------------------------------------------
 Warning -- This program may not be used in any manner that
 competes with the business of Gaussian, Inc. or will provide
 assistance to any competitor of Gaussian, Inc.  The licensee
 of this program is prohibited from giving any competitor of
 Gaussian, Inc. access to this program.  By using this program,
 the user acknowledges that Gaussian, Inc. is engaged in the
 business of creating and licensing software in the field of
 computational chemistry and represents and warrants to the
 licensee that it is not a competitor of Gaussian, Inc. and that
 it will not use this program in any manner prohibited above.
 ---------------------------------------------------------------
  

 Cite this work as:
 Gaussian 16, Revision A.03,
 M. J. Frisch, G. W. Trucks, H. B. Schlegel, G. E. Scuseria, 
 M. A. Robb, J. R. Cheeseman, G. Scalmani, V. Barone, 
 G. A. Petersson, H. Nakatsuji, X. Li, M. Caricato, A. V. Marenich, 
 J. Bloino, B. G. Janesko, R. Gomperts, B. Mennucci, H. P. Hratchian, 
 J. V. Ortiz, A. F. Izmaylov, J. L. Sonnenberg, D. Williams-Young, 
 F. Ding, F. Lipparini, F. Egidi, J. Goings, B. Peng, A. Petrone, 
 T. Henderson, D. Ranasinghe, V. G. Zakrzewski, J. Gao, N. Rega, 
 G. Zheng, W. Liang, M. Hada, M. Ehara, K. Toyota, R. Fukuda, 
 J. Hasegawa, M. Ishida, T. Nakajima, Y. Honda, O. Kitao, H. Nakai, 
 T. Vreven, K. Throssell, J. A. Montgomery, Jr., J. E. Peralta, 
 F. Ogliaro, M. J. Bearpark, J. J. Heyd, E. N. Brothers, K. N. Kudin, 
 V. N. Staroverov, T. A. Keith, R. Kobayashi, J. Normand, 
 K. Raghavachari, A. P. Rendell, J. C. Burant, S. S. Iyengar, 
 J. Tomasi, M. Cossi, J. M. Millam, M. Klene, C. Adamo, R. Cammi, 
 J. W. Ochterski, R. L. Martin, K. Morokuma, O. Farkas, 
 J. B. Foresman, and D. J. Fox, Gaussian, Inc., Wallingford CT, 2016.
 
 ******************************************
 Gaussian 16:  EM64M-G16RevA.03 25-Dec-2016
                31-Mar-2026 
 ******************************************
 %nprocshared=4
 Will use up to    4 processors via shared memory.
 %mem=4GB
 %chk=Difluoromethane_Opt_Freq_DFT_WB97XD_631pd_Gaussian16.chk
 ---------------------------------------------------------------------
 #p opt freq=raman wb97xd/6-31+g(d) guess=save geom=connectivity polar
 ---------------------------------------------------------------------
 1/18=20,19=15,26=3,38=1,57=2/1,3;
 2/9=110,12=2,17=6,18=5,40=1/2;
 3/5=1,6=6,7=11,11=2,25=1,30=1,71=1,74=-58/1,2,3;
 4//1;
 5/5=2,38=5,98=1/2;
 6/7=2,8=2,9=2,10=2,28=1/1;
 7//1,2,3,16;
 1/18=20,19=15,26=3/3(2);
 2/9=110/2;
 99//99;
 2/9=110/2;
 3/5=1,6=6,7=11,11=2,25=1,30=1,71=1,74=-58/1,2,3;
 4/5=5,16=3,69=1/1;
 5/5=2,38=5,98=1/2;
 7//1,2,3,16;
 1/18=20,19=15,26=3/3(-5);
 2/9=110/2;
 6/7=2,8=2,9=2,10=2,19=2,28=1/1;
 99/9=1/99;
 Leave Link    1 at Tue Mar 31 17:23:43 2026, MaxMem=   536870912 cpu:               0.1 elap:               0.0
 (Enter /Users/asuyarger/Applications/G16/g16/l101.exe)
 ---------------------
 R32 - difluoromethane
 ---------------------
 Symbolic Z-matrix:
 Charge =  0 Multiplicity = 1
 C                     0.74359   0.09744   0. 
 H                     1.10024  -0.91137  0. 
 H                     1.10026   0.60183  -0.87365 
 F                     1.1936    0.73383   1.10227 
 F                    -0.60641   0.09745  0. 
 
 ITRead=  0  0  0  0  0
 MicOpt= -1 -1 -1 -1 -1
 NAtoms=      5 NQM=        5 NQMF=       0 NMMI=      0 NMMIF=      0
                NMic=       0 NMicF=      0.
                    Isotopes and Nuclear Properties:
 (Nuclear quadrupole moments (NQMom) in fm**2, nuclear magnetic moments (NMagM)
  in nuclear magnetons)

  Atom         1           2           3           4           5
 IAtWgt=          12           1           1          19          19
 AtmWgt=  12.0000000   1.0078250   1.0078250  18.9984033  18.9984033
 NucSpn=           0           1           1           1           1
 AtZEff=  -0.0000000  -0.0000000  -0.0000000  -0.0000000  -0.0000000
 NQMom=    0.0000000   0.0000000   0.0000000   0.0000000   0.0000000
 NMagM=    0.0000000   2.7928460   2.7928460   2.6288670   2.6288670
 AtZNuc=   6.0000000   1.0000000   1.0000000   9.0000000   9.0000000
 Leave Link  101 at Tue Mar 31 17:23:44 2026, MaxMem=   536870912 cpu:               0.5 elap:               0.1
 (Enter /Users/asuyarger/Applications/G16/g16/l103.exe)

 GradGradGradGradGradGradGradGradGradGradGradGradGradGradGradGradGradGrad
 Berny optimization.
 Initialization pass.
                           ----------------------------
                           !    Initial Parameters    !
                           ! (Angstroms and Degrees)  !
 --------------------------                            --------------------------
 ! Name  Definition              Value          Derivative Info.                !
 --------------------------------------------------------------------------------
 ! R1    R(1,2)                  1.07           estimate D2E/DX2                !
 ! R2    R(1,3)                  1.07           estimate D2E/DX2                !
 ! R3    R(1,4)                  1.35           estimate D2E/DX2                !
 ! R4    R(1,5)                  1.35           estimate D2E/DX2                !
 ! A1    A(2,1,3)              109.4712         estimate D2E/DX2                !
 ! A2    A(2,1,4)              109.4712         estimate D2E/DX2                !
 ! A3    A(2,1,5)              109.4712         estimate D2E/DX2                !
 ! A4    A(3,1,4)              109.4712         estimate D2E/DX2                !
 ! A5    A(3,1,5)              109.4712         estimate D2E/DX2                !
 ! A6    A(4,1,5)              109.4712         estimate D2E/DX2                !
 ! D1    D(2,1,4,3)            120.0            estimate D2E/DX2                !
 ! D2    D(2,1,5,3)           -120.0            estimate D2E/DX2                !
 ! D3    D(2,1,5,4)            120.0            estimate D2E/DX2                !
 ! D4    D(3,1,5,4)           -120.0            estimate D2E/DX2                !
 --------------------------------------------------------------------------------
 Trust Radius=3.00D-01 FncErr=1.00D-07 GrdErr=1.00D-06 EigMax=2.50D+02 EigMin=1.00D-04
 Number of steps in this run=     24 maximum allowed number of steps=    100.
 GradGradGradGradGradGradGradGradGradGradGradGradGradGradGradGradGradGrad

 Leave Link  103 at Tue Mar 31 17:23:45 2026, MaxMem=   536870912 cpu:               0.0 elap:               0.0
 (Enter /Users/asuyarger/Applications/G16/g16/l202.exe)
                          Input orientation:                          
 ---------------------------------------------------------------------
 Center     Atomic      Atomic             Coordinates (Angstroms)
 Number     Number       Type             X           Y           Z
 ---------------------------------------------------------------------
      1          6           0        0.743590    0.097436    0.000000
      2          1           0        1.100244   -0.911374   -0.000000
      3          1           0        1.100263    0.601834   -0.873651
      4          9           0        1.193598    0.733826    1.102270
      5          9           0       -0.606410    0.097452   -0.000000
 ---------------------------------------------------------------------
                    Distance matrix (angstroms):
                    1          2          3          4          5
     1  C    0.000000
     2  H    1.070000   0.000000
     3  H    1.070000   1.747303   0.000000
     4  F    1.350000   1.982524   1.982524   0.000000
     5  F    1.350000   1.982524   1.982524   2.204541   0.000000
 Stoichiometry    CH2F2
 Framework group  C2V[C2(C),SGV(F2),SGV'(H2)]
 Deg. of freedom     4
 Full point group                 C2V     NOp   4
 Largest Abelian subgroup         C2V     NOp   4
 Largest concise Abelian subgroup C2V     NOp   4
                         Standard orientation:                         
 ---------------------------------------------------------------------
 Center     Atomic      Atomic             Coordinates (Angstroms)
 Number     Number       Type             X           Y           Z
 ---------------------------------------------------------------------
      1          6           0       -0.000000    0.000000    0.492080
      2          1           0       -0.873651    0.000000    1.109845
      3          1           0        0.873651   -0.000000    1.109845
      4          9           0        0.000000    1.102270   -0.287343
      5          9           0       -0.000000   -1.102270   -0.287343
 ---------------------------------------------------------------------
 Rotational constants (GHZ):          50.9657564          10.5939264           9.2655812
 Leave Link  202 at Tue Mar 31 17:23:46 2026, MaxMem=   536870912 cpu:               0.0 elap:               0.0
 (Enter /Users/asuyarger/Applications/G16/g16/l301.exe)
 Standard basis: 6-31+G(d) (6D, 7F)
 Ernie: Thresh=  0.10000D-02 Tol=  0.10000D-05 Strict=F.
 There are    26 symmetry adapted cartesian basis functions of A1  symmetry.
 There are     6 symmetry adapted cartesian basis functions of A2  symmetry.
 There are    11 symmetry adapted cartesian basis functions of B1  symmetry.
 There are    18 symmetry adapted cartesian basis functions of B2  symmetry.
 There are    26 symmetry adapted basis functions of A1  symmetry.
 There are     6 symmetry adapted basis functions of A2  symmetry.
 There are    11 symmetry adapted basis functions of B1  symmetry.
 There are    18 symmetry adapted basis functions of B2  symmetry.
    61 basis functions,   104 primitive gaussians,    61 cartesian basis functions
    13 alpha electrons       13 beta electrons
       nuclear repulsion energy        77.6240967278 Hartrees.
 IExCor= 4639 DFT=T Ex+Corr=wB97XD ExCW=0 ScaHFX=  1.000000
 ScaDFX=  1.000000  1.000000  1.000000  1.000000 ScalE2=  1.000000  1.000000
 IRadAn=      5 IRanWt=     -1 IRanGd=            0 ICorTp=0 IEmpDi=121
 HFx  wShort=  0.000000 wLong=  0.200000 cFull=  0.222036 cShort=  0.000000 cLong=  0.777964
 DFx  wShort=  0.000000 wLong=  0.200000 cFull=  0.000000 cShort=  0.000000 cLong=  1.000000
 NAtoms=    5 NActive=    5 NUniq=    3 SFac= 2.78D+00 NAtFMM=   60 NAOKFM=F Big=F
 Integral buffers will be    131072 words long.
 Raffenetti 2 integral format.
 Two-electron integral symmetry is turned on.
 R6Disp:  Grimme-D2 Dispersion energy=       -0.0003646846 Hartrees.
 Nuclear repulsion after empirical dispersion term =       77.6237320432 Hartrees.
 Leave Link  301 at Tue Mar 31 17:23:47 2026, MaxMem=   536870912 cpu:               0.1 elap:               0.0
 (Enter /Users/asuyarger/Applications/G16/g16/l302.exe)
 NPDir=0 NMtPBC=     1 NCelOv=     1 NCel=       1 NClECP=     1 NCelD=      1
         NCelK=      1 NCelE2=     1 NClLst=     1 CellRange=     0.0.
 One-electron integrals computed using PRISM.
 One-electron integral symmetry used in STVInt
 NBasis=    61 RedAO= T EigKep=  3.34D-03  NBF=    26     6    11    18
 NBsUse=    61 1.00D-06 EigRej= -1.00D+00 NBFU=    26     6    11    18
 Precomputing XC quadrature grid using
 IXCGrd= 4 IRadAn=           5 IRanWt=          -1 IRanGd=           0 AccXCQ= 0.00D+00.
 Generated NRdTot=       0 NPtTot=           0 NUsed=           0 NTot=          32
 NSgBfM=    61    61    61    61    61 MxSgAt=     5 MxSgA2=     5.
 Leave Link  302 at Tue Mar 31 17:23:48 2026, MaxMem=   536870912 cpu:               0.4 elap:               0.1
 (Enter /Users/asuyarger/Applications/G16/g16/l303.exe)
 DipDrv:  MaxL=1.
 Leave Link  303 at Tue Mar 31 17:23:49 2026, MaxMem=   536870912 cpu:               0.1 elap:               0.0
 (Enter /Users/asuyarger/Applications/G16/g16/l401.exe)
 ExpMin= 4.38D-02 ExpMax= 7.00D+03 ExpMxC= 1.05D+03 IAcc=3 IRadAn=         5 AccDes= 0.00D+00
 Harris functional with IExCor= 4639 and IRadAn=       5 diagonalized for initial guess.
 HarFok:  IExCor= 4639 AccDes= 0.00D+00 IRadAn=         5 IDoV= 1 UseB2=F ITyADJ=14
 ICtDFT=  3500011 ScaDFX=  1.000000  1.000000  1.000000  1.000000
 FoFCou: FMM=F IPFlag=           0 FMFlag=      100000 FMFlg1=           0
         NFxFlg=           0 DoJE=T BraDBF=F KetDBF=T FulRan=T
         wScrn=  0.000000 ICntrl=       500 IOpCl=  0 I1Cent=   200000004 NGrid=           0
         NMat0=    1 NMatS0=      1 NMatT0=    0 NMatD0=    1 NMtDS0=    0 NMtDT0=    0
 Petite list used in FoFCou.
 Harris En= -231.011145778443    
 JPrj=0 DoOrth=F DoCkMO=F.
 Initial guess orbital symmetries:
       Occupied  (A1) (B2) (A1) (A1) (B2) (A1) (B1) (A1) (B2) (A1)
                 (A2) (B2) (B1)
       Virtual   (A1) (B2) (A1) (B1) (A1) (B2) (B2) (A1) (B1) (A2)
                 (A1) (B1) (A1) (A1) (B2) (B2) (A1) (B2) (B1) (B1)
                 (A1) (A1) (A1) (A2) (B2) (A2) (B1) (A1) (A1) (B2)
                 (B1) (A1) (B2) (A2) (B2) (B2) (A1) (B1) (A1) (B2)
                 (A2) (B1) (A1) (B2) (A1) (A1) (B2) (A1)
 The electronic state of the initial guess is 1-A1.
 Leave Link  401 at Tue Mar 31 17:23:51 2026, MaxMem=   536870912 cpu:               0.5 elap:               0.2
 (Enter /Users/asuyarger/Applications/G16/g16/l502.exe)
 Keep R1 ints in memory in symmetry-blocked form, NReq=7118901.
 FoFCou: FMM=F IPFlag=           0 FMFlag=           0 FMFlg1=           0
         NFxFlg=           0 DoJE=F BraDBF=F KetDBF=F FulRan=T
         wScrn=  0.000000 ICntrl=       600 IOpCl=  0 I1Cent=           0 NGrid=           0
         NMat0=    1 NMatS0=   1891 NMatT0=    0 NMatD0=    1 NMtDS0=    0 NMtDT0=    0
 Petite list used in FoFCou.
 Closed shell SCF:
 Using DIIS extrapolation, IDIIS=  1040.
 NGot=   536870912 LenX=   536387411 LenY=   536383249
 Requested convergence on RMS density matrix=1.00D-08 within 128 cycles.
 Requested convergence on MAX density matrix=1.00D-06.
 Requested convergence on             energy=1.00D-06.
 No special actions if energy rises.

 Cycle   1  Pass 1  IDiag  1:
 E= -238.744829300961    
 DIIS: error= 7.90D-02 at cycle   1 NSaved=   1.
 NSaved= 1 IEnMin= 1 EnMin= -238.744829300961     IErMin= 1 ErrMin= 7.90D-02
 ErrMax= 7.90D-02  0.00D+00 EMaxC= 1.00D-01 BMatC= 3.88D-01 BMatP= 3.88D-01
 IDIUse=3 WtCom= 2.10D-01 WtEn= 7.90D-01
 Coeff-Com:  0.100D+01
 Coeff-En:   0.100D+01
 Coeff:      0.100D+01
 Gap=     0.661 Goal=   None    Shift=    0.000
 GapD=    0.661 DampG=2.000 DampE=0.500 DampFc=1.0000 IDamp=-1.
 RMSDP=9.76D-03 MaxDP=1.33D-01              OVMax= 1.40D-01

 Cycle   2  Pass 1  IDiag  1:
 E= -238.770184580501     Delta-E=       -0.025355279539 Rises=F Damp=F
 DIIS: error= 7.03D-02 at cycle   2 NSaved=   2.
 NSaved= 2 IEnMin= 2 EnMin= -238.770184580501     IErMin= 2 ErrMin= 7.03D-02
 ErrMax= 7.03D-02  0.00D+00 EMaxC= 1.00D-01 BMatC= 2.80D-01 BMatP= 3.88D-01
 IDIUse=3 WtCom= 2.97D-01 WtEn= 7.03D-01
 Coeff-Com:  0.455D+00 0.545D+00
 Coeff-En:   0.460D+00 0.540D+00
 Coeff:      0.459D+00 0.541D+00
 Gap=     0.584 Goal=   None    Shift=    0.000
 RMSDP=4.47D-03 MaxDP=7.68D-02 DE=-2.54D-02 OVMax= 7.87D-02

 Cycle   3  Pass 1  IDiag  1:
 E= -238.925314268668     Delta-E=       -0.155129688167 Rises=F Damp=F
 DIIS: error= 8.23D-03 at cycle   3 NSaved=   3.
 NSaved= 3 IEnMin= 3 EnMin= -238.925314268668     IErMin= 3 ErrMin= 8.23D-03
 ErrMax= 8.23D-03  0.00D+00 EMaxC= 1.00D-01 BMatC= 4.26D-03 BMatP= 2.80D-01
 IDIUse=3 WtCom= 9.18D-01 WtEn= 8.23D-02
 Coeff-Com:  0.486D-01 0.127D+00 0.825D+00
 Coeff-En:   0.000D+00 0.000D+00 0.100D+01
 Coeff:      0.446D-01 0.116D+00 0.839D+00
 Gap=     0.517 Goal=   None    Shift=    0.000
 RMSDP=8.68D-04 MaxDP=1.60D-02 DE=-1.55D-01 OVMax= 1.74D-02

 Cycle   4  Pass 1  IDiag  1:
 E= -238.927842540605     Delta-E=       -0.002528271938 Rises=F Damp=F
 DIIS: error= 2.98D-03 at cycle   4 NSaved=   4.
 NSaved= 4 IEnMin= 4 EnMin= -238.927842540605     IErMin= 4 ErrMin= 2.98D-03
 ErrMax= 2.98D-03  0.00D+00 EMaxC= 1.00D-01 BMatC= 6.54D-04 BMatP= 4.26D-03
 IDIUse=3 WtCom= 9.70D-01 WtEn= 2.98D-02
 Coeff-Com: -0.723D-02 0.564D-02 0.319D+00 0.683D+00
 Coeff-En:   0.000D+00 0.000D+00 0.360D-01 0.964D+00
 Coeff:     -0.702D-02 0.547D-02 0.310D+00 0.691D+00
 Gap=     0.519 Goal=   None    Shift=    0.000
 RMSDP=2.75D-04 MaxDP=5.57D-03 DE=-2.53D-03 OVMax= 5.13D-03

 Cycle   5  Pass 1  IDiag  1:
 E= -238.928335921878     Delta-E=       -0.000493381273 Rises=F Damp=F
 DIIS: error= 1.61D-04 at cycle   5 NSaved=   5.
 NSaved= 5 IEnMin= 5 EnMin= -238.928335921878     IErMin= 5 ErrMin= 1.61D-04
 ErrMax= 1.61D-04  0.00D+00 EMaxC= 1.00D-01 BMatC= 2.12D-06 BMatP= 6.54D-04
 IDIUse=3 WtCom= 9.98D-01 WtEn= 1.61D-03
 Coeff-Com:  0.184D-03-0.532D-02-0.601D-01-0.776D-01 0.114D+01
 Coeff-En:   0.000D+00 0.000D+00 0.000D+00 0.000D+00 0.100D+01
 Coeff:      0.184D-03-0.532D-02-0.600D-01-0.775D-01 0.114D+01
 Gap=     0.518 Goal=   None    Shift=    0.000
 RMSDP=4.49D-05 MaxDP=4.42D-04 DE=-4.93D-04 OVMax= 8.84D-04

 Cycle   6  Pass 1  IDiag  1:
 E= -238.928339305690     Delta-E=       -0.000003383812 Rises=F Damp=F
 DIIS: error= 2.92D-05 at cycle   6 NSaved=   6.
 NSaved= 6 IEnMin= 6 EnMin= -238.928339305690     IErMin= 6 ErrMin= 2.92D-05
 ErrMax= 2.92D-05  0.00D+00 EMaxC= 1.00D-01 BMatC= 2.48D-08 BMatP= 2.12D-06
 IDIUse=1 WtCom= 1.00D+00 WtEn= 0.00D+00
 Coeff-Com:  0.504D-04 0.395D-03 0.218D-02-0.282D-02-0.133D+00 0.113D+01
 Coeff:      0.504D-04 0.395D-03 0.218D-02-0.282D-02-0.133D+00 0.113D+01
 Gap=     0.518 Goal=   None    Shift=    0.000
 RMSDP=7.02D-06 MaxDP=5.34D-05 DE=-3.38D-06 OVMax= 1.59D-04

 Cycle   7  Pass 1  IDiag  1:
 E= -238.928339372059     Delta-E=       -0.000000066369 Rises=F Damp=F
 DIIS: error= 4.49D-06 at cycle   7 NSaved=   7.
 NSaved= 7 IEnMin= 7 EnMin= -238.928339372059     IErMin= 7 ErrMin= 4.49D-06
 ErrMax= 4.49D-06  0.00D+00 EMaxC= 1.00D-01 BMatC= 6.82D-10 BMatP= 2.48D-08
 IDIUse=1 WtCom= 1.00D+00 WtEn= 0.00D+00
 Coeff-Com: -0.107D-05 0.222D-03 0.223D-02 0.281D-02-0.436D-01 0.237D-02
 Coeff-Com:  0.104D+01
 Coeff:     -0.107D-05 0.222D-03 0.223D-02 0.281D-02-0.436D-01 0.237D-02
 Coeff:      0.104D+01
 Gap=     0.518 Goal=   None    Shift=    0.000
 RMSDP=1.15D-06 MaxDP=1.15D-05 DE=-6.64D-08 OVMax= 2.70D-05

 Cycle   8  Pass 1  IDiag  1:
 E= -238.928339373780     Delta-E=       -0.000000001721 Rises=F Damp=F
 DIIS: error= 5.13D-07 at cycle   8 NSaved=   8.
 NSaved= 8 IEnMin= 8 EnMin= -238.928339373780     IErMin= 8 ErrMin= 5.13D-07
 ErrMax= 5.13D-07  0.00D+00 EMaxC= 1.00D-01 BMatC= 2.09D-11 BMatP= 6.82D-10
 IDIUse=1 WtCom= 1.00D+00 WtEn= 0.00D+00
 Coeff-Com: -0.781D-07-0.292D-04-0.334D-03-0.326D-03 0.834D-02-0.187D-01
 Coeff-Com: -0.140D+00 0.115D+01
 Coeff:     -0.781D-07-0.292D-04-0.334D-03-0.326D-03 0.834D-02-0.187D-01
 Coeff:     -0.140D+00 0.115D+01
 Gap=     0.518 Goal=   None    Shift=    0.000
 RMSDP=1.87D-07 MaxDP=1.45D-06 DE=-1.72D-09 OVMax= 2.98D-06

 Cycle   9  Pass 1  IDiag  1:
 E= -238.928339373815     Delta-E=       -0.000000000035 Rises=F Damp=F
 DIIS: error= 5.43D-08 at cycle   9 NSaved=   9.
 NSaved= 9 IEnMin= 9 EnMin= -238.928339373815     IErMin= 9 ErrMin= 5.43D-08
 ErrMax= 5.43D-08  0.00D+00 EMaxC= 1.00D-01 BMatC= 1.48D-13 BMatP= 2.09D-11
 IDIUse=1 WtCom= 1.00D+00 WtEn= 0.00D+00
 Coeff-Com:  0.806D-07-0.212D-05-0.253D-04-0.392D-04 0.457D-03-0.312D-03
 Coeff-Com: -0.132D-01-0.132D-01 0.103D+01
 Coeff:      0.806D-07-0.212D-05-0.253D-04-0.392D-04 0.457D-03-0.312D-03
 Coeff:     -0.132D-01-0.132D-01 0.103D+01
 Gap=     0.518 Goal=   None    Shift=    0.000
 RMSDP=1.80D-08 MaxDP=1.45D-07 DE=-3.51D-11 OVMax= 3.56D-07

 Cycle  10  Pass 1  IDiag  1:
 E= -238.928339373815     Delta-E=        0.000000000000 Rises=F Damp=F
 DIIS: error= 1.02D-08 at cycle  10 NSaved=  10.
 NSaved=10 IEnMin= 9 EnMin= -238.928339373815     IErMin=10 ErrMin= 1.02D-08
 ErrMax= 1.02D-08  0.00D+00 EMaxC= 1.00D-01 BMatC= 7.50D-15 BMatP= 1.48D-13
 IDIUse=1 WtCom= 1.00D+00 WtEn= 0.00D+00
 Coeff-Com: -0.293D-07 0.334D-06 0.567D-05 0.673D-05-0.122D-03 0.152D-03
 Coeff-Com:  0.311D-02-0.116D-01-0.106D+00 0.111D+01
 Coeff:     -0.293D-07 0.334D-06 0.567D-05 0.673D-05-0.122D-03 0.152D-03
 Coeff:      0.311D-02-0.116D-01-0.106D+00 0.111D+01
 Gap=     0.518 Goal=   None    Shift=    0.000
 RMSDP=2.66D-09 MaxDP=2.70D-08 DE= 2.84D-13 OVMax= 5.27D-08

 SCF Done:  E(RwB97XD) =  -238.928339374     A.U. after   10 cycles
            NFock= 10  Conv=0.27D-08     -V/T= 2.0071
 KE= 2.372426458081D+02 PE=-7.221037608595D+02 EE= 1.683090436343D+02
 Leave Link  502 at Tue Mar 31 17:23:53 2026, MaxMem=   536870912 cpu:               2.0 elap:               0.6
 (Enter /Users/asuyarger/Applications/G16/g16/l601.exe)
 Copying SCF densities to generalized density rwf, IOpCl= 0 IROHF=0.

 **********************************************************************

            Population analysis using the SCF density.

 **********************************************************************

 Orbital symmetries:
       Occupied  (A1) (B2) (A1) (A1) (B2) (A1) (A1) (B1) (B2) (A2)
                 (A1) (B2) (B1)
       Virtual   (A1) (B2) (A1) (B1) (B2) (A1) (A1) (B1) (B2) (A2)
                 (A1) (B1) (A1) (A1) (B2) (B2) (A1) (B2) (B1) (B1)
                 (A1) (A1) (A1) (A2) (B2) (A2) (B1) (A1) (A1) (B2)
                 (B1) (A1) (B2) (A2) (B2) (B2) (A1) (B1) (B2) (A1)
                 (A2) (B1) (A1) (B2) (A1) (A1) (B2) (A1)
 The electronic state is 1-A1.
 Alpha  occ. eigenvalues --  -24.85755 -24.85755 -10.46208  -1.37417  -1.31659
 Alpha  occ. eigenvalues --   -0.82065  -0.65381  -0.65292  -0.64686  -0.52664
 Alpha  occ. eigenvalues --   -0.51512  -0.50527  -0.44098
 Alpha virt. eigenvalues --    0.07705   0.09339   0.09945   0.10157   0.24589
 Alpha virt. eigenvalues --    0.25707   0.27502   0.28252   0.30843   0.33695
 Alpha virt. eigenvalues --    0.34879   0.36641   0.39424   0.40606   0.41589
 Alpha virt. eigenvalues --    0.48667   0.68246   0.79395   0.83411   0.96272
 Alpha virt. eigenvalues --    1.05420   1.35108   1.37001   1.39492   1.61154
 Alpha virt. eigenvalues --    1.64472   1.65244   1.67331   1.68832   1.70658
 Alpha virt. eigenvalues --    1.83814   1.87556   1.89903   1.93359   2.00487
 Alpha virt. eigenvalues --    2.10979   2.14203   2.18109   2.27445   2.27454
 Alpha virt. eigenvalues --    2.52524   2.54950   2.75069   3.15493   3.19339
 Alpha virt. eigenvalues --    4.45192   5.20551   5.31714
          Condensed to atoms (all electrons):
               1          2          3          4          5
     1  C    4.670805   0.415954   0.415954   0.144204   0.144204
     2  H    0.415954   0.554729  -0.058088  -0.051039  -0.051039
     3  H    0.415954  -0.058088   0.554729  -0.051039  -0.051039
     4  F    0.144204  -0.051039  -0.051039   9.286402  -0.034606
     5  F    0.144204  -0.051039  -0.051039  -0.034606   9.286402
 Mulliken charges:
               1
     1  C    0.208879
     2  H    0.189483
     3  H    0.189483
     4  F   -0.293923
     5  F   -0.293923
 Sum of Mulliken charges =  -0.00000
 Mulliken charges with hydrogens summed into heavy atoms:
               1
     1  C    0.587846
     4  F   -0.293923
     5  F   -0.293923
 Electronic spatial extent (au):  <R**2>=            139.9131
 Charge=             -0.0000 electrons
 Dipole moment (field-independent basis, Debye):
    X=              0.0000    Y=             -0.0000    Z=              2.0943  Tot=              2.0943
 Quadrupole moment (field-independent basis, Debye-Ang):
   XX=            -15.3879   YY=            -19.2478   ZZ=            -15.2243
   XY=             -0.0000   XZ=              0.0000   YZ=             -0.0000
 Traceless Quadrupole moment (field-independent basis, Debye-Ang):
   XX=              1.2321   YY=             -2.6278   ZZ=              1.3957
   XY=             -0.0000   XZ=              0.0000   YZ=             -0.0000
 Octapole moment (field-independent basis, Debye-Ang**2):
  XXX=              0.0000  YYY=             -0.0000  ZZZ=             -1.8976  XYY=              0.0000
  XXY=             -0.0000  XXZ=             -0.0338  XZZ=              0.0000  YZZ=             -0.0000
  YYZ=             -0.4266  XYZ=              0.0000
 Hexadecapole moment (field-independent basis, Debye-Ang**3):
 XXXX=            -17.6982 YYYY=            -88.0549 ZZZZ=            -33.6004 XXXY=             -0.0000
 XXXZ=             -0.0000 YYYX=             -0.0000 YYYZ=              0.0000 ZZZX=             -0.0000
 ZZZY=              0.0000 XXYY=            -17.6610 XXZZ=             -7.8148 YYZZ=            -19.5933
 XXYZ=              0.0000 YYXZ=             -0.0000 ZZXY=             -0.0000
 N-N= 7.762373204321D+01 E-N=-7.221037605370D+02  KE= 2.372426458081D+02
 Symmetry A1   KE= 1.278038170010D+02
 Symmetry A2   KE= 6.462539305666D+00
 Symmetry B1   KE= 8.510511333671D+00
 Symmetry B2   KE= 9.446577816781D+01
 No NMR shielding tensors so no spin-rotation constants.
 Leave Link  601 at Tue Mar 31 17:23:54 2026, MaxMem=   536870912 cpu:               0.3 elap:               0.1
 (Enter /Users/asuyarger/Applications/G16/g16/l701.exe)
 ... and contract with generalized density number  0.
 Compute integral first derivatives.
 R6Disp: Adding Grimme-D2 dispersion energy 1st derivatives to the gradient.
 Leave Link  701 at Tue Mar 31 17:23:55 2026, MaxMem=   536870912 cpu:               0.3 elap:               0.1
 (Enter /Users/asuyarger/Applications/G16/g16/l702.exe)
 L702 exits ... SP integral derivatives will be done elsewhere.
 Leave Link  702 at Tue Mar 31 17:23:56 2026, MaxMem=   536870912 cpu:               0.1 elap:               0.0
 (Enter /Users/asuyarger/Applications/G16/g16/l703.exe)
 Integral derivatives from FoFJK, PRISM(SPDF).
 Compute integral first derivatives, UseDBF=F ICtDFT=           0.
 Calling FoFJK, ICntrl=      2127 FMM=F ISym2X=1 I1Cent= 0 IOpClX= 0 NMat=1 NMatS=1 NMatT=0.
 FoFJK:  IHMeth= 1 ICntrl=    2127 DoSepK=T KAlg= 0 I1Cent=           0 FoldK=F
 IRaf=         1 NMat=       1 IRICut=       1 DoRegI=T DoRafI=F ISym2E= 1 IDoP0=0 IntGTp=1.
 FoFCou: FMM=F IPFlag=           0 FMFlag=      100000 FMFlg1=         800
         NFxFlg=           0 DoJE=F BraDBF=F KetDBF=F FulRan=T
         wScrn=  0.000000 ICntrl=      2527 IOpCl=  0 I1Cent=           0 NGrid=           0
         NMat0=    1 NMatS0=      1 NMatT0=    0 NMatD0=    1 NMtDS0=    0 NMtDT0=    0
 Petite list used in FoFCou.
 Leave Link  703 at Tue Mar 31 17:23:57 2026, MaxMem=   536870912 cpu:               1.0 elap:               0.3
 (Enter /Users/asuyarger/Applications/G16/g16/l716.exe)
 Dipole        = 4.44089210D-16 0.00000000D+00 8.23977970D-01
 ***** Axes restored to original set *****
 -------------------------------------------------------------------
 Center     Atomic                   Forces (Hartrees/Bohr)
 Number     Number              X              Y              Z
 -------------------------------------------------------------------
      1        6           0.001229064   -0.000869102   -0.001505304
      2        1           0.002567834   -0.017229756    0.005753983
      3        1           0.002568214    0.013597927   -0.012044386
      4        9           0.001479561    0.003898708    0.006752793
      5        9          -0.007844674    0.000602223    0.001042914
 -------------------------------------------------------------------
 Cartesian Forces:  Max     0.017229756 RMS     0.007319579
 Leave Link  716 at Tue Mar 31 17:23:59 2026, MaxMem=   536870912 cpu:               0.1 elap:               0.0
 (Enter /Users/asuyarger/Applications/G16/g16/l103.exe)

 GradGradGradGradGradGradGradGradGradGradGradGradGradGradGradGradGradGrad
 Berny optimization.
 FormGI is forming the generalized inverse of G from B-inverse, IUseBI=4.
 Internal  Forces:  Max     0.017100355 RMS     0.007384757
 Search for a local minimum.
 Step number   1 out of a maximum of   24
 All quantities printed in internal units (Hartrees-Bohrs-Radians)
 RMS Force = .73848D-02 SwitMx=.10000D-02 MixMth= 1
 Mixed Optimization -- RFO/linear search
 Second derivative matrix not updated -- first step.
 The second derivative matrix:
                          R1        R2        R3        R4        A1
           R1           0.37230
           R2           0.00000   0.37230
           R3           0.00000   0.00000   0.55021
           R4           0.00000   0.00000   0.00000   0.55021
           A1           0.00000   0.00000   0.00000   0.00000   0.16000
           A2           0.00000   0.00000   0.00000   0.00000   0.00000
           A3           0.00000   0.00000   0.00000   0.00000   0.00000
           A4           0.00000   0.00000   0.00000   0.00000   0.00000
           A5           0.00000   0.00000   0.00000   0.00000   0.00000
           A6           0.00000   0.00000   0.00000   0.00000   0.00000
           D1           0.00000   0.00000   0.00000   0.00000   0.00000
           D2           0.00000   0.00000   0.00000   0.00000   0.00000
           D3           0.00000   0.00000   0.00000   0.00000   0.00000
           D4           0.00000   0.00000   0.00000   0.00000   0.00000
                          A2        A3        A4        A5        A6
           A2           0.16000
           A3           0.00000   0.16000
           A4           0.00000   0.00000   0.16000
           A5           0.00000   0.00000   0.00000   0.16000
           A6           0.00000   0.00000   0.00000   0.00000   0.25000
           D1           0.00000   0.00000   0.00000   0.00000   0.00000
           D2           0.00000   0.00000   0.00000   0.00000   0.00000
           D3           0.00000   0.00000   0.00000   0.00000   0.00000
           D4           0.00000   0.00000   0.00000   0.00000   0.00000
                          D1        D2        D3        D4
           D1           0.02089
           D2           0.00000   0.02089
           D3           0.00000   0.00000   0.02089
           D4           0.00000   0.00000   0.00000   0.02089
 ITU=  0
     Eigenvalues ---    0.06677   0.06927   0.09532   0.16000   0.21999
     Eigenvalues ---    0.37230   0.37230   0.55021   0.55021
 RFO step:  Lambda=-2.56201324D-03 EMin= 6.67688582D-02
 Linear search not attempted -- first point.
 Iteration  1 RMS(Cart)=  0.02665387 RMS(Int)=  0.00075764
 Iteration  2 RMS(Cart)=  0.00041688 RMS(Int)=  0.00016086
 Iteration  3 RMS(Cart)=  0.00000024 RMS(Int)=  0.00016086
 ITry= 1 IFail=0 DXMaxC= 6.08D-02 DCOld= 1.00D+10 DXMaxT= 3.00D-01 DXLimC= 3.00D+00 Rises=F
 ClnCor:  largest displacement from symmetrization is 1.92D-03 for atom     5.
 Variable       Old X    -DE/DX   Delta X   Delta X   Delta X     New X
                                 (Linear)    (Quad)   (Total)
    R1        2.02201   0.01710   0.00000   0.04562   0.04562   2.06762
    R2        2.02201   0.01710   0.00000   0.04562   0.04562   2.06762
    R3        2.55113   0.00784   0.00000   0.01419   0.01505   2.56618
    R4        2.55113   0.00784   0.00000   0.01419   0.01505   2.56618
    A1        1.91063   0.00393   0.00000   0.05463   0.05475   1.96538
    A2        1.91063  -0.00045   0.00000  -0.00892  -0.01012   1.90052
    A3        1.91063  -0.00106   0.00000  -0.01104  -0.01012   1.90052
    A4        1.91063  -0.00045   0.00000  -0.00892  -0.01012   1.90052
    A5        1.91063  -0.00106   0.00000  -0.01104  -0.01012   1.90052
    A6        1.91063  -0.00091   0.00000  -0.01472  -0.01538   1.89525
    D1        2.09440   0.00426   0.00000   0.05599   0.05465   2.14904
    D2       -2.09440  -0.00351   0.00000  -0.05339  -0.05465  -2.14904
    D3        2.09440  -0.00176   0.00000  -0.02669  -0.02732   2.06707
    D4       -2.09440   0.00176   0.00000   0.02669   0.02732  -2.06707
         Item               Value     Threshold  Converged?
 Maximum Force            0.017100     0.000450     NO 
 RMS     Force            0.007385     0.000300     NO 
 Maximum Displacement     0.061078     0.001800     NO 
 RMS     Displacement     0.026765     0.001200     NO 
 Predicted change in Energy=-1.297087D-03
 Lowest energy point so far.  Saving SCF results.
 GradGradGradGradGradGradGradGradGradGradGradGradGradGradGradGradGradGrad

 Leave Link  103 at Tue Mar 31 17:23:59 2026, MaxMem=   536870912 cpu:               0.0 elap:               0.0
 (Enter /Users/asuyarger/Applications/G16/g16/l202.exe)
                          Input orientation:                          
 ---------------------------------------------------------------------
 Center     Atomic      Atomic             Coordinates (Angstroms)
 Number     Number       Type             X           Y           Z
 ---------------------------------------------------------------------
      1          6           0        0.748994    0.093615   -0.006618
      2          1           0        1.099440   -0.942559    0.019317
      3          1           0        1.099459    0.634155   -0.890999
      4          9           0        1.191798    0.735481    1.105136
      5          9           0       -0.608930    0.098852    0.002425
 ---------------------------------------------------------------------
                    Distance matrix (angstroms):
                    1          2          3          4          5
     1  C    0.000000
     2  H    1.094139   0.000000
     3  H    1.094139   1.820633   0.000000
     4  F    1.357963   2.000837   2.000837   0.000000
     5  F    1.357963   2.000837   2.000837   2.205422   0.000000
 Stoichiometry    CH2F2
 Framework group  C2V[C2(C),SGV(F2),SGV'(H2)]
 Deg. of freedom     4
 Full point group                 C2V     NOp   4
 RotChk:  IX=0 Diff= 1.48D-15
 Largest Abelian subgroup         C2V     NOp   4
 Largest concise Abelian subgroup C2V     NOp   4
                         Standard orientation:                         
 ---------------------------------------------------------------------
 Center     Atomic      Atomic             Coordinates (Angstroms)
 Number     Number       Type             X           Y           Z
 ---------------------------------------------------------------------
      1          6           0        0.000000   -0.000000    0.501976
      2          1           0       -0.910316   -0.000000    1.108990
      3          1           0        0.910316   -0.000000    1.108990
      4          9           0        0.000000    1.102711   -0.290547
      5          9           0       -0.000000   -1.102711   -0.290547
 ---------------------------------------------------------------------
 Rotational constants (GHZ):          49.3921839          10.5565792           9.2281906
 Leave Link  202 at Tue Mar 31 17:23:59 2026, MaxMem=   536870912 cpu:               0.0 elap:               0.0
 (Enter /Users/asuyarger/Applications/G16/g16/l301.exe)
 Standard basis: 6-31+G(d) (6D, 7F)
 Ernie: Thresh=  0.10000D-02 Tol=  0.10000D-05 Strict=F.
 There are    26 symmetry adapted cartesian basis functions of A1  symmetry.
 There are     6 symmetry adapted cartesian basis functions of A2  symmetry.
 There are    11 symmetry adapted cartesian basis functions of B1  symmetry.
 There are    18 symmetry adapted cartesian basis functions of B2  symmetry.
 There are    26 symmetry adapted basis functions of A1  symmetry.
 There are     6 symmetry adapted basis functions of A2  symmetry.
 There are    11 symmetry adapted basis functions of B1  symmetry.
 There are    18 symmetry adapted basis functions of B2  symmetry.
    61 basis functions,   104 primitive gaussians,    61 cartesian basis functions
    13 alpha electrons       13 beta electrons
       nuclear repulsion energy        77.1369858675 Hartrees.
 IExCor= 4639 DFT=T Ex+Corr=wB97XD ExCW=0 ScaHFX=  1.000000
 ScaDFX=  1.000000  1.000000  1.000000  1.000000 ScalE2=  1.000000  1.000000
 IRadAn=      5 IRanWt=     -1 IRanGd=            0 ICorTp=0 IEmpDi=121
 HFx  wShort=  0.000000 wLong=  0.200000 cFull=  0.222036 cShort=  0.000000 cLong=  0.777964
 DFx  wShort=  0.000000 wLong=  0.200000 cFull=  0.000000 cShort=  0.000000 cLong=  1.000000
 NAtoms=    5 NActive=    5 NUniq=    3 SFac= 2.78D+00 NAtFMM=   60 NAOKFM=F Big=F
 Integral buffers will be    131072 words long.
 Raffenetti 2 integral format.
 Two-electron integral symmetry is turned on.
 R6Disp:  Grimme-D2 Dispersion energy=       -0.0003928583 Hartrees.
 Nuclear repulsion after empirical dispersion term =       77.1365930092 Hartrees.
 Leave Link  301 at Tue Mar 31 17:23:59 2026, MaxMem=   536870912 cpu:               0.1 elap:               0.0
 (Enter /Users/asuyarger/Applications/G16/g16/l302.exe)
 NPDir=0 NMtPBC=     1 NCelOv=     1 NCel=       1 NClECP=     1 NCelD=      1
         NCelK=      1 NCelE2=     1 NClLst=     1 CellRange=     0.0.
 One-electron integrals computed using PRISM.
 One-electron integral symmetry used in STVInt
 NBasis=    61 RedAO= T EigKep=  3.36D-03  NBF=    26     6    11    18
 NBsUse=    61 1.00D-06 EigRej= -1.00D+00 NBFU=    26     6    11    18
 Precomputing XC quadrature grid using
 IXCGrd= 4 IRadAn=           5 IRanWt=          -1 IRanGd=           0 AccXCQ= 0.00D+00.
 Generated NRdTot=       0 NPtTot=           0 NUsed=           0 NTot=          32
 NSgBfM=    61    61    61    61    61 MxSgAt=     5 MxSgA2=     5.
 Leave Link  302 at Tue Mar 31 17:23:59 2026, MaxMem=   536870912 cpu:               0.4 elap:               0.1
 (Enter /Users/asuyarger/Applications/G16/g16/l303.exe)
 DipDrv:  MaxL=1.
 Leave Link  303 at Tue Mar 31 17:23:59 2026, MaxMem=   536870912 cpu:               0.1 elap:               0.0
 (Enter /Users/asuyarger/Applications/G16/g16/l401.exe)
 Initial guess from the checkpoint file:  "Difluoromethane_Opt_Freq_DFT_WB97XD_631pd_Gaussian16.chk"
 B after Tr=     0.000000   -0.000000   -0.000000
         Rot=    1.000000    0.000000    0.000000   -0.000000 Ang=   0.00 deg.
 Guess basis will be translated and rotated to current coordinates.
 JPrj=2 DoOrth=T DoCkMO=T.
 Initial guess orbital symmetries:
       Occupied  (A1) (B2) (A1) (A1) (B2) (A1) (A1) (B1) (B2) (A2)
                 (A1) (B2) (B1)
       Virtual   (A1) (B2) (A1) (B1) (B2) (A1) (A1) (B1) (B2) (A2)
                 (A1) (B1) (A1) (A1) (B2) (B2) (A1) (B2) (B1) (B1)
                 (A1) (A1) (A1) (A2) (B2) (A2) (B1) (A1) (A1) (B2)
                 (B1) (A1) (B2) (A2) (B2) (B2) (A1) (B1) (B2) (A1)
                 (A2) (B1) (A1) (B2) (A1) (A1) (B2) (A1)
 The electronic state of the initial guess is 1-A1.
 Generating alternative initial guess.
 ExpMin= 4.38D-02 ExpMax= 7.00D+03 ExpMxC= 1.05D+03 IAcc=2 IRadAn=         4 AccDes= 0.00D+00
 Harris functional with IExCor= 4639 and IRadAn=       4 diagonalized for initial guess.
 HarFok:  IExCor= 4639 AccDes= 0.00D+00 IRadAn=         4 IDoV= 1 UseB2=F ITyADJ=14
 ICtDFT=  3500011 ScaDFX=  1.000000  1.000000  1.000000  1.000000
 FoFCou: FMM=F IPFlag=           0 FMFlag=      100000 FMFlg1=           0
         NFxFlg=           0 DoJE=T BraDBF=F KetDBF=T FulRan=T
         wScrn=  0.000000 ICntrl=       500 IOpCl=  0 I1Cent=   200000004 NGrid=           0
         NMat0=    1 NMatS0=      1 NMatT0=    0 NMatD0=    1 NMtDS0=    0 NMtDT0=    0
 Petite list used in FoFCou.
 Harris En= -231.017117971944    
 Leave Link  401 at Tue Mar 31 17:23:59 2026, MaxMem=   536870912 cpu:               0.5 elap:               0.2
 (Enter /Users/asuyarger/Applications/G16/g16/l502.exe)
 Keep R1 ints in memory in symmetry-blocked form, NReq=7118901.
 FoFCou: FMM=F IPFlag=           0 FMFlag=           0 FMFlg1=           0
         NFxFlg=           0 DoJE=F BraDBF=F KetDBF=F FulRan=T
         wScrn=  0.000000 ICntrl=       600 IOpCl=  0 I1Cent=           0 NGrid=           0
         NMat0=    1 NMatS0=   1891 NMatT0=    0 NMatD0=    1 NMtDS0=    0 NMtDT0=    0
 Petite list used in FoFCou.
 Closed shell SCF:
 Using DIIS extrapolation, IDIIS=  1040.
 NGot=   536870912 LenX=   536387411 LenY=   536383249
 Requested convergence on RMS density matrix=1.00D-08 within 128 cycles.
 Requested convergence on MAX density matrix=1.00D-06.
 Requested convergence on             energy=1.00D-06.
 No special actions if energy rises.

 Cycle   1  Pass 1  IDiag  1:
 E= -238.929365720515    
 DIIS: error= 1.66D-03 at cycle   1 NSaved=   1.
 NSaved= 1 IEnMin= 1 EnMin= -238.929365720515     IErMin= 1 ErrMin= 1.66D-03
 ErrMax= 1.66D-03  0.00D+00 EMaxC= 1.00D-01 BMatC= 2.59D-04 BMatP= 2.59D-04
 IDIUse=3 WtCom= 9.83D-01 WtEn= 1.66D-02
 Coeff-Com:  0.100D+01
 Coeff-En:   0.100D+01
 Coeff:      0.100D+01
 Gap=     0.518 Goal=   None    Shift=    0.000
 GapD=    0.518 DampG=2.000 DampE=1.000 DampFc=2.0000 IDamp=-1.
 RMSDP=3.47D-04 MaxDP=8.19D-03              OVMax= 5.80D-03

 Cycle   2  Pass 1  IDiag  1:
 E= -238.929639782048     Delta-E=       -0.000274061533 Rises=F Damp=F
 DIIS: error= 7.31D-04 at cycle   2 NSaved=   2.
 NSaved= 2 IEnMin= 2 EnMin= -238.929639782048     IErMin= 2 ErrMin= 7.31D-04
 ErrMax= 7.31D-04  0.00D+00 EMaxC= 1.00D-01 BMatC= 3.19D-05 BMatP= 2.59D-04
 IDIUse=3 WtCom= 9.93D-01 WtEn= 7.31D-03
 Coeff-Com:  0.166D+00 0.834D+00
 Coeff-En:   0.000D+00 0.100D+01
 Coeff:      0.165D+00 0.835D+00
 Gap=     0.519 Goal=   None    Shift=    0.000
 RMSDP=1.01D-04 MaxDP=1.87D-03 DE=-2.74D-04 OVMax= 2.09D-03

 Cycle   3  Pass 1  IDiag  1:
 E= -238.929663197740     Delta-E=       -0.000023415692 Rises=F Damp=F
 DIIS: error= 3.46D-04 at cycle   3 NSaved=   3.
 NSaved= 3 IEnMin= 3 EnMin= -238.929663197740     IErMin= 3 ErrMin= 3.46D-04
 ErrMax= 3.46D-04  0.00D+00 EMaxC= 1.00D-01 BMatC= 9.95D-06 BMatP= 3.19D-05
 IDIUse=3 WtCom= 9.97D-01 WtEn= 3.46D-03
 Coeff-Com: -0.128D-01 0.333D+00 0.680D+00
 Coeff-En:   0.000D+00 0.000D+00 0.100D+01
 Coeff:     -0.128D-01 0.332D+00 0.681D+00
 Gap=     0.519 Goal=   None    Shift=    0.000
 RMSDP=3.28D-05 MaxDP=6.20D-04 DE=-2.34D-05 OVMax= 7.95D-04

 Cycle   4  Pass 1  IDiag  1:
 E= -238.929670172565     Delta-E=       -0.000006974825 Rises=F Damp=F
 DIIS: error= 1.14D-04 at cycle   4 NSaved=   4.
 NSaved= 4 IEnMin= 4 EnMin= -238.929670172565     IErMin= 4 ErrMin= 1.14D-04
 ErrMax= 1.14D-04  0.00D+00 EMaxC= 1.00D-01 BMatC= 7.83D-07 BMatP= 9.95D-06
 IDIUse=3 WtCom= 9.99D-01 WtEn= 1.14D-03
 Coeff-Com: -0.196D-01 0.661D-01 0.255D+00 0.698D+00
 Coeff-En:   0.000D+00 0.000D+00 0.000D+00 0.100D+01
 Coeff:     -0.196D-01 0.661D-01 0.255D+00 0.699D+00
 Gap=     0.519 Goal=   None    Shift=    0.000
 RMSDP=1.01D-05 MaxDP=1.64D-04 DE=-6.97D-06 OVMax= 1.70D-04

 Cycle   5  Pass 1  IDiag  1:
 E= -238.929670675021     Delta-E=       -0.000000502456 Rises=F Damp=F
 DIIS: error= 2.92D-05 at cycle   5 NSaved=   5.
 NSaved= 5 IEnMin= 5 EnMin= -238.929670675021     IErMin= 5 ErrMin= 2.92D-05
 ErrMax= 2.92D-05  0.00D+00 EMaxC= 1.00D-01 BMatC= 4.53D-08 BMatP= 7.83D-07
 IDIUse=1 WtCom= 1.00D+00 WtEn= 0.00D+00
 Coeff-Com: -0.364D-02-0.122D-01 0.606D-03 0.194D+00 0.822D+00
 Coeff:     -0.364D-02-0.122D-01 0.606D-03 0.194D+00 0.822D+00
 Gap=     0.519 Goal=   None    Shift=    0.000
 RMSDP=3.23D-06 MaxDP=2.93D-05 DE=-5.02D-07 OVMax= 4.85D-05

 Cycle   6  Pass 1  IDiag  1:
 E= -238.929670712698     Delta-E=       -0.000000037677 Rises=F Damp=F
 DIIS: error= 3.34D-06 at cycle   6 NSaved=   6.
 NSaved= 6 IEnMin= 6 EnMin= -238.929670712698     IErMin= 6 ErrMin= 3.34D-06
 ErrMax= 3.34D-06  0.00D+00 EMaxC= 1.00D-01 BMatC= 6.03D-10 BMatP= 4.53D-08
 IDIUse=1 WtCom= 1.00D+00 WtEn= 0.00D+00
 Coeff-Com:  0.715D-03-0.338D-02-0.120D-01-0.301D-01 0.161D-01 0.103D+01
 Coeff:      0.715D-03-0.338D-02-0.120D-01-0.301D-01 0.161D-01 0.103D+01
 Gap=     0.519 Goal=   None    Shift=    0.000
 RMSDP=9.46D-07 MaxDP=1.05D-05 DE=-3.77D-08 OVMax= 1.51D-05

 Cycle   7  Pass 1  IDiag  1:
 E= -238.929670713818     Delta-E=       -0.000000001120 Rises=F Damp=F
 DIIS: error= 5.44D-07 at cycle   7 NSaved=   7.
 NSaved= 7 IEnMin= 7 EnMin= -238.929670713818     IErMin= 7 ErrMin= 5.44D-07
 ErrMax= 5.44D-07  0.00D+00 EMaxC= 1.00D-01 BMatC= 1.18D-11 BMatP= 6.03D-10
 IDIUse=1 WtCom= 1.00D+00 WtEn= 0.00D+00
 Coeff-Com:  0.104D-03 0.399D-03 0.203D-03-0.570D-02-0.199D-01-0.315D-02
 Coeff-Com:  0.103D+01
 Coeff:      0.104D-03 0.399D-03 0.203D-03-0.570D-02-0.199D-01-0.315D-02
 Coeff:      0.103D+01
 Gap=     0.519 Goal=   None    Shift=    0.000
 RMSDP=1.69D-07 MaxDP=1.81D-06 DE=-1.12D-09 OVMax= 2.98D-06

 Cycle   8  Pass 1  IDiag  1:
 E= -238.929670713844     Delta-E=       -0.000000000027 Rises=F Damp=F
 DIIS: error= 7.56D-08 at cycle   8 NSaved=   8.
 NSaved= 8 IEnMin= 8 EnMin= -238.929670713844     IErMin= 8 ErrMin= 7.56D-08
 ErrMax= 7.56D-08  0.00D+00 EMaxC= 1.00D-01 BMatC= 3.62D-13 BMatP= 1.18D-11
 IDIUse=1 WtCom= 1.00D+00 WtEn= 0.00D+00
 Coeff-Com: -0.310D-04 0.621D-04 0.309D-03 0.137D-02 0.877D-03-0.300D-01
 Coeff-Com: -0.983D-01 0.113D+01
 Coeff:     -0.310D-04 0.621D-04 0.309D-03 0.137D-02 0.877D-03-0.300D-01
 Coeff:     -0.983D-01 0.113D+01
 Gap=     0.519 Goal=   None    Shift=    0.000
 RMSDP=3.23D-08 MaxDP=2.68D-07 DE=-2.65D-11 OVMax= 6.07D-07

 Cycle   9  Pass 1  IDiag  1:
 E= -238.929670713847     Delta-E=       -0.000000000003 Rises=F Damp=F
 DIIS: error= 8.17D-09 at cycle   9 NSaved=   9.
 NSaved= 9 IEnMin= 9 EnMin= -238.929670713847     IErMin= 9 ErrMin= 8.17D-09
 ErrMax= 8.17D-09  0.00D+00 EMaxC= 1.00D-01 BMatC= 4.46D-15 BMatP= 3.62D-13
 IDIUse=1 WtCom= 1.00D+00 WtEn= 0.00D+00
 Coeff-Com: -0.156D-05-0.354D-05-0.303D-05 0.854D-04 0.194D-03 0.361D-03
 Coeff-Com: -0.110D-01-0.212D-01 0.103D+01
 Coeff:     -0.156D-05-0.354D-05-0.303D-05 0.854D-04 0.194D-03 0.361D-03
 Coeff:     -0.110D-01-0.212D-01 0.103D+01
 Gap=     0.519 Goal=   None    Shift=    0.000
 RMSDP=2.58D-09 MaxDP=2.90D-08 DE=-3.07D-12 OVMax= 4.90D-08

 SCF Done:  E(RwB97XD) =  -238.929670714     A.U. after    9 cycles
            NFock=  9  Conv=0.26D-08     -V/T= 2.0075
 KE= 2.371451589047D+02 PE=-7.210908591440D+02 EE= 1.678794365163D+02
 Leave Link  502 at Tue Mar 31 17:24:00 2026, MaxMem=   536870912 cpu:               1.9 elap:               0.5
 (Enter /Users/asuyarger/Applications/G16/g16/l701.exe)
 ... and contract with generalized density number  0.
 Compute integral first derivatives.
 R6Disp: Adding Grimme-D2 dispersion energy 1st derivatives to the gradient.
 Leave Link  701 at Tue Mar 31 17:24:00 2026, MaxMem=   536870912 cpu:               0.3 elap:               0.1
 (Enter /Users/asuyarger/Applications/G16/g16/l702.exe)
 L702 exits ... SP integral derivatives will be done elsewhere.
 Leave Link  702 at Tue Mar 31 17:24:00 2026, MaxMem=   536870912 cpu:               0.1 elap:               0.0
 (Enter /Users/asuyarger/Applications/G16/g16/l703.exe)
 Integral derivatives from FoFJK, PRISM(SPDF).
 Compute integral first derivatives, UseDBF=F ICtDFT=           0.
 Calling FoFJK, ICntrl=      2127 FMM=F ISym2X=1 I1Cent= 0 IOpClX= 0 NMat=1 NMatS=1 NMatT=0.
 FoFJK:  IHMeth= 1 ICntrl=    2127 DoSepK=T KAlg= 0 I1Cent=           0 FoldK=F
 IRaf=         1 NMat=       1 IRICut=       1 DoRegI=T DoRafI=F ISym2E= 1 IDoP0=0 IntGTp=1.
 FoFCou: FMM=F IPFlag=           0 FMFlag=      100000 FMFlg1=         800
         NFxFlg=           0 DoJE=F BraDBF=F KetDBF=F FulRan=T
         wScrn=  0.000000 ICntrl=      2527 IOpCl=  0 I1Cent=           0 NGrid=           0
         NMat0=    1 NMatS0=      1 NMatT0=    0 NMatD0=    1 NMtDS0=    0 NMtDT0=    0
 Petite list used in FoFCou.
 Leave Link  703 at Tue Mar 31 17:24:00 2026, MaxMem=   536870912 cpu:               1.0 elap:               0.3
 (Enter /Users/asuyarger/Applications/G16/g16/l716.exe)
 Dipole        = 5.55111512D-16 0.00000000D+00 8.37402168D-01
 ***** Axes restored to original set *****
 -------------------------------------------------------------------
 Center     Atomic                   Forces (Hartrees/Bohr)
 Number     Number              X              Y              Z
 -------------------------------------------------------------------
      1        6           0.003197319   -0.002260905   -0.003915934
      2        1          -0.001123237    0.000788056    0.001379278
      3        1          -0.001123237    0.000800483    0.001372103
      4        9           0.000900896    0.000822766    0.001425092
      5        9          -0.001851741   -0.000150400   -0.000260540
 -------------------------------------------------------------------
 Cartesian Forces:  Max     0.003915934 RMS     0.001737396
 Leave Link  716 at Tue Mar 31 17:24:00 2026, MaxMem=   536870912 cpu:               0.1 elap:               0.0
 (Enter /Users/asuyarger/Applications/G16/g16/l103.exe)

 GradGradGradGradGradGradGradGradGradGradGradGradGradGradGradGradGradGrad
 Berny optimization.
 Using GEDIIS/GDIIS optimizer.
 FormGI is forming the generalized inverse of G from B-inverse, IUseBI=4.
 Internal  Forces:  Max     0.001849371 RMS     0.000988690
 Search for a local minimum.
 Step number   2 out of a maximum of   24
 All quantities printed in internal units (Hartrees-Bohrs-Radians)
 RMS Force = .98869D-03 SwitMx=.10000D-02 MixMth= 2
 Mixed Optimization -- En-DIIS/RFO-DIIS
 Update second derivatives using D2CorX and points    1    2
 DE= -1.33D-03 DEPred=-1.30D-03 R= 1.03D+00
 TightC=F SS=  1.41D+00  RLast= 1.25D-01 DXNew= 5.0454D-01 3.7618D-01
 Trust test= 1.03D+00 RLast= 1.25D-01 DXMaxT set to 3.76D-01
 The second derivative matrix:
                          R1        R2        R3        R4        A1
           R1           0.39453
           R2           0.02223   0.39453
           R3          -0.01044  -0.01044   0.53811
           R4          -0.01044  -0.01044  -0.01211   0.53811
           A1          -0.03743  -0.03743  -0.02151  -0.02151   0.13319
           A2           0.01072   0.01072   0.00523   0.00523   0.00554
           A3           0.00705   0.00705   0.00402   0.00402   0.00497
           A4           0.01072   0.01072   0.00523   0.00523   0.00554
           A5           0.00705   0.00705   0.00402   0.00402   0.00497
           A6           0.01214   0.01214   0.00803   0.00803   0.01111
           D1           0.01783   0.01783   0.00469   0.00469  -0.00001
           D2          -0.01338  -0.01338  -0.00322  -0.00322   0.00069
           D3          -0.00669  -0.00669  -0.00161  -0.00161   0.00035
           D4           0.00669   0.00669   0.00161   0.00161  -0.00035
                          A2        A3        A4        A5        A6
           A2           0.15898
           A3          -0.00102   0.15908
           A4          -0.00102  -0.00102   0.15898
           A5          -0.00102  -0.00092  -0.00102   0.15908
           A6          -0.00243  -0.00207  -0.00243  -0.00207   0.24555
           D1           0.00072   0.00003   0.00072   0.00003  -0.00080
           D2          -0.00072  -0.00015  -0.00072  -0.00015   0.00036
           D3          -0.00036  -0.00007  -0.00036  -0.00007   0.00018
           D4           0.00036   0.00007   0.00036   0.00007  -0.00018
                          D1        D2        D3        D4
           D1           0.02516
           D2          -0.00344   0.02363
           D3          -0.00172   0.00137   0.02157
           D4           0.00172  -0.00137  -0.00069   0.02157
 ITU=  1  0
 Use linear search instead of GDIIS.
     Eigenvalues ---    0.06059   0.07125   0.09306   0.16000   0.22088
     Eigenvalues ---    0.37230   0.41408   0.53015   0.55021
 RFO step:  Lambda=-6.70677924D-05 EMin= 6.05907184D-02
 Quartic linear search produced a step of  0.05582.
 Iteration  1 RMS(Cart)=  0.00526416 RMS(Int)=  0.00002864
 Iteration  2 RMS(Cart)=  0.00002352 RMS(Int)=  0.00001372
 Iteration  3 RMS(Cart)=  0.00000000 RMS(Int)=  0.00001372
 ITry= 1 IFail=0 DXMaxC= 9.96D-03 DCOld= 1.00D+10 DXMaxT= 3.76D-01 DXLimC= 3.00D+00 Rises=F
 ClnCor:  largest displacement from symmetrization is 2.92D-04 for atom     5.
 Variable       Old X    -DE/DX   Delta X   Delta X   Delta X     New X
                                 (Linear)    (Quad)   (Total)
    R1        2.06762  -0.00107   0.00255  -0.00439  -0.00184   2.06578
    R2        2.06762  -0.00107   0.00255  -0.00439  -0.00184   2.06578
    R3        2.56618   0.00185   0.00084   0.00315   0.00412   2.57030
    R4        2.56618   0.00185   0.00084   0.00315   0.00412   2.57030
    A1        1.96538   0.00114   0.00306   0.01292   0.01599   1.98137
    A2        1.90052  -0.00044  -0.00056  -0.00365  -0.00438   1.89614
    A3        1.90052  -0.00056  -0.00056  -0.00396  -0.00438   1.89614
    A4        1.90052  -0.00044  -0.00056  -0.00365  -0.00438   1.89614
    A5        1.90052  -0.00056  -0.00056  -0.00396  -0.00438   1.89614
    A6        1.89525   0.00089  -0.00086   0.00206   0.00112   1.89638
    D1        2.14904   0.00084   0.00305   0.01130   0.01415   2.16319
    D2       -2.14904  -0.00069  -0.00305  -0.01090  -0.01415  -2.16319
    D3        2.06707  -0.00034  -0.00153  -0.00545  -0.00707   2.06000
    D4       -2.06707   0.00034   0.00153   0.00545   0.00707  -2.06000
         Item               Value     Threshold  Converged?
 Maximum Force            0.001849     0.000450     NO 
 RMS     Force            0.000989     0.000300     NO 
 Maximum Displacement     0.010007     0.001800     NO 
 RMS     Displacement     0.005246     0.001200     NO 
 Predicted change in Energy=-3.590947D-05
 Lowest energy point so far.  Saving SCF results.
 GradGradGradGradGradGradGradGradGradGradGradGradGradGradGradGradGradGrad

 Leave Link  103 at Tue Mar 31 17:24:00 2026, MaxMem=   536870912 cpu:               0.0 elap:               0.0
 (Enter /Users/asuyarger/Applications/G16/g16/l202.exe)
                          Input orientation:                          
 ---------------------------------------------------------------------
 Center     Atomic      Atomic             Coordinates (Angstroms)
 Number     Number       Type             X           Y           Z
 ---------------------------------------------------------------------
      1          6           0        0.750936    0.092241   -0.008998
      2          1           0        1.096862   -0.944208    0.024479
      3          1           0        1.096881    0.639451   -0.889847
      4          9           0        1.195174    0.735012    1.104324
      5          9           0       -0.609172    0.097104   -0.000603
 ---------------------------------------------------------------------
                    Distance matrix (angstroms):
                    1          2          3          4          5
     1  C    0.000000
     2  H    1.093166   0.000000
     3  H    1.093166   1.828651   0.000000
     4  F    1.360143   1.998878   1.998878   0.000000
     5  F    1.360143   1.998878   1.998878   2.209854   0.000000
 Stoichiometry    CH2F2
 Framework group  C2V[C2(C),SGV(F2),SGV'(H2)]
 Deg. of freedom     4
 Full point group                 C2V     NOp   4
 RotChk:  IX=0 Diff= 1.10D-15
 Largest Abelian subgroup         C2V     NOp   4
 Largest concise Abelian subgroup C2V     NOp   4
                         Standard orientation:                         
 ---------------------------------------------------------------------
 Center     Atomic      Atomic             Coordinates (Angstroms)
 Number     Number       Type             X           Y           Z
 ---------------------------------------------------------------------
      1          6           0        0.000000    0.000000    0.503029
      2          1           0       -0.914326   -0.000000    1.102212
      3          1           0        0.914326    0.000000    1.102212
      4          9           0        0.000000    1.104927   -0.290144
      5          9           0       -0.000000   -1.104927   -0.290144
 ---------------------------------------------------------------------
 Rotational constants (GHZ):          49.4410887          10.5125237           9.2011385
 Leave Link  202 at Tue Mar 31 17:24:00 2026, MaxMem=   536870912 cpu:               0.0 elap:               0.0
 (Enter /Users/asuyarger/Applications/G16/g16/l301.exe)
 Standard basis: 6-31+G(d) (6D, 7F)
 Ernie: Thresh=  0.10000D-02 Tol=  0.10000D-05 Strict=F.
 There are    26 symmetry adapted cartesian basis functions of A1  symmetry.
 There are     6 symmetry adapted cartesian basis functions of A2  symmetry.
 There are    11 symmetry adapted cartesian basis functions of B1  symmetry.
 There are    18 symmetry adapted cartesian basis functions of B2  symmetry.
 There are    26 symmetry adapted basis functions of A1  symmetry.
 There are     6 symmetry adapted basis functions of A2  symmetry.
 There are    11 symmetry adapted basis functions of B1  symmetry.
 There are    18 symmetry adapted basis functions of B2  symmetry.
    61 basis functions,   104 primitive gaussians,    61 cartesian basis functions
    13 alpha electrons       13 beta electrons
       nuclear repulsion energy        77.0438042734 Hartrees.
 IExCor= 4639 DFT=T Ex+Corr=wB97XD ExCW=0 ScaHFX=  1.000000
 ScaDFX=  1.000000  1.000000  1.000000  1.000000 ScalE2=  1.000000  1.000000
 IRadAn=      5 IRanWt=     -1 IRanGd=            0 ICorTp=0 IEmpDi=121
 HFx  wShort=  0.000000 wLong=  0.200000 cFull=  0.222036 cShort=  0.000000 cLong=  0.777964
 DFx  wShort=  0.000000 wLong=  0.200000 cFull=  0.000000 cShort=  0.000000 cLong=  1.000000
 NAtoms=    5 NActive=    5 NUniq=    3 SFac= 2.78D+00 NAtFMM=   60 NAOKFM=F Big=F
 Integral buffers will be    131072 words long.
 Raffenetti 2 integral format.
 Two-electron integral symmetry is turned on.
 R6Disp:  Grimme-D2 Dispersion energy=       -0.0003940315 Hartrees.
 Nuclear repulsion after empirical dispersion term =       77.0434102419 Hartrees.
 Leave Link  301 at Tue Mar 31 17:24:00 2026, MaxMem=   536870912 cpu:               0.1 elap:               0.0
 (Enter /Users/asuyarger/Applications/G16/g16/l302.exe)
 NPDir=0 NMtPBC=     1 NCelOv=     1 NCel=       1 NClECP=     1 NCelD=      1
         NCelK=      1 NCelE2=     1 NClLst=     1 CellRange=     0.0.
 One-electron integrals computed using PRISM.
 One-electron integral symmetry used in STVInt
 NBasis=    61 RedAO= T EigKep=  3.35D-03  NBF=    26     6    11    18
 NBsUse=    61 1.00D-06 EigRej= -1.00D+00 NBFU=    26     6    11    18
 Precomputing XC quadrature grid using
 IXCGrd= 4 IRadAn=           5 IRanWt=          -1 IRanGd=           0 AccXCQ= 0.00D+00.
 Generated NRdTot=       0 NPtTot=           0 NUsed=           0 NTot=          32
 NSgBfM=    61    61    61    61    61 MxSgAt=     5 MxSgA2=     5.
 Leave Link  302 at Tue Mar 31 17:24:00 2026, MaxMem=   536870912 cpu:               0.4 elap:               0.1
 (Enter /Users/asuyarger/Applications/G16/g16/l303.exe)
 DipDrv:  MaxL=1.
 Leave Link  303 at Tue Mar 31 17:24:00 2026, MaxMem=   536870912 cpu:               0.1 elap:               0.0
 (Enter /Users/asuyarger/Applications/G16/g16/l401.exe)
 Initial guess from the checkpoint file:  "Difluoromethane_Opt_Freq_DFT_WB97XD_631pd_Gaussian16.chk"
 B after Tr=    -0.000000   -0.000000    0.000000
         Rot=    1.000000   -0.000000   -0.000000    0.000000 Ang=   0.00 deg.
 Guess basis will be translated and rotated to current coordinates.
 JPrj=2 DoOrth=T DoCkMO=T.
 Initial guess orbital symmetries:
       Occupied  (A1) (B2) (A1) (A1) (B2) (A1) (B1) (A1) (B2) (A2)
                 (A1) (B2) (B1)
       Virtual   (A1) (B2) (A1) (B1) (B2) (A1) (A1) (B1) (B2) (A2)
                 (A1) (B1) (A1) (A1) (B2) (B2) (A1) (B2) (B1) (B1)
                 (A1) (A1) (A1) (A2) (B2) (A2) (B1) (A1) (A1) (B2)
                 (B1) (A1) (B2) (A2) (B2) (B2) (A1) (B1) (B2) (A1)
                 (A2) (B1) (A1) (B2) (A1) (A1) (B2) (A1)
 The electronic state of the initial guess is 1-A1.
 Leave Link  401 at Tue Mar 31 17:24:01 2026, MaxMem=   536870912 cpu:               0.2 elap:               0.0
 (Enter /Users/asuyarger/Applications/G16/g16/l502.exe)
 Keep R1 ints in memory in symmetry-blocked form, NReq=7118901.
 FoFCou: FMM=F IPFlag=           0 FMFlag=           0 FMFlg1=           0
         NFxFlg=           0 DoJE=F BraDBF=F KetDBF=F FulRan=T
         wScrn=  0.000000 ICntrl=       600 IOpCl=  0 I1Cent=           0 NGrid=           0
         NMat0=    1 NMatS0=   1891 NMatT0=    0 NMatD0=    1 NMtDS0=    0 NMtDT0=    0
 Petite list used in FoFCou.
 Closed shell SCF:
 Using DIIS extrapolation, IDIIS=  1040.
 NGot=   536870912 LenX=   536387411 LenY=   536383249
 Requested convergence on RMS density matrix=1.00D-08 within 128 cycles.
 Requested convergence on MAX density matrix=1.00D-06.
 Requested convergence on             energy=1.00D-06.
 No special actions if energy rises.

 Cycle   1  Pass 1  IDiag  1:
 E= -238.929705106523    
 DIIS: error= 3.39D-04 at cycle   1 NSaved=   1.
 NSaved= 1 IEnMin= 1 EnMin= -238.929705106523     IErMin= 1 ErrMin= 3.39D-04
 ErrMax= 3.39D-04  0.00D+00 EMaxC= 1.00D-01 BMatC= 7.82D-06 BMatP= 7.82D-06
 IDIUse=3 WtCom= 9.97D-01 WtEn= 3.39D-03
 Coeff-Com:  0.100D+01
 Coeff-En:   0.100D+01
 Coeff:      0.100D+01
 Gap=     0.520 Goal=   None    Shift=    0.000
 RMSDP=5.81D-05 MaxDP=7.34D-04              OVMax= 1.25D-03

 Cycle   2  Pass 1  IDiag  1:
 E= -238.929716119072     Delta-E=       -0.000011012549 Rises=F Damp=F
 DIIS: error= 7.23D-05 at cycle   2 NSaved=   2.
 NSaved= 2 IEnMin= 2 EnMin= -238.929716119072     IErMin= 2 ErrMin= 7.23D-05
 ErrMax= 7.23D-05  0.00D+00 EMaxC= 1.00D-01 BMatC= 5.17D-07 BMatP= 7.82D-06
 IDIUse=1 WtCom= 1.00D+00 WtEn= 0.00D+00
 Coeff-Com: -0.208D-01 0.102D+01
 Coeff:     -0.208D-01 0.102D+01
 Gap=     0.520 Goal=   None    Shift=    0.000
 RMSDP=1.59D-05 MaxDP=2.43D-04 DE=-1.10D-05 OVMax= 3.02D-04

 Cycle   3  Pass 1  IDiag  1:
 E= -238.929716537558     Delta-E=       -0.000000418486 Rises=F Damp=F
 DIIS: error= 7.58D-05 at cycle   3 NSaved=   3.
 NSaved= 3 IEnMin= 3 EnMin= -238.929716537558     IErMin= 2 ErrMin= 7.23D-05
 ErrMax= 7.58D-05  0.00D+00 EMaxC= 1.00D-01 BMatC= 3.67D-07 BMatP= 5.17D-07
 IDIUse=1 WtCom= 1.00D+00 WtEn= 0.00D+00
 Coeff-Com: -0.725D-01 0.490D+00 0.583D+00
 Coeff:     -0.725D-01 0.490D+00 0.583D+00
 Gap=     0.520 Goal=   None    Shift=    0.000
 RMSDP=5.83D-06 MaxDP=8.62D-05 DE=-4.18D-07 OVMax= 1.15D-04

 Cycle   4  Pass 1  IDiag  1:
 E= -238.929716772686     Delta-E=       -0.000000235128 Rises=F Damp=F
 DIIS: error= 1.13D-05 at cycle   4 NSaved=   4.
 NSaved= 4 IEnMin= 4 EnMin= -238.929716772686     IErMin= 4 ErrMin= 1.13D-05
 ErrMax= 1.13D-05  0.00D+00 EMaxC= 1.00D-01 BMatC= 8.64D-09 BMatP= 3.67D-07
 IDIUse=1 WtCom= 1.00D+00 WtEn= 0.00D+00
 Coeff-Com: -0.254D-02-0.522D-01 0.840D-01 0.971D+00
 Coeff:     -0.254D-02-0.522D-01 0.840D-01 0.971D+00
 Gap=     0.520 Goal=   None    Shift=    0.000
 RMSDP=2.09D-06 MaxDP=2.81D-05 DE=-2.35D-07 OVMax= 4.76D-05

 Cycle   5  Pass 1  IDiag  1:
 E= -238.929716782106     Delta-E=       -0.000000009420 Rises=F Damp=F
 DIIS: error= 1.59D-06 at cycle   5 NSaved=   5.
 NSaved= 5 IEnMin= 5 EnMin= -238.929716782106     IErMin= 5 ErrMin= 1.59D-06
 ErrMax= 1.59D-06  0.00D+00 EMaxC= 1.00D-01 BMatC= 1.10D-10 BMatP= 8.64D-09
 IDIUse=1 WtCom= 1.00D+00 WtEn= 0.00D+00
 Coeff-Com:  0.279D-02-0.219D-01-0.209D-01 0.295D-01 0.101D+01
 Coeff:      0.279D-02-0.219D-01-0.209D-01 0.295D-01 0.101D+01
 Gap=     0.520 Goal=   None    Shift=    0.000
 RMSDP=4.41D-07 MaxDP=5.21D-06 DE=-9.42D-09 OVMax= 1.16D-05

 Cycle   6  Pass 1  IDiag  1:
 E= -238.929716782389     Delta-E=       -0.000000000283 Rises=F Damp=F
 DIIS: error= 3.08D-07 at cycle   6 NSaved=   6.
 NSaved= 6 IEnMin= 6 EnMin= -238.929716782389     IErMin= 6 ErrMin= 3.08D-07
 ErrMax= 3.08D-07  0.00D+00 EMaxC= 1.00D-01 BMatC= 4.11D-12 BMatP= 1.10D-10
 IDIUse=1 WtCom= 1.00D+00 WtEn= 0.00D+00
 Coeff-Com:  0.330D-03-0.286D-03-0.392D-02-0.261D-01 0.570D-01 0.973D+00
 Coeff:      0.330D-03-0.286D-03-0.392D-02-0.261D-01 0.570D-01 0.973D+00
 Gap=     0.520 Goal=   None    Shift=    0.000
 RMSDP=7.61D-08 MaxDP=8.14D-07 DE=-2.83D-10 OVMax= 2.24D-06

 Cycle   7  Pass 1  IDiag  1:
 E= -238.929716782398     Delta-E=       -0.000000000009 Rises=F Damp=F
 DIIS: error= 7.40D-08 at cycle   7 NSaved=   7.
 NSaved= 7 IEnMin= 7 EnMin= -238.929716782398     IErMin= 7 ErrMin= 7.40D-08
 ErrMax= 7.40D-08  0.00D+00 EMaxC= 1.00D-01 BMatC= 4.78D-13 BMatP= 4.11D-12
 IDIUse=1 WtCom= 1.00D+00 WtEn= 0.00D+00
 Coeff-Com: -0.894D-04 0.101D-02 0.364D-03-0.759D-02-0.395D-01 0.203D+00
 Coeff-Com:  0.843D+00
 Coeff:     -0.894D-04 0.101D-02 0.364D-03-0.759D-02-0.395D-01 0.203D+00
 Coeff:      0.843D+00
 Gap=     0.520 Goal=   None    Shift=    0.000
 RMSDP=1.61D-08 MaxDP=2.13D-07 DE=-9.27D-12 OVMax= 3.50D-07

 Cycle   8  Pass 1  IDiag  1:
 E= -238.929716782399     Delta-E=       -0.000000000000 Rises=F Damp=F
 DIIS: error= 1.86D-08 at cycle   8 NSaved=   8.
 NSaved= 8 IEnMin= 8 EnMin= -238.929716782399     IErMin= 8 ErrMin= 1.86D-08
 ErrMax= 1.86D-08  0.00D+00 EMaxC= 1.00D-01 BMatC= 2.59D-14 BMatP= 4.78D-13
 IDIUse=1 WtCom= 1.00D+00 WtEn= 0.00D+00
 Coeff-Com: -0.365D-04 0.222D-03 0.396D-03 0.603D-03-0.110D-01-0.368D-01
 Coeff-Com:  0.164D+00 0.883D+00
 Coeff:     -0.365D-04 0.222D-03 0.396D-03 0.603D-03-0.110D-01-0.368D-01
 Coeff:      0.164D+00 0.883D+00
 Gap=     0.520 Goal=   None    Shift=    0.000
 RMSDP=3.54D-09 MaxDP=5.23D-08 DE=-2.84D-13 OVMax= 8.49D-08

 SCF Done:  E(RwB97XD) =  -238.929716782     A.U. after    8 cycles
            NFock=  8  Conv=0.35D-08     -V/T= 2.0075
 KE= 2.371403980232D+02 PE=-7.209090321034D+02 EE= 1.677955070559D+02
 Leave Link  502 at Tue Mar 31 17:24:01 2026, MaxMem=   536870912 cpu:               1.8 elap:               0.5
 (Enter /Users/asuyarger/Applications/G16/g16/l701.exe)
 ... and contract with generalized density number  0.
 Compute integral first derivatives.
 R6Disp: Adding Grimme-D2 dispersion energy 1st derivatives to the gradient.
 Leave Link  701 at Tue Mar 31 17:24:01 2026, MaxMem=   536870912 cpu:               0.3 elap:               0.1
 (Enter /Users/asuyarger/Applications/G16/g16/l702.exe)
 L702 exits ... SP integral derivatives will be done elsewhere.
 Leave Link  702 at Tue Mar 31 17:24:01 2026, MaxMem=   536870912 cpu:               0.1 elap:               0.0
 (Enter /Users/asuyarger/Applications/G16/g16/l703.exe)
 Integral derivatives from FoFJK, PRISM(SPDF).
 Compute integral first derivatives, UseDBF=F ICtDFT=           0.
 Calling FoFJK, ICntrl=      2127 FMM=F ISym2X=1 I1Cent= 0 IOpClX= 0 NMat=1 NMatS=1 NMatT=0.
 FoFJK:  IHMeth= 1 ICntrl=    2127 DoSepK=T KAlg= 0 I1Cent=           0 FoldK=F
 IRaf=         1 NMat=       1 IRICut=       1 DoRegI=T DoRafI=F ISym2E= 1 IDoP0=0 IntGTp=1.
 FoFCou: FMM=F IPFlag=           0 FMFlag=      100000 FMFlg1=         800
         NFxFlg=           0 DoJE=F BraDBF=F KetDBF=F FulRan=T
         wScrn=  0.000000 ICntrl=      2527 IOpCl=  0 I1Cent=           0 NGrid=           0
         NMat0=    1 NMatS0=      1 NMatT0=    0 NMatD0=    1 NMtDS0=    0 NMtDT0=    0
 Petite list used in FoFCou.
 Leave Link  703 at Tue Mar 31 17:24:02 2026, MaxMem=   536870912 cpu:               1.1 elap:               0.3
 (Enter /Users/asuyarger/Applications/G16/g16/l716.exe)
 Dipole        = 7.77156117D-16 0.00000000D+00 8.40119234D-01
 ***** Axes restored to original set *****
 -------------------------------------------------------------------
 Center     Atomic                   Forces (Hartrees/Bohr)
 Number     Number              X              Y              Z
 -------------------------------------------------------------------
      1        6           0.001223973   -0.000865502   -0.001499068
      2        1          -0.000386861    0.000623999    0.000271490
      3        1          -0.000386869   -0.000076875    0.000676140
      4        9           0.000143358    0.000289461    0.000501364
      5        9          -0.000593601    0.000028917    0.000050073
 -------------------------------------------------------------------
 Cartesian Forces:  Max     0.001499068 RMS     0.000654793
 Leave Link  716 at Tue Mar 31 17:24:02 2026, MaxMem=   536870912 cpu:               0.1 elap:               0.0
 (Enter /Users/asuyarger/Applications/G16/g16/l103.exe)

 GradGradGradGradGradGradGradGradGradGradGradGradGradGradGradGradGradGrad
 Berny optimization.
 Using GEDIIS/GDIIS optimizer.
 FormGI is forming the generalized inverse of G from B-inverse, IUseBI=4.
 Internal  Forces:  Max     0.000705730 RMS     0.000363819
 Search for a local minimum.
 Step number   3 out of a maximum of   24
 All quantities printed in internal units (Hartrees-Bohrs-Radians)
 RMS Force = .36382D-03 SwitMx=.10000D-02 MixMth= 2
 Mixed Optimization -- En-DIIS/RFO-DIIS
 Swapping is turned off.
 Update second derivatives using D2CorX and points    1    2    3
 DE= -4.61D-05 DEPred=-3.59D-05 R= 1.28D+00
 TightC=F SS=  1.41D+00  RLast= 2.96D-02 DXNew= 6.3265D-01 8.8721D-02
 Trust test= 1.28D+00 RLast= 2.96D-02 DXMaxT set to 3.76D-01
 The second derivative matrix:
                          R1        R2        R3        R4        A1
           R1           0.38917
           R2           0.01687   0.38917
           R3           0.00745   0.00745   0.51748
           R4           0.00745   0.00745  -0.03273   0.51748
           A1          -0.01985  -0.01985  -0.05157  -0.05157   0.09655
           A2           0.00575   0.00575   0.01019   0.01019   0.01334
           A3           0.00169   0.00169   0.00762   0.00762   0.01213
           A4           0.00575   0.00575   0.01019   0.01019   0.01334
           A5           0.00169   0.00169   0.00762   0.00762   0.01213
           A6           0.01660   0.01660   0.01712   0.01712   0.01389
           D1           0.02223   0.02223   0.00894   0.00894  -0.00065
           D2          -0.01729  -0.01729  -0.00571  -0.00571   0.00219
           D3          -0.00865  -0.00865  -0.00286  -0.00286   0.00110
           D4           0.00865   0.00865   0.00286   0.00286  -0.00110
                          A2        A3        A4        A5        A6
           A2           0.15783
           A3          -0.00174   0.15896
           A4          -0.00217  -0.00174   0.15783
           A5          -0.00174  -0.00104  -0.00174   0.15896
           A6          -0.00546  -0.00644  -0.00546  -0.00644   0.25685
           D1          -0.00085  -0.00253  -0.00085  -0.00253   0.00730
           D2           0.00029   0.00165   0.00029   0.00165  -0.00604
           D3           0.00015   0.00083   0.00015   0.00083  -0.00302
           D4          -0.00015  -0.00083  -0.00015  -0.00083   0.00302
                          D1        D2        D3        D4
           D1           0.03080
           D2          -0.00782   0.02701
           D3          -0.00391   0.00306   0.02242
           D4           0.00391  -0.00306  -0.00153   0.02242
 ITU=  1  1  0
     Eigenvalues ---    0.04895   0.07155   0.09262   0.16000   0.22933
     Eigenvalues ---    0.37230   0.40473   0.48989   0.55021
 En-DIIS/RFO-DIIS/Sim-DIIS IScMMF=       -3 using points:     3    2
 RFO step:  Lambda=-8.76430914D-06.
 NNeg= 0 NGDIIS= 2 SimSw=  2.50D-03 Rises=F DC= -4.61D-05 SmlDif=  1.00D-05
 NRisDI= 0 DoIntr=F SqrtH=F CThrHd= 10.0 CDAdj=  3.0
 RMS Error=  0.2791077091D-02 NUsed= 2 OKEnD=T EnDIS=F
 InvSVX:  RCond= 2.18D-04 Info=           0 Equed=N FErr=  1.92D-15 BErr=  9.94D-17
 DidBck=F Rises=F RFO-DIIS coefs:    1.34068   -0.34068
 Iteration  1 RMS(Cart)=  0.00138463 RMS(Int)=  0.00000432
 Iteration  2 RMS(Cart)=  0.00000319 RMS(Int)=  0.00000291
 Iteration  3 RMS(Cart)=  0.00000000 RMS(Int)=  0.00000291
 ITry= 1 IFail=0 DXMaxC= 2.32D-03 DCOld= 1.00D+10 DXMaxT= 3.76D-01 DXLimC= 3.00D+00 Rises=F
 ClnCor:  largest displacement from symmetrization is 2.93D-05 for atom     5.
 Variable       Old X    -DE/DX   Delta X   Delta X   Delta X     New X
                                 (Linear)    (Quad)   (Total)
    R1        2.06578  -0.00071  -0.00063  -0.00143  -0.00206   2.06372
    R2        2.06578  -0.00071  -0.00063  -0.00143  -0.00206   2.06372
    R3        2.57030   0.00059   0.00140   0.00037   0.00179   2.57208
    R4        2.57030   0.00059   0.00140   0.00037   0.00179   2.57208
    A1        1.98137   0.00021   0.00545  -0.00031   0.00514   1.98651
    A2        1.89614  -0.00003  -0.00149   0.00045  -0.00106   1.89509
    A3        1.89614  -0.00006  -0.00149   0.00042  -0.00106   1.89509
    A4        1.89614  -0.00003  -0.00149   0.00045  -0.00106   1.89509
    A5        1.89614  -0.00006  -0.00149   0.00042  -0.00106   1.89509
    A6        1.89638  -0.00003   0.00038  -0.00152  -0.00115   1.89523
    D1        2.16319   0.00022   0.00482   0.00019   0.00499   2.16818
    D2       -2.16319  -0.00018  -0.00482  -0.00015  -0.00499  -2.16818
    D3        2.06000  -0.00009  -0.00241  -0.00008  -0.00250   2.05750
    D4       -2.06000   0.00009   0.00241   0.00008   0.00250  -2.05750
         Item               Value     Threshold  Converged?
 Maximum Force            0.000706     0.000450     NO 
 RMS     Force            0.000364     0.000300     NO 
 Maximum Displacement     0.002323     0.001800     NO 
 RMS     Displacement     0.001383     0.001200     NO 
 Predicted change in Energy=-4.381637D-06
 Lowest energy point so far.  Saving SCF results.
 GradGradGradGradGradGradGradGradGradGradGradGradGradGradGradGradGradGrad

 Leave Link  103 at Tue Mar 31 17:24:02 2026, MaxMem=   536870912 cpu:               0.0 elap:               0.0
 (Enter /Users/asuyarger/Applications/G16/g16/l202.exe)
                          Input orientation:                          
 ---------------------------------------------------------------------
 Center     Atomic      Atomic             Coordinates (Angstroms)
 Number     Number       Type             X           Y           Z
 ---------------------------------------------------------------------
      1          6           0        0.751889    0.091567   -0.010165
      2          1           0        1.096113   -0.944219    0.025708
      3          1           0        1.096133    0.640521   -0.889242
      4          9           0        1.195697    0.734912    1.104151
      5          9           0       -0.609158    0.096825   -0.001087
 ---------------------------------------------------------------------
                    Distance matrix (angstroms):
                    1          2          3          4          5
     1  C    0.000000
     2  H    1.092076   0.000000
     3  H    1.092076   1.829901   0.000000
     4  F    1.361087   1.998109   1.998109   0.000000
     5  F    1.361087   1.998109   1.998109   2.210477   0.000000
 Stoichiometry    CH2F2
 Framework group  C2V[C2(C),SGV(F2),SGV'(H2)]
 Deg. of freedom     4
 Full point group                 C2V     NOp   4
 RotChk:  IX=0 Diff= 1.13D-15
 Largest Abelian subgroup         C2V     NOp   4
 Largest concise Abelian subgroup C2V     NOp   4
                         Standard orientation:                         
 ---------------------------------------------------------------------
 Center     Atomic      Atomic             Coordinates (Angstroms)
 Number     Number       Type             X           Y           Z
 ---------------------------------------------------------------------
      1          6           0        0.000000   -0.000000    0.504077
      2          1           0       -0.914950   -0.000000    1.100312
      3          1           0        0.914950    0.000000    1.100312
      4          9           0       -0.000000    1.105239   -0.290282
      5          9           0       -0.000000   -1.105239   -0.290282
 ---------------------------------------------------------------------
 Rotational constants (GHZ):          49.3930321          10.5063012           9.1954777
 Leave Link  202 at Tue Mar 31 17:24:02 2026, MaxMem=   536870912 cpu:               0.0 elap:               0.0
 (Enter /Users/asuyarger/Applications/G16/g16/l301.exe)
 Standard basis: 6-31+G(d) (6D, 7F)
 Ernie: Thresh=  0.10000D-02 Tol=  0.10000D-05 Strict=F.
 There are    26 symmetry adapted cartesian basis functions of A1  symmetry.
 There are     6 symmetry adapted cartesian basis functions of A2  symmetry.
 There are    11 symmetry adapted cartesian basis functions of B1  symmetry.
 There are    18 symmetry adapted cartesian basis functions of B2  symmetry.
 There are    26 symmetry adapted basis functions of A1  symmetry.
 There are     6 symmetry adapted basis functions of A2  symmetry.
 There are    11 symmetry adapted basis functions of B1  symmetry.
 There are    18 symmetry adapted basis functions of B2  symmetry.
    61 basis functions,   104 primitive gaussians,    61 cartesian basis functions
    13 alpha electrons       13 beta electrons
       nuclear repulsion energy        77.0184325312 Hartrees.
 IExCor= 4639 DFT=T Ex+Corr=wB97XD ExCW=0 ScaHFX=  1.000000
 ScaDFX=  1.000000  1.000000  1.000000  1.000000 ScalE2=  1.000000  1.000000
 IRadAn=      5 IRanWt=     -1 IRanGd=            0 ICorTp=0 IEmpDi=121
 HFx  wShort=  0.000000 wLong=  0.200000 cFull=  0.222036 cShort=  0.000000 cLong=  0.777964
 DFx  wShort=  0.000000 wLong=  0.200000 cFull=  0.000000 cShort=  0.000000 cLong=  1.000000
 NAtoms=    5 NActive=    5 NUniq=    3 SFac= 2.78D+00 NAtFMM=   60 NAOKFM=F Big=F
 Integral buffers will be    131072 words long.
 Raffenetti 2 integral format.
 Two-electron integral symmetry is turned on.
 R6Disp:  Grimme-D2 Dispersion energy=       -0.0003938874 Hartrees.
 Nuclear repulsion after empirical dispersion term =       77.0180386438 Hartrees.
 Leave Link  301 at Tue Mar 31 17:24:02 2026, MaxMem=   536870912 cpu:               0.1 elap:               0.0
 (Enter /Users/asuyarger/Applications/G16/g16/l302.exe)
 NPDir=0 NMtPBC=     1 NCelOv=     1 NCel=       1 NClECP=     1 NCelD=      1
         NCelK=      1 NCelE2=     1 NClLst=     1 CellRange=     0.0.
 One-electron integrals computed using PRISM.
 One-electron integral symmetry used in STVInt
 NBasis=    61 RedAO= T EigKep=  3.35D-03  NBF=    26     6    11    18
 NBsUse=    61 1.00D-06 EigRej= -1.00D+00 NBFU=    26     6    11    18
 Precomputing XC quadrature grid using
 IXCGrd= 4 IRadAn=           5 IRanWt=          -1 IRanGd=           0 AccXCQ= 0.00D+00.
 Generated NRdTot=       0 NPtTot=           0 NUsed=           0 NTot=          32
 NSgBfM=    61    61    61    61    61 MxSgAt=     5 MxSgA2=     5.
 Leave Link  302 at Tue Mar 31 17:24:02 2026, MaxMem=   536870912 cpu:               0.4 elap:               0.1
 (Enter /Users/asuyarger/Applications/G16/g16/l303.exe)
 DipDrv:  MaxL=1.
 Leave Link  303 at Tue Mar 31 17:24:02 2026, MaxMem=   536870912 cpu:               0.1 elap:               0.0
 (Enter /Users/asuyarger/Applications/G16/g16/l401.exe)
 Initial guess from the checkpoint file:  "Difluoromethane_Opt_Freq_DFT_WB97XD_631pd_Gaussian16.chk"
 B after Tr=    -0.000000   -0.000000    0.000000
         Rot=    1.000000   -0.000000    0.000000   -0.000000 Ang=   0.00 deg.
 Guess basis will be translated and rotated to current coordinates.
 JPrj=2 DoOrth=T DoCkMO=T.
 Initial guess orbital symmetries:
       Occupied  (A1) (B2) (A1) (A1) (B2) (A1) (B1) (A1) (B2) (A2)
                 (A1) (B2) (B1)
       Virtual   (A1) (B2) (A1) (B1) (B2) (A1) (A1) (B1) (B2) (A2)
                 (A1) (B1) (A1) (A1) (B2) (B2) (A1) (B2) (B1) (B1)
                 (A1) (A1) (A1) (A2) (B2) (A2) (B1) (A1) (A1) (B2)
                 (B1) (A1) (B2) (A2) (B2) (B2) (A1) (B1) (B2) (A1)
                 (A2) (B1) (A1) (B2) (A1) (A1) (B2) (A1)
 The electronic state of the initial guess is 1-A1.
 Leave Link  401 at Tue Mar 31 17:24:02 2026, MaxMem=   536870912 cpu:               0.2 elap:               0.0
 (Enter /Users/asuyarger/Applications/G16/g16/l502.exe)
 Keep R1 ints in memory in symmetry-blocked form, NReq=7118901.
 FoFCou: FMM=F IPFlag=           0 FMFlag=           0 FMFlg1=           0
         NFxFlg=           0 DoJE=F BraDBF=F KetDBF=F FulRan=T
         wScrn=  0.000000 ICntrl=       600 IOpCl=  0 I1Cent=           0 NGrid=           0
         NMat0=    1 NMatS0=   1891 NMatT0=    0 NMatD0=    1 NMtDS0=    0 NMtDT0=    0
 Petite list used in FoFCou.
 Closed shell SCF:
 Using DIIS extrapolation, IDIIS=  1040.
 NGot=   536870912 LenX=   536387411 LenY=   536383249
 Requested convergence on RMS density matrix=1.00D-08 within 128 cycles.
 Requested convergence on MAX density matrix=1.00D-06.
 Requested convergence on             energy=1.00D-06.
 No special actions if energy rises.

 Cycle   1  Pass 1  IDiag  1:
 E= -238.929718955276    
 DIIS: error= 1.37D-04 at cycle   1 NSaved=   1.
 NSaved= 1 IEnMin= 1 EnMin= -238.929718955276     IErMin= 1 ErrMin= 1.37D-04
 ErrMax= 1.37D-04  0.00D+00 EMaxC= 1.00D-01 BMatC= 1.54D-06 BMatP= 1.54D-06
 IDIUse=3 WtCom= 9.99D-01 WtEn= 1.37D-03
 Coeff-Com:  0.100D+01
 Coeff-En:   0.100D+01
 Coeff:      0.100D+01
 Gap=     0.520 Goal=   None    Shift=    0.000
 RMSDP=2.58D-05 MaxDP=4.28D-04              OVMax= 5.91D-04

 Cycle   2  Pass 1  IDiag  1:
 E= -238.929721085573     Delta-E=       -0.000002130297 Rises=F Damp=F
 DIIS: error= 4.28D-05 at cycle   2 NSaved=   2.
 NSaved= 2 IEnMin= 2 EnMin= -238.929721085573     IErMin= 2 ErrMin= 4.28D-05
 ErrMax= 4.28D-05  0.00D+00 EMaxC= 1.00D-01 BMatC= 1.90D-07 BMatP= 1.54D-06
 IDIUse=1 WtCom= 1.00D+00 WtEn= 0.00D+00
 Coeff-Com:  0.618D-01 0.938D+00
 Coeff:      0.618D-01 0.938D+00
 Gap=     0.520 Goal=   None    Shift=    0.000
 RMSDP=7.40D-06 MaxDP=1.27D-04 DE=-2.13D-06 OVMax= 1.68D-04

 Cycle   3  Pass 1  IDiag  1:
 E= -238.929721177759     Delta-E=       -0.000000092185 Rises=F Damp=F
 DIIS: error= 4.15D-05 at cycle   3 NSaved=   3.
 NSaved= 3 IEnMin= 3 EnMin= -238.929721177759     IErMin= 3 ErrMin= 4.15D-05
 ErrMax= 4.15D-05  0.00D+00 EMaxC= 1.00D-01 BMatC= 1.30D-07 BMatP= 1.90D-07
 IDIUse=1 WtCom= 1.00D+00 WtEn= 0.00D+00
 Coeff-Com: -0.854D-01 0.476D+00 0.609D+00
 Coeff:     -0.854D-01 0.476D+00 0.609D+00
 Gap=     0.520 Goal=   None    Shift=    0.000
 RMSDP=3.39D-06 MaxDP=4.96D-05 DE=-9.22D-08 OVMax= 6.81D-05

 Cycle   4  Pass 1  IDiag  1:
 E= -238.929721265340     Delta-E=       -0.000000087581 Rises=F Damp=F
 DIIS: error= 5.30D-06 at cycle   4 NSaved=   4.
 NSaved= 4 IEnMin= 4 EnMin= -238.929721265340     IErMin= 4 ErrMin= 5.30D-06
 ErrMax= 5.30D-06  0.00D+00 EMaxC= 1.00D-01 BMatC= 1.58D-09 BMatP= 1.30D-07
 IDIUse=1 WtCom= 1.00D+00 WtEn= 0.00D+00
 Coeff-Com: -0.132D-01 0.403D-01 0.117D+00 0.856D+00
 Coeff:     -0.132D-01 0.403D-01 0.117D+00 0.856D+00
 Gap=     0.520 Goal=   None    Shift=    0.000
 RMSDP=8.14D-07 MaxDP=1.28D-05 DE=-8.76D-08 OVMax= 2.11D-05

 Cycle   5  Pass 1  IDiag  1:
 E= -238.929721266889     Delta-E=       -0.000000001548 Rises=F Damp=F
 DIIS: error= 1.44D-06 at cycle   5 NSaved=   5.
 NSaved= 5 IEnMin= 5 EnMin= -238.929721266889     IErMin= 5 ErrMin= 1.44D-06
 ErrMax= 1.44D-06  0.00D+00 EMaxC= 1.00D-01 BMatC= 1.74D-10 BMatP= 1.58D-09
 IDIUse=1 WtCom= 1.00D+00 WtEn= 0.00D+00
 Coeff-Com:  0.409D-02-0.408D-01-0.251D-01 0.220D+00 0.842D+00
 Coeff:      0.409D-02-0.408D-01-0.251D-01 0.220D+00 0.842D+00
 Gap=     0.520 Goal=   None    Shift=    0.000
 RMSDP=2.82D-07 MaxDP=3.65D-06 DE=-1.55D-09 OVMax= 6.25D-06

 Cycle   6  Pass 1  IDiag  1:
 E= -238.929721267120     Delta-E=       -0.000000000231 Rises=F Damp=F
 DIIS: error= 2.50D-07 at cycle   6 NSaved=   6.
 NSaved= 6 IEnMin= 6 EnMin= -238.929721267120     IErMin= 6 ErrMin= 2.50D-07
 ErrMax= 2.50D-07  0.00D+00 EMaxC= 1.00D-01 BMatC= 3.07D-12 BMatP= 1.74D-10
 IDIUse=1 WtCom= 1.00D+00 WtEn= 0.00D+00
 Coeff-Com:  0.106D-02-0.523D-02-0.781D-02-0.300D-01 0.374D-01 0.100D+01
 Coeff:      0.106D-02-0.523D-02-0.781D-02-0.300D-01 0.374D-01 0.100D+01
 Gap=     0.520 Goal=   None    Shift=    0.000
 RMSDP=7.28D-08 MaxDP=6.82D-07 DE=-2.31D-10 OVMax= 1.98D-06

 Cycle   7  Pass 1  IDiag  1:
 E= -238.929721267129     Delta-E=       -0.000000000009 Rises=F Damp=F
 DIIS: error= 3.83D-08 at cycle   7 NSaved=   7.
 NSaved= 7 IEnMin= 7 EnMin= -238.929721267129     IErMin= 7 ErrMin= 3.83D-08
 ErrMax= 3.83D-08  0.00D+00 EMaxC= 1.00D-01 BMatC= 7.13D-14 BMatP= 3.07D-12
 IDIUse=1 WtCom= 1.00D+00 WtEn= 0.00D+00
 Coeff-Com: -0.162D-03 0.142D-02 0.132D-02-0.480D-02-0.282D-01-0.510D-01
 Coeff-Com:  0.108D+01
 Coeff:     -0.162D-03 0.142D-02 0.132D-02-0.480D-02-0.282D-01-0.510D-01
 Coeff:      0.108D+01
 Gap=     0.520 Goal=   None    Shift=    0.000
 RMSDP=1.29D-08 MaxDP=1.16D-07 DE=-9.21D-12 OVMax= 2.80D-07

 Cycle   8  Pass 1  IDiag  1:
 E= -238.929721267128     Delta-E=        0.000000000002 Rises=F Damp=F
 DIIS: error= 4.29D-09 at cycle   8 NSaved=   8.
 NSaved= 8 IEnMin= 7 EnMin= -238.929721267129     IErMin= 8 ErrMin= 4.29D-09
 ErrMax= 4.29D-09  0.00D+00 EMaxC= 1.00D-01 BMatC= 1.27D-15 BMatP= 7.13D-14
 IDIUse=1 WtCom= 1.00D+00 WtEn= 0.00D+00
 Coeff-Com: -0.264D-04 0.152D-03 0.199D-03 0.353D-03-0.203D-02-0.218D-01
 Coeff-Com:  0.285D-01 0.995D+00
 Coeff:     -0.264D-04 0.152D-03 0.199D-03 0.353D-03-0.203D-02-0.218D-01
 Coeff:      0.285D-01 0.995D+00
 Gap=     0.520 Goal=   None    Shift=    0.000
 RMSDP=1.46D-09 MaxDP=1.32D-08 DE= 1.65D-12 OVMax= 2.75D-08

 SCF Done:  E(RwB97XD) =  -238.929721267     A.U. after    8 cycles
            NFock=  8  Conv=0.15D-08     -V/T= 2.0075
 KE= 2.371401932485D+02 PE=-7.208621065470D+02 EE= 1.677741533876D+02
 Leave Link  502 at Tue Mar 31 17:24:02 2026, MaxMem=   536870912 cpu:               1.7 elap:               0.5
 (Enter /Users/asuyarger/Applications/G16/g16/l701.exe)
 ... and contract with generalized density number  0.
 Compute integral first derivatives.
 R6Disp: Adding Grimme-D2 dispersion energy 1st derivatives to the gradient.
 Leave Link  701 at Tue Mar 31 17:24:03 2026, MaxMem=   536870912 cpu:               0.3 elap:               0.1
 (Enter /Users/asuyarger/Applications/G16/g16/l702.exe)
 L702 exits ... SP integral derivatives will be done elsewhere.
 Leave Link  702 at Tue Mar 31 17:24:03 2026, MaxMem=   536870912 cpu:               0.1 elap:               0.0
 (Enter /Users/asuyarger/Applications/G16/g16/l703.exe)
 Integral derivatives from FoFJK, PRISM(SPDF).
 Compute integral first derivatives, UseDBF=F ICtDFT=           0.
 Calling FoFJK, ICntrl=      2127 FMM=F ISym2X=1 I1Cent= 0 IOpClX= 0 NMat=1 NMatS=1 NMatT=0.
 FoFJK:  IHMeth= 1 ICntrl=    2127 DoSepK=T KAlg= 0 I1Cent=           0 FoldK=F
 IRaf=         1 NMat=       1 IRICut=       1 DoRegI=T DoRafI=F ISym2E= 1 IDoP0=0 IntGTp=1.
 FoFCou: FMM=F IPFlag=           0 FMFlag=      100000 FMFlg1=         800
         NFxFlg=           0 DoJE=F BraDBF=F KetDBF=F FulRan=T
         wScrn=  0.000000 ICntrl=      2527 IOpCl=  0 I1Cent=           0 NGrid=           0
         NMat0=    1 NMatS0=      1 NMatT0=    0 NMatD0=    1 NMtDS0=    0 NMtDT0=    0
 Petite list used in FoFCou.
 Leave Link  703 at Tue Mar 31 17:24:03 2026, MaxMem=   536870912 cpu:               1.1 elap:               0.3
 (Enter /Users/asuyarger/Applications/G16/g16/l716.exe)
 Dipole        = 1.22124533D-15-3.55271368D-15 8.42868094D-01
 ***** Axes restored to original set *****
 -------------------------------------------------------------------
 Center     Atomic                   Forces (Hartrees/Bohr)
 Number     Number              X              Y              Z
 -------------------------------------------------------------------
      1        6           0.000037644   -0.000026619   -0.000046105
      2        1          -0.000012576    0.000080369   -0.000025863
      3        1          -0.000012578   -0.000062582    0.000056670
      4        9           0.000055085    0.000026099    0.000045206
      5        9          -0.000067576   -0.000017266   -0.000029908
 -------------------------------------------------------------------
 Cartesian Forces:  Max     0.000080369 RMS     0.000044976
 Leave Link  716 at Tue Mar 31 17:24:03 2026, MaxMem=   536870912 cpu:               0.1 elap:               0.0
 (Enter /Users/asuyarger/Applications/G16/g16/l103.exe)

 GradGradGradGradGradGradGradGradGradGradGradGradGradGradGradGradGradGrad
 Berny optimization.
 Using GEDIIS/GDIIS optimizer.
 FormGI is forming the generalized inverse of G from B-inverse, IUseBI=4.
 Internal  Forces:  Max     0.000081040 RMS     0.000044825
 Search for a local minimum.
 Step number   4 out of a maximum of   24
 All quantities printed in internal units (Hartrees-Bohrs-Radians)
 RMS Force = .44825D-04 SwitMx=.10000D-02 MixMth= 2
 Mixed Optimization -- En-DIIS/RFO-DIIS
 Swapping is turned off.
 Update second derivatives using D2CorX and points    1    2    3    4
 DE= -4.48D-06 DEPred=-4.38D-06 R= 1.02D+00
 TightC=F SS=  1.41D+00  RLast= 1.05D-02 DXNew= 6.3265D-01 3.1375D-02
 Trust test= 1.02D+00 RLast= 1.05D-02 DXMaxT set to 3.76D-01
 The second derivative matrix:
                          R1        R2        R3        R4        A1
           R1           0.37030
           R2          -0.00200   0.37030
           R3           0.01528   0.01528   0.50901
           R4           0.01528   0.01528  -0.04120   0.50901
           A1          -0.00348  -0.00348  -0.05617  -0.05617   0.09240
           A2           0.00170   0.00170   0.01500   0.01500   0.01630
           A3           0.00005   0.00005   0.01198   0.01198   0.01461
           A4           0.00170   0.00170   0.01500   0.01500   0.01630
           A5           0.00005   0.00005   0.01198   0.01198   0.01461
           A6           0.00426   0.00426   0.01542   0.01542   0.01299
           D1           0.00961   0.00961   0.01170   0.01170   0.00208
           D2          -0.00771  -0.00771  -0.00794  -0.00794   0.00005
           D3          -0.00386  -0.00386  -0.00397  -0.00397   0.00003
           D4           0.00386   0.00386   0.00397   0.00397  -0.00003
                          A2        A3        A4        A5        A6
           A2           0.15688
           A3          -0.00276   0.15788
           A4          -0.00312  -0.00276   0.15688
           A5          -0.00276  -0.00212  -0.00276   0.15788
           A6          -0.00610  -0.00697  -0.00610  -0.00697   0.25964
           D1          -0.00004  -0.00201  -0.00004  -0.00201   0.00640
           D2          -0.00042   0.00120  -0.00042   0.00120  -0.00526
           D3          -0.00021   0.00060  -0.00021   0.00060  -0.00263
           D4           0.00021  -0.00060   0.00021  -0.00060   0.00263
                          D1        D2        D3        D4
           D1           0.03315
           D2          -0.00980   0.02868
           D3          -0.00490   0.00390   0.02283
           D4           0.00490  -0.00390  -0.00195   0.02283
 ITU=  1  1  1  0
     Eigenvalues ---    0.05202   0.07172   0.09268   0.16000   0.22944
     Eigenvalues ---    0.36125   0.37230   0.47995   0.55021
 En-DIIS/RFO-DIIS/Sim-DIIS IScMMF=       -3 using points:     4    3    2
 RFO step:  Lambda=-9.46058955D-08.
 NNeg= 0 NGDIIS= 3 SimSw=  2.50D-01 Rises=F DC= -4.48D-06 SmlDif=  1.00D-05
 NRisDI= 0 DoIntr=F SqrtH=F CThrHd= 10.0 CDAdj=  3.0
 RMS Error=  0.1870458515D-03 NUsed= 3 OKEnD=F EnDIS=F
 InvSVX:  RCond= 7.73D-07 Info=           0 Equed=N FErr=  2.66D-15 BErr=  6.67D-17
 DidBck=F Rises=F RFO-DIIS coefs:    0.99178   -0.00107    0.00928
 Iteration  1 RMS(Cart)=  0.00018883 RMS(Int)=  0.00000010
 Iteration  2 RMS(Cart)=  0.00000002 RMS(Int)=  0.00000010
 ITry= 1 IFail=0 DXMaxC= 3.62D-04 DCOld= 1.00D+10 DXMaxT= 3.76D-01 DXLimC= 3.00D+00 Rises=F
 ClnCor:  largest displacement from symmetrization is 8.73D-06 for atom     5.
 Variable       Old X    -DE/DX   Delta X   Delta X   Delta X     New X
                                 (Linear)    (Quad)   (Total)
    R1        2.06372  -0.00008   0.00003  -0.00026  -0.00022   2.06350
    R2        2.06372  -0.00008   0.00003  -0.00026  -0.00022   2.06350
    R3        2.57208   0.00007  -0.00005   0.00019   0.00014   2.57222
    R4        2.57208   0.00007  -0.00005   0.00019   0.00014   2.57222
    A1        1.98651  -0.00001  -0.00019  -0.00003  -0.00022   1.98629
    A2        1.89509  -0.00001   0.00005  -0.00007  -0.00002   1.89507
    A3        1.89509  -0.00001   0.00005  -0.00006  -0.00002   1.89507
    A4        1.89509  -0.00001   0.00005  -0.00007  -0.00002   1.89507
    A5        1.89509  -0.00001   0.00005  -0.00006  -0.00002   1.89507
    A6        1.89523   0.00006  -0.00000   0.00032   0.00032   1.89555
    D1        2.16818  -0.00003  -0.00017  -0.00013  -0.00030   2.16789
    D2       -2.16818   0.00002   0.00017   0.00012   0.00030  -2.16789
    D3        2.05750   0.00001   0.00009   0.00006   0.00015   2.05765
    D4       -2.05750  -0.00001  -0.00009  -0.00006  -0.00015  -2.05765
         Item               Value     Threshold  Converged?
 Maximum Force            0.000081     0.000450     YES
 RMS     Force            0.000045     0.000300     YES
 Maximum Displacement     0.000362     0.001800     YES
 RMS     Displacement     0.000189     0.001200     YES
 Predicted change in Energy=-4.728240D-08
 Optimization completed.
    -- Stationary point found.
                           ----------------------------
                           !   Optimized Parameters   !
                           ! (Angstroms and Degrees)  !
 --------------------------                            --------------------------
 ! Name  Definition              Value          Derivative Info.                !
 --------------------------------------------------------------------------------
 ! R1    R(1,2)                  1.0921         -DE/DX =   -0.0001              !
 ! R2    R(1,3)                  1.0921         -DE/DX =   -0.0001              !
 ! R3    R(1,4)                  1.3611         -DE/DX =    0.0001              !
 ! R4    R(1,5)                  1.3611         -DE/DX =    0.0001              !
 ! A1    A(2,1,3)              113.8188         -DE/DX =    0.0                 !
 ! A2    A(2,1,4)              108.5805         -DE/DX =    0.0                 !
 ! A3    A(2,1,5)              108.5805         -DE/DX =    0.0                 !
 ! A4    A(3,1,4)              108.5805         -DE/DX =    0.0                 !
 ! A5    A(3,1,5)              108.5805         -DE/DX =    0.0                 !
 ! A6    A(4,1,5)              108.5887         -DE/DX =    0.0001              !
 ! D1    D(2,1,4,3)            124.2277         -DE/DX =    0.0                 !
 ! D2    D(2,1,5,3)           -124.2277         -DE/DX =    0.0                 !
 ! D3    D(2,1,5,4)            117.8862         -DE/DX =    0.0                 !
 ! D4    D(3,1,5,4)           -117.8862         -DE/DX =    0.0                 !
 --------------------------------------------------------------------------------
 Lowest energy point so far.  Saving SCF results.
 Largest change from initial coordinates is atom    3       0.004 Angstoms.
 GradGradGradGradGradGradGradGradGradGradGradGradGradGradGradGradGradGrad

 Leave Link  103 at Tue Mar 31 17:24:03 2026, MaxMem=   536870912 cpu:               0.0 elap:               0.0
 (Enter /Users/asuyarger/Applications/G16/g16/l202.exe)
                          Input orientation:                          
 ---------------------------------------------------------------------
 Center     Atomic      Atomic             Coordinates (Angstroms)
 Number     Number       Type             X           Y           Z
 ---------------------------------------------------------------------
      1          6           0        0.751889    0.091567   -0.010165
      2          1           0        1.096113   -0.944219    0.025708
      3          1           0        1.096133    0.640521   -0.889242
      4          9           0        1.195697    0.734912    1.104151
      5          9           0       -0.609158    0.096825   -0.001087
 ---------------------------------------------------------------------
                    Distance matrix (angstroms):
                    1          2          3          4          5
     1  C    0.000000
     2  H    1.092076   0.000000
     3  H    1.092076   1.829901   0.000000
     4  F    1.361087   1.998109   1.998109   0.000000
     5  F    1.361087   1.998109   1.998109   2.210477   0.000000
 Stoichiometry    CH2F2
 Framework group  C2V[C2(C),SGV(F2),SGV'(H2)]
 Deg. of freedom     4
 Full point group                 C2V     NOp   4
 RotChk:  IX=0 Diff= 2.32D-15
 Largest Abelian subgroup         C2V     NOp   4
 Largest concise Abelian subgroup C2V     NOp   4
                         Standard orientation:                         
 ---------------------------------------------------------------------
 Center     Atomic      Atomic             Coordinates (Angstroms)
 Number     Number       Type             X           Y           Z
 ---------------------------------------------------------------------
      1          6           0        0.000000   -0.000000    0.504077
      2          1           0       -0.914950   -0.000000    1.100312
      3          1           0        0.914950    0.000000    1.100312
      4          9           0        0.000000    1.105239   -0.290282
      5          9           0       -0.000000   -1.105239   -0.290282
 ---------------------------------------------------------------------
 Rotational constants (GHZ):          49.3930321          10.5063012           9.1954777
 Leave Link  202 at Tue Mar 31 17:24:03 2026, MaxMem=   536870912 cpu:               0.0 elap:               0.0
 (Enter /Users/asuyarger/Applications/G16/g16/l601.exe)
 Copying SCF densities to generalized density rwf, IOpCl= 0 IROHF=0.

 **********************************************************************

            Population analysis using the SCF density.

 **********************************************************************

 Orbital symmetries:
       Occupied  (A1) (B2) (A1) (A1) (B2) (A1) (B1) (A1) (B2) (A2)
                 (A1) (B2) (B1)
       Virtual   (A1) (B2) (A1) (B1) (B2) (A1) (A1) (B1) (B2) (A2)
                 (A1) (B1) (A1) (A1) (B2) (B2) (A1) (B2) (B1) (B1)
                 (A1) (A1) (A1) (A2) (B2) (A2) (B1) (A1) (A1) (B2)
                 (B1) (A1) (B2) (A2) (B2) (B2) (A1) (B1) (B2) (A1)
                 (A2) (B1) (A1) (B2) (A1) (A1) (B2) (A1)
 The electronic state is 1-A1.
 Alpha  occ. eigenvalues --  -24.85631 -24.85630 -10.46864  -1.36890  -1.31219
 Alpha  occ. eigenvalues --   -0.81650  -0.65133  -0.64640  -0.64298  -0.52448
 Alpha  occ. eigenvalues --   -0.51233  -0.50278  -0.44333
 Alpha virt. eigenvalues --    0.07688   0.09225   0.09888   0.10039   0.23765
 Alpha virt. eigenvalues --    0.24394   0.26603   0.27894   0.30861   0.33657
 Alpha virt. eigenvalues --    0.34789   0.36507   0.39398   0.40574   0.41575
 Alpha virt. eigenvalues --    0.48633   0.67391   0.78983   0.85106   0.95718
 Alpha virt. eigenvalues --    1.02635   1.34310   1.36918   1.39311   1.61311
 Alpha virt. eigenvalues --    1.64665   1.65427   1.67154   1.69142   1.70837
 Alpha virt. eigenvalues --    1.84034   1.87395   1.90077   1.93558   2.00714
 Alpha virt. eigenvalues --    2.11132   2.14326   2.17572   2.24743   2.26988
 Alpha virt. eigenvalues --    2.50827   2.51013   2.73032   3.15263   3.17379
 Alpha virt. eigenvalues --    4.43682   5.19969   5.31637
          Condensed to atoms (all electrons):
               1          2          3          4          5
     1  C    4.696543   0.413062   0.413062   0.136828   0.136828
     2  H    0.413062   0.546710  -0.049237  -0.051362  -0.051362
     3  H    0.413062  -0.049237   0.546710  -0.051362  -0.051362
     4  F    0.136828  -0.051362  -0.051362   9.293707  -0.033783
     5  F    0.136828  -0.051362  -0.051362  -0.033783   9.293707
 Mulliken charges:
               1
     1  C    0.203676
     2  H    0.192189
     3  H    0.192189
     4  F   -0.294027
     5  F   -0.294027
 Sum of Mulliken charges =   0.00000
 Mulliken charges with hydrogens summed into heavy atoms:
               1
     1  C    0.588054
     4  F   -0.294027
     5  F   -0.294027
 Electronic spatial extent (au):  <R**2>=            141.1512
 Charge=              0.0000 electrons
 Dipole moment (field-independent basis, Debye):
    X=             -0.0000    Y=              0.0000    Z=              2.1424  Tot=              2.1424
 Quadrupole moment (field-independent basis, Debye-Ang):
   XX=            -15.2744   YY=            -19.3724   ZZ=            -15.3135
   XY=              0.0000   XZ=              0.0000   YZ=              0.0000
 Traceless Quadrupole moment (field-independent basis, Debye-Ang):
   XX=              1.3791   YY=             -2.7190   ZZ=              1.3399
   XY=              0.0000   XZ=              0.0000   YZ=              0.0000
 Octapole moment (field-independent basis, Debye-Ang**2):
  XXX=              0.0000  YYY=              0.0000  ZZZ=             -2.1379  XYY=             -0.0000
  XXY=              0.0000  XXZ=              0.1259  XZZ=              0.0000  YZZ=             -0.0000
  YYZ=             -0.4730  XYZ=             -0.0000
 Hexadecapole moment (field-independent basis, Debye-Ang**3):
 XXXX=            -18.0827 YYYY=            -88.8444 ZZZZ=            -34.4176 XXXY=             -0.0000
 XXXZ=              0.0000 YYYX=              0.0000 YYYZ=              0.0000 ZZZX=             -0.0000
 ZZZY=              0.0000 XXYY=            -17.9019 XXZZ=             -7.8358 YYZZ=            -19.7972
 XXYZ=              0.0000 YYXZ=              0.0000 ZZXY=              0.0000
 N-N= 7.701803864379D+01 E-N=-7.208621065939D+02  KE= 2.371401932485D+02
 Symmetry A1   KE= 1.277682612529D+02
 Symmetry A2   KE= 6.457696777520D+00
 Symmetry B1   KE= 8.466278011020D+00
 Symmetry B2   KE= 9.444795720706D+01
 No NMR shielding tensors so no spin-rotation constants.
 Leave Link  601 at Tue Mar 31 17:24:03 2026, MaxMem=   536870912 cpu:               0.3 elap:               0.1
 (Enter /Users/asuyarger/Applications/G16/g16/l9999.exe)
 1\1\GINC-JEFFSMACSTUDIO\FOpt\RwB97XD\6-31+G(d)\C1H2F2\ROOT\31-Mar-2026
 \0\\#p opt freq=raman wb97xd/6-31+g(d) guess=save geom=connectivity po
 lar\\R32 - difluoromethane\\0,1\C,0.7518892309,0.0915670499,-0.0101647
 861\H,1.0961129775,-0.9442193386,0.0257084192\H,1.0961325023,0.6405210
 723,-0.8892417842\F,1.195697296,0.7349122332,1.1041513502\F,-0.6091578
 051,0.0968246414,-0.0010874136\\Version=EM64M-G16RevA.03\State=1-A1\HF
 =-238.9297213\RMSD=1.461e-09\RMSF=4.498e-05\Dipole=0.4866259,-0.344105
 4,-0.5959978\Quadrupole=-1.0156188,0.7665712,0.2490477,-0.711254,-1.23
 19717,-0.4481581\PG=C02V [C2(C1),SGV(F2),SGV'(H2)]\\@


 WHEN ALL ELSE FAILS, TRY THE BOSS'S SUGGESTION.
 Leave Link 9999 at Tue Mar 31 17:24:04 2026, MaxMem=   536870912 cpu:               0.1 elap:               0.0
 Job cpu time:       0 days  0 hours  0 minutes 19.2 seconds.
 Elapsed time:       0 days  0 hours  0 minutes  5.4 seconds.
 File lengths (MBytes):  RWF=      6 Int=      0 D2E=      0 Chk=      1 Scr=      1
 Normal termination of Gaussian 16 at Tue Mar 31 17:24:04 2026.
 (Enter /Users/asuyarger/Applications/G16/g16/l1.exe)
 Link1:  Proceeding to internal job step number  2.
 ----------------------------------------------------------------------
 #P Geom=AllCheck Guess=TCheck SCRF=Check GenChk RwB97XD/6-31+G(d) Freq
 ----------------------------------------------------------------------
 1/10=4,29=7,30=1,38=1,40=1/1,3;
 2/12=2,40=1/2;
 3/5=1,6=6,7=11,11=2,14=-4,25=1,30=1,70=2,71=2,74=-58,116=1,140=1/1,2,3;
 4/5=101/1;
 5/5=2,38=6,98=1/2;
 8/6=4,10=90,11=11/1;
 10/13=10,15=4/2;
 11/6=3,8=1,9=11,15=111,16=1/1,2,10;
 10/6=1/2;
 6/7=2,8=2,9=2,10=2,28=1/1;
 7/8=1,10=1,25=1/1,2,3,16;
 1/10=4,30=1/3;
 99//99;
 Leave Link    1 at Tue Mar 31 17:24:04 2026, MaxMem=   536870912 cpu:               0.1 elap:               0.0
 (Enter /Users/asuyarger/Applications/G16/g16/l101.exe)
 Structure from the checkpoint file:  "Difluoromethane_Opt_Freq_DFT_WB97XD_631pd_Gaussian16.chk"
 ---------------------
 R32 - difluoromethane
 ---------------------
 Charge =  0 Multiplicity = 1
 Redundant internal coordinates found in file.  (old form).
 C,0,0.7518892309,0.0915670499,-0.0101647861
 H,0,1.0961129775,-0.9442193386,0.0257084192
 H,0,1.0961325023,0.6405210723,-0.8892417842
 F,0,1.195697296,0.7349122332,1.1041513502
 F,0,-0.6091578051,0.0968246414,-0.0010874136
 Recover connectivity data from disk.
 ITRead=  0  0  0  0  0
 MicOpt= -1 -1 -1 -1 -1
 NAtoms=      5 NQM=        5 NQMF=       0 NMMI=      0 NMMIF=      0
                NMic=       0 NMicF=      0.
                    Isotopes and Nuclear Properties:
 (Nuclear quadrupole moments (NQMom) in fm**2, nuclear magnetic moments (NMagM)
  in nuclear magnetons)

  Atom         1           2           3           4           5
 IAtWgt=          12           1           1          19          19
 AtmWgt=  12.0000000   1.0078250   1.0078250  18.9984033  18.9984033
 NucSpn=           0           1           1           1           1
 AtZEff=   3.6000000   1.0000000   1.0000000   6.7500000   6.7500000
 NQMom=    0.0000000   0.0000000   0.0000000   0.0000000   0.0000000
 NMagM=    0.0000000   2.7928460   2.7928460   2.6288670   2.6288670
 AtZNuc=   6.0000000   1.0000000   1.0000000   9.0000000   9.0000000
 Leave Link  101 at Tue Mar 31 17:24:05 2026, MaxMem=   536870912 cpu:               0.5 elap:               0.1
 (Enter /Users/asuyarger/Applications/G16/g16/l103.exe)

 GradGradGradGradGradGradGradGradGradGradGradGradGradGradGradGradGradGrad
 Berny optimization.
 Initialization pass.
                           ----------------------------
                           !    Initial Parameters    !
                           ! (Angstroms and Degrees)  !
 --------------------------                            --------------------------
 ! Name  Definition              Value          Derivative Info.                !
 --------------------------------------------------------------------------------
 ! R1    R(1,2)                  1.0921         calculate D2E/DX2 analytically  !
 ! R2    R(1,3)                  1.0921         calculate D2E/DX2 analytically  !
 ! R3    R(1,4)                  1.3611         calculate D2E/DX2 analytically  !
 ! R4    R(1,5)                  1.3611         calculate D2E/DX2 analytically  !
 ! A1    A(2,1,3)              113.8188         calculate D2E/DX2 analytically  !
 ! A2    A(2,1,4)              108.5805         calculate D2E/DX2 analytically  !
 ! A3    A(2,1,5)              108.5805         calculate D2E/DX2 analytically  !
 ! A4    A(3,1,4)              108.5805         calculate D2E/DX2 analytically  !
 ! A5    A(3,1,5)              108.5805         calculate D2E/DX2 analytically  !
 ! A6    A(4,1,5)              108.5887         calculate D2E/DX2 analytically  !
 ! D1    D(2,1,4,3)            124.2277         calculate D2E/DX2 analytically  !
 ! D2    D(2,1,5,3)           -124.2277         calculate D2E/DX2 analytically  !
 ! D3    D(2,1,5,4)            117.8862         calculate D2E/DX2 analytically  !
 ! D4    D(3,1,5,4)           -117.8862         calculate D2E/DX2 analytically  !
 --------------------------------------------------------------------------------
 Trust Radius=3.00D-01 FncErr=1.00D-07 GrdErr=1.00D-07 EigMax=2.50D+02 EigMin=1.00D-04
 Number of steps in this run=      2 maximum allowed number of steps=      2.
 GradGradGradGradGradGradGradGradGradGradGradGradGradGradGradGradGradGrad

 Leave Link  103 at Tue Mar 31 17:24:05 2026, MaxMem=   536870912 cpu:               0.0 elap:               0.0
 (Enter /Users/asuyarger/Applications/G16/g16/l202.exe)
                          Input orientation:                          
 ---------------------------------------------------------------------
 Center     Atomic      Atomic             Coordinates (Angstroms)
 Number     Number       Type             X           Y           Z
 ---------------------------------------------------------------------
      1          6           0        0.751889    0.091567   -0.010165
      2          1           0        1.096113   -0.944219    0.025708
      3          1           0        1.096133    0.640521   -0.889242
      4          9           0        1.195697    0.734912    1.104151
      5          9           0       -0.609158    0.096825   -0.001087
 ---------------------------------------------------------------------
                    Distance matrix (angstroms):
                    1          2          3          4          5
     1  C    0.000000
     2  H    1.092076   0.000000
     3  H    1.092076   1.829901   0.000000
     4  F    1.361087   1.998109   1.998109   0.000000
     5  F    1.361087   1.998109   1.998109   2.210477   0.000000
 Stoichiometry    CH2F2
 Framework group  C2V[C2(C),SGV(F2),SGV'(H2)]
 Deg. of freedom     4
 Full point group                 C2V     NOp   4
 RotChk:  IX=0 Diff= 1.70D-15
 Largest Abelian subgroup         C2V     NOp   4
 Largest concise Abelian subgroup C2V     NOp   4
                         Standard orientation:                         
 ---------------------------------------------------------------------
 Center     Atomic      Atomic             Coordinates (Angstroms)
 Number     Number       Type             X           Y           Z
 ---------------------------------------------------------------------
      1          6           0        0.000000   -0.000000    0.504077
      2          1           0       -0.914950    0.000000    1.100312
      3          1           0        0.914950   -0.000000    1.100312
      4          9           0        0.000000    1.105239   -0.290282
      5          9           0       -0.000000   -1.105239   -0.290282
 ---------------------------------------------------------------------
 Rotational constants (GHZ):          49.3930321          10.5063012           9.1954777
 Leave Link  202 at Tue Mar 31 17:24:05 2026, MaxMem=   536870912 cpu:               0.0 elap:               0.0
 (Enter /Users/asuyarger/Applications/G16/g16/l301.exe)
 Standard basis: 6-31+G(d) (6D, 7F)
 Ernie: Thresh=  0.10000D-02 Tol=  0.10000D-05 Strict=F.
 There are    26 symmetry adapted cartesian basis functions of A1  symmetry.
 There are     6 symmetry adapted cartesian basis functions of A2  symmetry.
 There are    11 symmetry adapted cartesian basis functions of B1  symmetry.
 There are    18 symmetry adapted cartesian basis functions of B2  symmetry.
 There are    26 symmetry adapted basis functions of A1  symmetry.
 There are     6 symmetry adapted basis functions of A2  symmetry.
 There are    11 symmetry adapted basis functions of B1  symmetry.
 There are    18 symmetry adapted basis functions of B2  symmetry.
    61 basis functions,   104 primitive gaussians,    61 cartesian basis functions
    13 alpha electrons       13 beta electrons
       nuclear repulsion energy        77.0184325312 Hartrees.
 IExCor= 4639 DFT=T Ex+Corr=wB97XD ExCW=0 ScaHFX=  1.000000
 ScaDFX=  1.000000  1.000000  1.000000  1.000000 ScalE2=  1.000000  1.000000
 IRadAn=      5 IRanWt=     -1 IRanGd=            0 ICorTp=0 IEmpDi=121
 HFx  wShort=  0.000000 wLong=  0.200000 cFull=  0.222036 cShort=  0.000000 cLong=  0.777964
 DFx  wShort=  0.000000 wLong=  0.200000 cFull=  0.000000 cShort=  0.000000 cLong=  1.000000
 NAtoms=    5 NActive=    5 NUniq=    3 SFac= 2.78D+00 NAtFMM=   60 NAOKFM=F Big=F
 Integral buffers will be    131072 words long.
 Raffenetti 2 integral format.
 Two-electron integral symmetry is turned on.
 R6Disp:  Grimme-D2 Dispersion energy=       -0.0003938874 Hartrees.
 Nuclear repulsion after empirical dispersion term =       77.0180386438 Hartrees.
 Leave Link  301 at Tue Mar 31 17:24:05 2026, MaxMem=   536870912 cpu:               0.1 elap:               0.0
 (Enter /Users/asuyarger/Applications/G16/g16/l302.exe)
 NPDir=0 NMtPBC=     1 NCelOv=     1 NCel=       1 NClECP=     1 NCelD=      1
         NCelK=      1 NCelE2=     1 NClLst=     1 CellRange=     0.0.
 One-electron integrals computed using PRISM.
 One-electron integral symmetry used in STVInt
 NBasis=    61 RedAO= T EigKep=  3.35D-03  NBF=    26     6    11    18
 NBsUse=    61 1.00D-06 EigRej= -1.00D+00 NBFU=    26     6    11    18
 Precomputing XC quadrature grid using
 IXCGrd= 4 IRadAn=           5 IRanWt=          -1 IRanGd=           0 AccXCQ= 0.00D+00.
 Generated NRdTot=       0 NPtTot=           0 NUsed=           0 NTot=          32
 NSgBfM=    61    61    61    61    61 MxSgAt=     5 MxSgA2=     5.
 Leave Link  302 at Tue Mar 31 17:24:05 2026, MaxMem=   536870912 cpu:               0.4 elap:               0.1
 (Enter /Users/asuyarger/Applications/G16/g16/l303.exe)
 DipDrv:  MaxL=1.
 Leave Link  303 at Tue Mar 31 17:24:05 2026, MaxMem=   536870912 cpu:               0.1 elap:               0.0
 (Enter /Users/asuyarger/Applications/G16/g16/l401.exe)
 Initial guess from the checkpoint file:  "Difluoromethane_Opt_Freq_DFT_WB97XD_631pd_Gaussian16.chk"
 B after Tr=     0.000000   -0.000000    0.000000
         Rot=    1.000000   -0.000000    0.000000    0.000000 Ang=   0.00 deg.
 Guess basis will be translated and rotated to current coordinates.
 JPrj=2 DoOrth=T DoCkMO=T.
 Initial guess orbital symmetries:
       Occupied  (A1) (B2) (A1) (A1) (B2) (A1) (B1) (A1) (B2) (A2)
                 (A1) (B2) (B1)
       Virtual   (A1) (B2) (A1) (B1) (B2) (A1) (A1) (B1) (B2) (A2)
                 (A1) (B1) (A1) (A1) (B2) (B2) (A1) (B2) (B1) (B1)
                 (A1) (A1) (A1) (A2) (B2) (A2) (B1) (A1) (A1) (B2)
                 (B1) (A1) (B2) (A2) (B2) (B2) (A1) (B1) (B2) (A1)
                 (A2) (B1) (A1) (B2) (A1) (A1) (B2) (A1)
 The electronic state of the initial guess is 1-A1.
 Leave Link  401 at Tue Mar 31 17:24:05 2026, MaxMem=   536870912 cpu:               0.2 elap:               0.0
 (Enter /Users/asuyarger/Applications/G16/g16/l502.exe)
 Keep R1 ints in memory in symmetry-blocked form, NReq=7118901.
 FoFCou: FMM=F IPFlag=           0 FMFlag=           0 FMFlg1=           0
         NFxFlg=           0 DoJE=F BraDBF=F KetDBF=F FulRan=T
         wScrn=  0.000000 ICntrl=       600 IOpCl=  0 I1Cent=           0 NGrid=           0
         NMat0=    1 NMatS0=   1891 NMatT0=    0 NMatD0=    1 NMtDS0=    0 NMtDT0=    0
 Petite list used in FoFCou.
 Closed shell SCF:
 Using DIIS extrapolation, IDIIS=  1040.
 NGot=   536870912 LenX=   536387411 LenY=   536383249
 Requested convergence on RMS density matrix=1.00D-08 within 128 cycles.
 Requested convergence on MAX density matrix=1.00D-06.
 Requested convergence on             energy=1.00D-06.
 No special actions if energy rises.

 Cycle   1  Pass 1  IDiag  1:
 E= -238.929721267128    
 DIIS: error= 1.03D-09 at cycle   1 NSaved=   1.
 NSaved= 1 IEnMin= 1 EnMin= -238.929721267128     IErMin= 1 ErrMin= 1.03D-09
 ErrMax= 1.03D-09  0.00D+00 EMaxC= 1.00D-01 BMatC= 3.06D-17 BMatP= 3.06D-17
 IDIUse=1 WtCom= 1.00D+00 WtEn= 0.00D+00
 Coeff-Com:  0.100D+01
 Coeff:      0.100D+01
 Gap=     0.520 Goal=   None    Shift=    0.000
 RMSDP=2.10D-10 MaxDP=1.80D-09              OVMax= 3.80D-09

 SCF Done:  E(RwB97XD) =  -238.929721267     A.U. after    1 cycles
            NFock=  1  Conv=0.21D-09     -V/T= 2.0075
 KE= 2.371401932212D+02 PE=-7.208621065666D+02 EE= 1.677741534345D+02
 Leave Link  502 at Tue Mar 31 17:24:05 2026, MaxMem=   536870912 cpu:               0.9 elap:               0.3
 (Enter /Users/asuyarger/Applications/G16/g16/l801.exe)
 DoSCS=F DFT=T ScalE2(SS,OS)=  1.000000  1.000000
 Range of M.O.s used for correlation:     1    61
 NBasis=    61 NAE=    13 NBE=    13 NFC=     0 NFV=     0
 NROrb=     61 NOA=    13 NOB=    13 NVA=    48 NVB=    48
 Leave Link  801 at Tue Mar 31 17:24:07 2026, MaxMem=   536870912 cpu:               0.1 elap:               0.0
 (Enter /Users/asuyarger/Applications/G16/g16/l1002.exe)
 Minotr:  Closed shell wavefunction.
          Direct CPHF calculation.
          Differentiating once with respect to electric field.
                with respect to dipole field.
          Electric field/nuclear overlap derivatives assumed to be zero.
          Using symmetry in CPHF.
          Requested convergence is 1.0D-08 RMS, and 1.0D-07 maximum.
          Secondary convergence is 1.0D-12 RMS, and 1.0D-12 maximum.
          NewPWx=F KeepS1=T KeepF1=T KeepIn=T MapXYZ=F SortEE=F KeepMc=T.
         1533 words used for storage of precomputed grid.
 Keep R1 ints in memory in symmetry-blocked form, NReq=7107863.
 FoFCou: FMM=F IPFlag=           0 FMFlag=           0 FMFlg1=           0
         NFxFlg=           0 DoJE=F BraDBF=F KetDBF=F FulRan=T
         wScrn=  0.000000 ICntrl=       600 IOpCl=  0 I1Cent=           0 NGrid=           0
         NMat0=    1 NMatS0=   1891 NMatT0=    0 NMatD0=    1 NMtDS0=    0 NMtDT0=    0
 Petite list used in FoFCou.
 Two-electron integral symmetry used by symmetrizing perturbed Fock matrices.
          MDV=     536870912 using IRadAn=       1.
          Solving linear equations simultaneously, MaxMat=       0.
          There are     3 degrees of freedom in the 1st order CPHF.  IDoFFX=0 NUNeed=     3.
      3 vectors produced by pass  0 Test12= 2.08D-14 3.33D-08 XBig12= 4.48D+00 9.24D-01.
 AX will form     3 AO Fock derivatives at one time.
      3 vectors produced by pass  1 Test12= 2.08D-14 3.33D-08 XBig12= 8.34D-01 3.63D-01.
      3 vectors produced by pass  2 Test12= 2.08D-14 3.33D-08 XBig12= 8.90D-02 7.62D-02.
      3 vectors produced by pass  3 Test12= 2.08D-14 3.33D-08 XBig12= 3.13D-03 2.57D-02.
      3 vectors produced by pass  4 Test12= 2.08D-14 3.33D-08 XBig12= 3.05D-04 4.55D-03.
      3 vectors produced by pass  5 Test12= 2.08D-14 3.33D-08 XBig12= 2.69D-05 2.09D-03.
      3 vectors produced by pass  6 Test12= 2.08D-14 3.33D-08 XBig12= 5.27D-07 1.90D-04.
      3 vectors produced by pass  7 Test12= 2.08D-14 3.33D-08 XBig12= 1.16D-08 3.53D-05.
      3 vectors produced by pass  8 Test12= 2.08D-14 3.33D-08 XBig12= 2.43D-10 4.12D-06.
      2 vectors produced by pass  9 Test12= 2.08D-14 3.33D-08 XBig12= 4.90D-12 7.05D-07.
      1 vectors produced by pass 10 Test12= 2.08D-14 3.33D-08 XBig12= 4.02D-14 5.59D-08.
 InvSVY:  IOpt=1 It=  1 EMax= 4.44D-16
 Solved reduced A of dimension    30 with     3 vectors.
 End of Minotr F.D. properties file   721 does not exist.
 End of Minotr F.D. properties file   722 does not exist.
 End of Minotr F.D. properties file   788 does not exist.
 Leave Link 1002 at Tue Mar 31 17:24:08 2026, MaxMem=   536870912 cpu:               1.4 elap:               0.4
 (Enter /Users/asuyarger/Applications/G16/g16/l1101.exe)
 Using compressed storage, NAtomX=     5.
 Will process      6 centers per pass.
 R6Disp: Adding Grimme-D2 dispersion energy 1st derivatives to the gradient.
 Leave Link 1101 at Tue Mar 31 17:24:10 2026, MaxMem=   536870912 cpu:               0.3 elap:               0.1
 (Enter /Users/asuyarger/Applications/G16/g16/l1102.exe)
 Symmetrizing basis deriv contribution to polar:
 IMax=3 JMax=2 DiffMx= 0.00D+00
 Leave Link 1102 at Tue Mar 31 17:24:11 2026, MaxMem=   536870912 cpu:               0.1 elap:               0.0
 (Enter /Users/asuyarger/Applications/G16/g16/l1110.exe)
 Forming Gx(P) for the SCF density, NAtomX=     5.
 Integral derivatives from FoFJK, PRISM(SPDF).
 Do as many integral derivatives as possible in FoFJK.
 G2DrvN: MDV=     536870416.
 G2DrvN: will do     6 centers at a time, making    1 passes.
 PxScal for G2LodP:  IOpCl= 0 ISclPx=1 IMOff=     1 NMtTot=     4 NTT=    1891 ScalPx= 1.24D+00
 Calling FoFCou, ICntrl=  3107 FMM=F I1Cent=   0 AccDes= 0.00D+00.
 FoFJK:  IHMeth= 1 ICntrl=    3107 DoSepK=T KAlg= 0 I1Cent=           0 FoldK=F
 IRaf=         1 NMat=       1 IRICut=       1 DoRegI=T DoRafI=F ISym2E= 1 IDoP0=0 IntGTp=1.
 FoFCou: FMM=F IPFlag=           0 FMFlag=      100000 FMFlg1=           0
         NFxFlg=           0 DoJE=F BraDBF=F KetDBF=F FulRan=T
         wScrn=  0.000000 ICntrl=      3507 IOpCl=  0 I1Cent=           0 NGrid=           0
         NMat0=    1 NMatS0=      1 NMatT0=    0 NMatD0=    4 NMtDS0=    3 NMtDT0=    0
 Petite list used in FoFCou.
 End of G2Drv F.D. properties file   721 does not exist.
 End of G2Drv F.D. properties file   722 does not exist.
 End of G2Drv F.D. properties file   788 does not exist.
 Leave Link 1110 at Tue Mar 31 17:24:13 2026, MaxMem=   536870912 cpu:               3.0 elap:               0.8
 (Enter /Users/asuyarger/Applications/G16/g16/l1002.exe)
 Minotr:  Closed shell wavefunction.
          IDoAtm=11111
          Direct CPHF calculation.
          Differentiating once with respect to electric field.
                with respect to dipole field.
          Differentiating once with respect to nuclear coordinates.
          Using symmetry in CPHF.
          Requested convergence is 1.0D-08 RMS, and 1.0D-07 maximum.
          Secondary convergence is 1.0D-12 RMS, and 1.0D-12 maximum.
          NewPWx=T KeepS1=F KeepF1=F KeepIn=T MapXYZ=F SortEE=F KeepMc=T.
         1533 words used for storage of precomputed grid.
 Keep R1 ints in memory in symmetry-blocked form, NReq=7109616.
 FoFCou: FMM=F IPFlag=           0 FMFlag=           0 FMFlg1=           0
         NFxFlg=           0 DoJE=F BraDBF=F KetDBF=F FulRan=T
         wScrn=  0.000000 ICntrl=       600 IOpCl=  0 I1Cent=           0 NGrid=           0
         NMat0=    1 NMatS0=   1891 NMatT0=    0 NMatD0=    1 NMtDS0=    0 NMtDT0=    0
 Petite list used in FoFCou.
          MDV=     536870912 using IRadAn=       1.
          Solving linear equations simultaneously, MaxMat=       0.
          There are    12 degrees of freedom in the 1st order CPHF.  IDoFFX=4 NUNeed=    12.
 Will reuse    3 saved solutions.
      9 vectors produced by pass  0 Test12= 5.20D-15 8.33D-09 XBig12= 7.94D-02 1.01D-01.
 AX will form     9 AO Fock derivatives at one time.
      9 vectors produced by pass  1 Test12= 5.20D-15 8.33D-09 XBig12= 7.24D-03 3.46D-02.
      9 vectors produced by pass  2 Test12= 5.20D-15 8.33D-09 XBig12= 1.16D-03 1.21D-02.
      9 vectors produced by pass  3 Test12= 5.20D-15 8.33D-09 XBig12= 2.35D-05 2.14D-03.
      9 vectors produced by pass  4 Test12= 5.20D-15 8.33D-09 XBig12= 4.02D-07 1.80D-04.
      9 vectors produced by pass  5 Test12= 5.20D-15 8.33D-09 XBig12= 3.05D-09 1.80D-05.
      8 vectors produced by pass  6 Test12= 5.20D-15 8.33D-09 XBig12= 2.13D-11 1.84D-06.
      2 vectors produced by pass  7 Test12= 5.20D-15 8.33D-09 XBig12= 1.07D-13 7.76D-08.
 InvSVY:  IOpt=1 It=  1 EMax= 1.11D-15
 Solved reduced A of dimension    64 with     9 vectors.
 FullF1:  Do perturbations      1 to      12.
 Isotropic polarizability for W=    0.000000       15.12 Bohr**3.
 FullF1:  Do perturbations      1 to       6.
 End of Minotr F.D. properties file   721 does not exist.
 End of Minotr F.D. properties file   722 does not exist.
 End of Minotr F.D. properties file   788 does not exist.
 Leave Link 1002 at Tue Mar 31 17:24:14 2026, MaxMem=   536870912 cpu:               4.9 elap:               1.3
 (Enter /Users/asuyarger/Applications/G16/g16/l601.exe)
 Copying SCF densities to generalized density rwf, IOpCl= 0 IROHF=0.

 **********************************************************************

            Population analysis using the SCF density.

 **********************************************************************

 Orbital symmetries:
       Occupied  (A1) (B2) (A1) (A1) (B2) (A1) (B1) (A1) (B2) (A2)
                 (A1) (B2) (B1)
       Virtual   (A1) (B2) (A1) (B1) (B2) (A1) (A1) (B1) (B2) (A2)
                 (A1) (B1) (A1) (A1) (B2) (B2) (A1) (B2) (B1) (B1)
                 (A1) (A1) (A1) (A2) (B2) (A2) (B1) (A1) (A1) (B2)
                 (B1) (A1) (B2) (A2) (B2) (B2) (A1) (B1) (B2) (A1)
                 (A2) (B1) (A1) (B2) (A1) (A1) (B2) (A1)
 The electronic state is 1-A1.
 Alpha  occ. eigenvalues --  -24.85631 -24.85630 -10.46864  -1.36890  -1.31219
 Alpha  occ. eigenvalues --   -0.81650  -0.65133  -0.64640  -0.64298  -0.52448
 Alpha  occ. eigenvalues --   -0.51233  -0.50278  -0.44333
 Alpha virt. eigenvalues --    0.07688   0.09225   0.09888   0.10039   0.23765
 Alpha virt. eigenvalues --    0.24394   0.26603   0.27894   0.30861   0.33657
 Alpha virt. eigenvalues --    0.34789   0.36507   0.39398   0.40574   0.41575
 Alpha virt. eigenvalues --    0.48633   0.67391   0.78983   0.85106   0.95718
 Alpha virt. eigenvalues --    1.02635   1.34310   1.36918   1.39311   1.61311
 Alpha virt. eigenvalues --    1.64665   1.65427   1.67154   1.69142   1.70837
 Alpha virt. eigenvalues --    1.84034   1.87395   1.90077   1.93558   2.00714
 Alpha virt. eigenvalues --    2.11132   2.14326   2.17572   2.24743   2.26988
 Alpha virt. eigenvalues --    2.50827   2.51013   2.73032   3.15263   3.17379
 Alpha virt. eigenvalues --    4.43682   5.19969   5.31637
          Condensed to atoms (all electrons):
               1          2          3          4          5
     1  C    4.696543   0.413062   0.413062   0.136828   0.136828
     2  H    0.413062   0.546710  -0.049237  -0.051362  -0.051362
     3  H    0.413062  -0.049237   0.546710  -0.051362  -0.051362
     4  F    0.136828  -0.051362  -0.051362   9.293707  -0.033783
     5  F    0.136828  -0.051362  -0.051362  -0.033783   9.293707
 Mulliken charges:
               1
     1  C    0.203676
     2  H    0.192189
     3  H    0.192189
     4  F   -0.294027
     5  F   -0.294027
 Sum of Mulliken charges =  -0.00000
 Mulliken charges with hydrogens summed into heavy atoms:
               1
     1  C    0.588054
     4  F   -0.294027
     5  F   -0.294027
 APT charges:
               1
     1  C    1.190352
     2  H   -0.038745
     3  H   -0.038745
     4  F   -0.556431
     5  F   -0.556431
 Sum of APT charges =   0.00000
 APT charges with hydrogens summed into heavy atoms:
               1
     1  C    1.112862
     4  F   -0.556431
     5  F   -0.556431
 Electronic spatial extent (au):  <R**2>=            141.1512
 Charge=              0.0000 electrons
 Dipole moment (field-independent basis, Debye):
    X=              0.0000    Y=             -0.0000    Z=              2.1424  Tot=              2.1424
 Quadrupole moment (field-independent basis, Debye-Ang):
   XX=            -15.2744   YY=            -19.3724   ZZ=            -15.3135
   XY=             -0.0000   XZ=              0.0000   YZ=             -0.0000
 Traceless Quadrupole moment (field-independent basis, Debye-Ang):
   XX=              1.3791   YY=             -2.7190   ZZ=              1.3399
   XY=             -0.0000   XZ=              0.0000   YZ=             -0.0000
 Octapole moment (field-independent basis, Debye-Ang**2):
  XXX=              0.0000  YYY=             -0.0000  ZZZ=             -2.1379  XYY=              0.0000
  XXY=             -0.0000  XXZ=              0.1259  XZZ=              0.0000  YZZ=             -0.0000
  YYZ=             -0.4730  XYZ=              0.0000
 Hexadecapole moment (field-independent basis, Debye-Ang**3):
 XXXX=            -18.0827 YYYY=            -88.8444 ZZZZ=            -34.4176 XXXY=             -0.0000
 XXXZ=             -0.0000 YYYX=             -0.0000 YYYZ=              0.0000 ZZZX=             -0.0000
 ZZZY=             -0.0000 XXYY=            -17.9019 XXZZ=             -7.8358 YYZZ=            -19.7972
 XXYZ=             -0.0000 YYXZ=             -0.0000 ZZXY=             -0.0000
 N-N= 7.701803864379D+01 E-N=-7.208621065472D+02  KE= 2.371401932212D+02
 Symmetry A1   KE= 1.277682612331D+02
 Symmetry A2   KE= 6.457696776513D+00
 Symmetry B1   KE= 8.466278012061D+00
 Symmetry B2   KE= 9.444795719954D+01
  Exact polarizability:  14.433   0.000  15.922   0.000   0.000  14.996
 Approx polarizability:  13.866   0.000  15.904   0.000   0.000  14.619
 No NMR shielding tensors so no spin-rotation constants.
 Leave Link  601 at Tue Mar 31 17:24:14 2026, MaxMem=   536870912 cpu:               0.3 elap:               0.1
 (Enter /Users/asuyarger/Applications/G16/g16/l701.exe)
 ... and contract with generalized density number  0.
 Compute integral second derivatives.
 R6Disp: Adding Grimme-D2 dispersion energy 2nd derivatives to the Hessian.
 Leave Link  701 at Tue Mar 31 17:24:14 2026, MaxMem=   536870912 cpu:               0.3 elap:               0.1
 (Enter /Users/asuyarger/Applications/G16/g16/l702.exe)
 L702 exits ... SP integral derivatives will be done elsewhere.
 Leave Link  702 at Tue Mar 31 17:24:15 2026, MaxMem=   536870912 cpu:               0.1 elap:               0.0
 (Enter /Users/asuyarger/Applications/G16/g16/l703.exe)
 Integral derivatives from FoFJK, PRISM(SPDF).
 Compute integral second derivatives, UseDBF=F ICtDFT=           0.
 Calling FoFJK, ICntrl=    100127 FMM=F ISym2X=1 I1Cent= 0 IOpClX= 0 NMat=1 NMatS=1 NMatT=0.
 FoFJK:  IHMeth= 1 ICntrl=  100127 DoSepK=T KAlg= 0 I1Cent=           0 FoldK=F
 IRaf=         1 NMat=       1 IRICut=       1 DoRegI=T DoRafI=F ISym2E= 1 IDoP0=0 IntGTp=1.
 FoFCou: FMM=F IPFlag=           0 FMFlag=      100000 FMFlg1=         800
         NFxFlg=           0 DoJE=F BraDBF=F KetDBF=F FulRan=T
         wScrn=  0.000000 ICntrl=    100527 IOpCl=  0 I1Cent=           0 NGrid=           0
         NMat0=    1 NMatS0=      1 NMatT0=    0 NMatD0=    1 NMtDS0=    0 NMtDT0=    0
 Petite list used in FoFCou.
 Leave Link  703 at Tue Mar 31 17:24:15 2026, MaxMem=   536870912 cpu:               3.4 elap:               0.9
 (Enter /Users/asuyarger/Applications/G16/g16/l716.exe)
 Dipole        = 1.20600136D-15-1.77635684D-15 8.42868095D-01
 Polarizability= 1.44331665D+01 3.44518518D-15 1.59217907D+01
                 2.13894211D-14 3.16344681D-15 1.49964386D+01
 HyperPolar    = 5.48774768D-12-1.32043965D-12 2.54267415D-12
                 1.28378785D-12 2.50781485D+01-6.18453048D-14
                 9.68441522D+00 5.40822144D-12-1.79544371D-14
                 2.00794139D+01
 Full mass-weighted force constant matrix:
 Low frequencies ---  -34.3930  -18.4204   -9.1940   -0.0008   -0.0007    0.0003
 Low frequencies ---  523.1541 1108.3310 1129.9044
 Diagonal vibrational polarizability:
        0.4482124       6.5253077       3.0588148
 Diagonal vibrational hyperpolarizability:
       -0.0000000       0.0000011      11.2943842
 Harmonic frequencies (cm**-1), IR intensities (KM/Mole), Raman scattering
 activities (A**4/AMU), depolarization ratios for plane and unpolarized
 incident light, reduced masses (AMU), force constants (mDyne/A),
 and normal coordinates:
                      1                      2                      3
                     A1                     B2                     A1
 Frequencies --    523.1541              1108.3310              1129.9044
 Red. masses --     12.4745                 7.6201                 7.4801
 Frc consts  --      2.0116                 5.5150                 5.6265
 IR Inten    --      5.6932               281.1053               112.3193
 Raman Activ --      1.5836                 3.0463                 6.1457
 Depolar (P) --      0.6973                 0.7500                 0.1638
 Depolar (U) --      0.8217                 0.8571                 0.2815
  Atom  AN      X      Y      Z        X      Y      Z        X      Y      Z
     1   6     0.00  -0.00  -0.36    -0.00   0.60  -0.00     0.00   0.00   0.56
     2   1    -0.00  -0.00  -0.39     0.00   0.50   0.00    -0.02   0.00   0.51
     3   1     0.00   0.00  -0.39    -0.00   0.50  -0.00     0.02   0.00   0.51
     4   9     0.00   0.51   0.14     0.00  -0.22   0.17    -0.00   0.20  -0.20
     5   9    -0.00  -0.51   0.14     0.00  -0.22  -0.17    -0.00  -0.20  -0.20
                      4                      5                      6
                     B1                     A2                     B2
 Frequencies --   1189.0581              1286.1878              1476.7033
 Red. masses --      1.4991                 1.0425                 1.1724
 Frc consts  --      1.2488                 1.0161                 1.5064
 IR Inten    --     18.4566                 0.0000                29.7364
 Raman Activ --      1.4367                 9.3620                 4.4887
 Depolar (P) --      0.7500                 0.7500                 0.7500
 Depolar (U) --      0.8571                 0.8571                 0.8571
  Atom  AN      X      Y      Z        X      Y      Z        X      Y      Z
     1   6     0.19   0.00  -0.00     0.00  -0.00   0.00     0.00  -0.12   0.00
     2   1    -0.22  -0.00  -0.66    -0.00   0.71  -0.00    -0.00   0.70  -0.00
     3   1    -0.22  -0.00   0.66     0.00  -0.71  -0.00     0.00   0.70  -0.00
     4   9    -0.05  -0.00   0.00    -0.03   0.00  -0.00    -0.00  -0.00   0.02
     5   9    -0.05   0.00   0.00     0.03  -0.00   0.00    -0.00  -0.00  -0.02
                      7                      8                      9
                     A1                     A1                     B1
 Frequencies --   1555.2307              3110.5205              3191.6582
 Red. masses --      1.0975                 1.0505                 1.1208
 Frc consts  --      1.5640                 5.9885                 6.7267
 IR Inten    --      1.4695                41.3777                36.6842
 Raman Activ --      6.5585               104.0490                49.6419
 Depolar (P) --      0.7497                 0.1050                 0.7500
 Depolar (U) --      0.8569                 0.1901                 0.8571
  Atom  AN      X      Y      Z        X      Y      Z        X      Y      Z
     1   6     0.00  -0.00  -0.09    -0.00  -0.00   0.06    -0.10   0.00  -0.00
     2   1     0.41   0.00   0.57     0.60  -0.00  -0.37     0.59   0.00  -0.38
     3   1    -0.41   0.00   0.57    -0.60   0.00  -0.37     0.59   0.00   0.38
     4   9    -0.00   0.00  -0.00     0.00  -0.00   0.00     0.00  -0.00   0.00
     5   9     0.00  -0.00  -0.00    -0.00   0.00   0.00     0.00  -0.00  -0.00

 -------------------
 - Thermochemistry -
 -------------------
 Temperature   298.150 Kelvin.  Pressure   1.00000 Atm.
 Atom     1 has atomic number  6 and mass  12.00000
 Atom     2 has atomic number  1 and mass   1.00783
 Atom     3 has atomic number  1 and mass   1.00783
 Atom     4 has atomic number  9 and mass  18.99840
 Atom     5 has atomic number  9 and mass  18.99840
 Molecular mass:    52.01246 amu.
 Principal axes and moments of inertia in atomic units:
                           1         2         3
     Eigenvalues --    36.53838 171.77703 196.26400
           X            0.00000   0.00000   1.00000
           Y            1.00000   0.00000  -0.00000
           Z           -0.00000   1.00000   0.00000
 This molecule is an asymmetric top.
 Rotational symmetry number  2.
 Rotational temperatures (Kelvin)      2.37049     0.50422     0.44131
 Rotational constants (GHZ):          49.39303    10.50630     9.19548
 Zero-point vibrational energy      87152.4 (Joules/Mol)
                                   20.82993 (Kcal/Mol)
 Warning -- explicit consideration of   1 degrees of freedom as
           vibrations may cause significant error
 Vibrational temperatures:    752.70  1594.64  1625.68  1710.79  1850.54
          (Kelvin)           2124.65  2237.63  4475.35  4592.08
 
 Zero-point correction=                           0.033195 (Hartree/Particle)
 Thermal correction to Energy=                    0.036320
 Thermal correction to Enthalpy=                  0.037264
 Thermal correction to Gibbs Free Energy=         0.009259
 Sum of electronic and zero-point Energies=           -238.896527
 Sum of electronic and thermal Energies=              -238.893402
 Sum of electronic and thermal Enthalpies=            -238.892457
 Sum of electronic and thermal Free Energies=         -238.920463
 
                     E (Thermal)             CV                S
                      KCal/Mol        Cal/Mol-Kelvin    Cal/Mol-Kelvin
 Total                   22.791              8.199             58.942
 Electronic               0.000              0.000              0.000
 Translational            0.889              2.981             37.769
 Rotational               0.889              2.981             20.360
 Vibrational             21.013              2.237              0.813
 Vibration     1          0.878              1.199              0.603
                       Q            Log10(Q)             Ln(Q)
 Total Bot       0.551213D-04         -4.258681         -9.805974
 Total V=0       0.102274D+12         11.009765         25.350921
 Vib (Bot)       0.595129D-15        -15.225389        -35.057753
 Vib (Bot)    1  0.307646D+00         -0.511949         -1.178806
 Vib (V=0)       0.110422D+01          0.043057          0.099143
 Vib (V=0)    1  0.108707D+01          0.036256          0.083482
 Electronic      0.100000D+01          0.000000          0.000000
 Translational   0.147440D+08          7.168615         16.506346
 Rotational      0.628193D+04          3.798093          8.745433
 
                                                        R32 - difluoromethane
                                                             IR Spectrum
 
     3   3                                                             1  1      1   1 11                                            
     1   1                                                             5  4      2   1 11                       5                    
     9   1                                                             5  7      8   8 30                       2                    
     2   1                                                             5  7      6   9 08                       3                    
 
     X   X                                                             X  X          X XX                       X                    
     X   X                                                                X            XX                                            
     X   X                                                                             XX                                            
                                                                                       XX                                            
                                                                                       XX                                            
                                                                                       XX                                            
                                                                                       XX                                            
                                                                                       XX                                            
                                                                                        X                                            
                                                                                        X                                            
                                                                                        X                                            
                                                                                        X                                            
                                                                                        X                                            
                                                                                        X                                            
                                                                                        X                                            
                                                                                        X                                            
                                                                                        X                                            
                                                                                        X                                            
                                                                                        X                                            
                                                                                        X                                            
 
 
                                                        R32 - difluoromethane
                                                            Raman Spectrum
 
     3   3                                                             1  1      1   1 11                                            
     1   1                                                             5  4      2   1 11                       5                    
     9   1                                                             5  7      8   8 30                       2                    
     2   1                                                             5  7      6   9 08                       3                    
 
     X   X                                                             X  X      X   X XX                       X                    
     X   X                                                                       X                                                   
     X   X                                                                                                                           
     X   X                                                                                                                           
     X   X                                                                                                                           
     X   X                                                                                                                           
     X   X                                                                                                                           
     X   X                                                                                                                           
     X   X                                                                                                                           
     X   X                                                                                                                           
         X                                                                                                                           
         X                                                                                                                           
         X                                                                                                                           
         X                                                                                                                           
         X                                                                                                                           
         X                                                                                                                           
         X                                                                                                                           
         X                                                                                                                           
         X                                                                                                                           
         X                                                                                                                           
 
 ***** Axes restored to original set *****
 -------------------------------------------------------------------
 Center     Atomic                   Forces (Hartrees/Bohr)
 Number     Number              X              Y              Z
 -------------------------------------------------------------------
      1        6           0.000037645   -0.000026619   -0.000046105
      2        1          -0.000012576    0.000080369   -0.000025863
      3        1          -0.000012578   -0.000062582    0.000056670
      4        9           0.000055085    0.000026099    0.000045206
      5        9          -0.000067576   -0.000017267   -0.000029908
 -------------------------------------------------------------------
 Cartesian Forces:  Max     0.000080369 RMS     0.000044976
 Force constants in Cartesian coordinates: 
                1             2             3             4             5 
      1  0.502110D+00
      2 -0.357443D-01  0.661991D+00
      3 -0.619151D-01 -0.631188D-01  0.589106D+00
      4 -0.738788D-01  0.708775D-01  0.160460D-02  0.928586D-01
      5  0.778434D-01 -0.305539D+00  0.216602D-01 -0.843095D-01  0.322869D+00
      6 -0.241705D-02  0.330356D-01 -0.629637D-01  0.677444D-02 -0.992772D-02
      7 -0.738816D-01 -0.340517D-01  0.621878D-01  0.862913D-02  0.527412D-02
      8 -0.410176D-01 -0.147290D+00  0.124398D+00 -0.854433D-02 -0.976997D-02
      9  0.662095D-01  0.113023D+00 -0.221210D+00  0.115736D-02  0.674909D-03
     10 -0.723487D-01 -0.235751D-01 -0.408332D-01  0.740203D-02 -0.184937D-02
     11 -0.145714D-01 -0.130787D+00 -0.868607D-01 -0.138524D-01 -0.160772D-01
     12 -0.252383D-01 -0.868609D-01 -0.231086D+00 -0.666680D-02 -0.129636D-01
     13 -0.282001D+00  0.224937D-01  0.389559D-01 -0.350109D-01  0.304138D-02
     14  0.134899D-01 -0.783747D-01  0.392090D-02  0.358288D-01  0.851738D-02
     15  0.233610D-01  0.392110D-02 -0.738463D-01 -0.286960D-02  0.556124D-03
                6             7             8             9            10 
      6  0.618692D-01
      7 -0.682045D-02  0.928619D-01
      8  0.232404D-01  0.480237D-01  0.135715D+00
      9  0.403749D-02 -0.696308D-01 -0.117978D+00  0.249020D+00
     10  0.156758D-02  0.740227D-02  0.228262D-02 -0.817252D-03  0.953069D-01
     11 -0.428581D-01  0.115263D-02  0.123666D-01  0.345851D-02  0.492979D-01
     12 -0.103807D-01 -0.153299D-01 -0.264358D-01 -0.388247D-01  0.853873D-01
     13  0.895467D-03 -0.350117D-01 -0.744344D-03  0.308121D-02 -0.377625D-01
     14 -0.349022D-02 -0.203987D-01  0.897851D-02  0.821855D-03 -0.261560D-01
     15  0.743769D-02  0.295933D-01 -0.322477D-02  0.697731D-02 -0.453045D-01
               11            12            13            14            15 
     11  0.127922D+00
     12  0.132187D+00  0.280561D+00
     13 -0.220267D-01 -0.381523D-01  0.389786D+00
     14  0.657582D-02 -0.592663D-02 -0.276401D-02  0.543030D-01
     15 -0.592654D-02 -0.268799D-03 -0.478019D-02  0.467408D-02  0.597001D-01
 FormGI is forming the generalized inverse of G from B-inverse, IUseBI=4.
 Force constants in internal coordinates: 
                1             2             3             4             5 
      1  0.350903D+00
      2  0.301345D-02  0.350903D+00
      3  0.138943D-01  0.138943D-01  0.389853D+00
      4  0.138943D-01  0.138943D-01  0.537990D-01  0.389853D+00
      5  0.302877D-02  0.302877D-02 -0.653587D-02 -0.119562D-01  0.232689D-01
      6  0.524037D-03 -0.172375D-02  0.145412D-01 -0.179909D-01 -0.110612D-01
      7  0.203616D-02 -0.408869D-02 -0.167960D-01  0.172481D-01 -0.171203D-01
      8 -0.172375D-02  0.524036D-03  0.145412D-01 -0.179909D-01 -0.110612D-01
      9 -0.408869D-02  0.203616D-02 -0.167960D-01  0.172481D-01 -0.171203D-01
     10  0.136249D-03  0.136249D-03  0.120293D-01  0.147749D-01  0.345899D-01
     11  0.296777D-02  0.296777D-02  0.104262D-01 -0.375818D-01  0.146018D-01
     12 -0.242600D-02 -0.242600D-02  0.293886D-01 -0.719025D-02 -0.690349D-02
     13  0.183855D-02 -0.426455D-02  0.146943D-01 -0.359513D-02 -0.345175D-02
     14  0.426455D-02 -0.183855D-02 -0.146943D-01  0.359513D-02  0.345175D-02
                6             7             8             9            10 
      6  0.567778D-01
      7 -0.233667D-01  0.113439D+00
      8  0.339682D-02  0.289205D-01  0.567778D-01
      9  0.289205D-01 -0.530817D-01 -0.233667D-01  0.113439D+00
     10 -0.580657D-01 -0.515783D-01 -0.580657D-01 -0.515783D-01  0.196274D+00
     11  0.246050D-01 -0.175554D-01  0.246050D-01 -0.175554D-01 -0.311769D-01
     12  0.100936D-01 -0.172592D-01  0.100936D-01 -0.172592D-01  0.229344D-01
     13  0.223077D-01  0.665547D-02 -0.122140D-01 -0.239147D-01  0.114672D-01
     14  0.122140D-01  0.239147D-01 -0.223077D-01 -0.665547D-02 -0.114672D-01
               11            12            13            14 
     11  0.492432D-01
     12  0.432262D-02  0.304299D-01
     13  0.216131D-02  0.152149D-01  0.367458D-01
     14 -0.216131D-02 -0.152149D-01  0.215309D-01  0.367458D-01
 Leave Link  716 at Tue Mar 31 17:24:15 2026, MaxMem=   536870912 cpu:               0.1 elap:               0.0
 (Enter /Users/asuyarger/Applications/G16/g16/l103.exe)

 GradGradGradGradGradGradGradGradGradGradGradGradGradGradGradGradGradGrad
 Berny optimization.
 Red2BG is reusing G-inverse.
 Internal  Forces:  Max     0.000081040 RMS     0.000044826
 Search for a local minimum.
 Step number   1 out of a maximum of    2
 All quantities printed in internal units (Hartrees-Bohrs-Radians)
 Second derivative matrix not updated -- analytic derivatives used.
 The second derivative matrix:
                          R1        R2        R3        R4        A1
           R1           0.35090
           R2           0.00301   0.35090
           R3           0.01389   0.01389   0.38985
           R4           0.01389   0.01389   0.05380   0.38985
           A1           0.00303   0.00303  -0.00654  -0.01196   0.02327
           A2           0.00052  -0.00172   0.01454  -0.01799  -0.01106
           A3           0.00204  -0.00409  -0.01680   0.01725  -0.01712
           A4          -0.00172   0.00052   0.01454  -0.01799  -0.01106
           A5          -0.00409   0.00204  -0.01680   0.01725  -0.01712
           A6           0.00014   0.00014   0.01203   0.01477   0.03459
           D1           0.00297   0.00297   0.01043  -0.03758   0.01460
           D2          -0.00243  -0.00243   0.02939  -0.00719  -0.00690
           D3           0.00184  -0.00426   0.01469  -0.00360  -0.00345
           D4           0.00426  -0.00184  -0.01469   0.00360   0.00345
                          A2        A3        A4        A5        A6
           A2           0.05678
           A3          -0.02337   0.11344
           A4           0.00340   0.02892   0.05678
           A5           0.02892  -0.05308  -0.02337   0.11344
           A6          -0.05807  -0.05158  -0.05807  -0.05158   0.19627
           D1           0.02460  -0.01756   0.02460  -0.01756  -0.03118
           D2           0.01009  -0.01726   0.01009  -0.01726   0.02293
           D3           0.02231   0.00666  -0.01221  -0.02391   0.01147
           D4           0.01221   0.02391  -0.02231  -0.00666  -0.01147
                          D1        D2        D3        D4
           D1           0.04924
           D2           0.00432   0.03043
           D3           0.00216   0.01521   0.03675
           D4          -0.00216  -0.01521   0.02153   0.03675
 ITU=  0
     Eigenvalues ---    0.05022   0.08889   0.09108   0.18890   0.27091
     Eigenvalues ---    0.34699   0.34828   0.35402   0.45537
 Angle between quadratic step and forces=  38.89 degrees.
 Linear search not attempted -- first point.
 Iteration  1 RMS(Cart)=  0.00017211 RMS(Int)=  0.00000002
 Iteration  2 RMS(Cart)=  0.00000001 RMS(Int)=  0.00000001
 ITry= 1 IFail=0 DXMaxC= 2.97D-04 DCOld= 1.00D+10 DXMaxT= 3.00D-01 DXLimC= 3.00D+00 Rises=F
 ClnCor:  largest displacement from symmetrization is 4.05D-09 for atom     5.
 Variable       Old X    -DE/DX   Delta X   Delta X   Delta X     New X
                                 (Linear)    (Quad)   (Total)
    R1        2.06372  -0.00008   0.00000  -0.00023  -0.00023   2.06349
    R2        2.06372  -0.00008   0.00000  -0.00023  -0.00023   2.06349
    R3        2.57208   0.00007   0.00000   0.00013   0.00013   2.57222
    R4        2.57208   0.00007   0.00000   0.00013   0.00013   2.57222
    A1        1.98651  -0.00001   0.00000  -0.00025  -0.00025   1.98626
    A2        1.89509  -0.00001   0.00000   0.00001   0.00001   1.89510
    A3        1.89509  -0.00001   0.00000   0.00001   0.00001   1.89510
    A4        1.89509  -0.00001   0.00000   0.00001   0.00001   1.89510
    A5        1.89509  -0.00001   0.00000   0.00001   0.00001   1.89510
    A6        1.89523   0.00006   0.00000   0.00024   0.00024   1.89547
    D1        2.16818  -0.00003   0.00000  -0.00030  -0.00030   2.16788
    D2       -2.16818   0.00002   0.00000   0.00030   0.00030  -2.16788
    D3        2.05750   0.00001   0.00000   0.00015   0.00015   2.05765
    D4       -2.05750  -0.00001   0.00000  -0.00015  -0.00015  -2.05765
         Item               Value     Threshold  Converged?
 Maximum Force            0.000081     0.000450     YES
 RMS     Force            0.000045     0.000300     YES
 Maximum Displacement     0.000297     0.001800     YES
 RMS     Displacement     0.000172     0.001200     YES
 Predicted change in Energy=-4.561863D-08
 Optimization completed.
    -- Stationary point found.
                           ----------------------------
                           !   Optimized Parameters   !
                           ! (Angstroms and Degrees)  !
 --------------------------                            --------------------------
 ! Name  Definition              Value          Derivative Info.                !
 --------------------------------------------------------------------------------
 ! R1    R(1,2)                  1.0921         -DE/DX =   -0.0001              !
 ! R2    R(1,3)                  1.0921         -DE/DX =   -0.0001              !
 ! R3    R(1,4)                  1.3611         -DE/DX =    0.0001              !
 ! R4    R(1,5)                  1.3611         -DE/DX =    0.0001              !
 ! A1    A(2,1,3)              113.8188         -DE/DX =    0.0                 !
 ! A2    A(2,1,4)              108.5805         -DE/DX =    0.0                 !
 ! A3    A(2,1,5)              108.5805         -DE/DX =    0.0                 !
 ! A4    A(3,1,4)              108.5805         -DE/DX =    0.0                 !
 ! A5    A(3,1,5)              108.5805         -DE/DX =    0.0                 !
 ! A6    A(4,1,5)              108.5887         -DE/DX =    0.0001              !
 ! D1    D(2,1,4,3)            124.2277         -DE/DX =    0.0                 !
 ! D2    D(2,1,5,3)           -124.2277         -DE/DX =    0.0                 !
 ! D3    D(2,1,5,4)            117.8862         -DE/DX =    0.0                 !
 ! D4    D(3,1,5,4)           -117.8862         -DE/DX =    0.0                 !
 --------------------------------------------------------------------------------
 GradGradGradGradGradGradGradGradGradGradGradGradGradGradGradGradGradGrad

 Leave Link  103 at Tue Mar 31 17:24:16 2026, MaxMem=   536870912 cpu:               0.0 elap:               0.0
 (Enter /Users/asuyarger/Applications/G16/g16/l9999.exe)

 ----------------------------------------------------------------------

 Electric dipole moment (input orientation):
 (Debye = 10**-18 statcoulomb cm , SI units = C m)
                  (au)            (Debye)         (10**-30 SI)
   Tot        0.842868D+00      0.214236D+01      0.714613D+01
   x          0.486626D+00      0.123688D+01      0.412579D+01
   y         -0.344105D+00     -0.874629D+00     -0.291745D+01
   z         -0.595998D+00     -0.151488D+01     -0.505308D+01

 Dipole polarizability, Alpha (input orientation).
 (esu units = cm**3 , SI units = C**2 m**2 J**-1)
 Alpha(0;0):
               (au)            (10**-24 esu)      (10**-40 SI)
   iso        0.151171D+02      0.224013D+01      0.249248D+01
   aniso      0.130184D+01      0.192912D+00      0.214644D+00
   xx         0.156133D+02      0.231366D+01      0.257429D+01
   yx         0.218096D+00      0.323184D-01      0.359591D-01
   yy         0.146511D+02      0.217107D+01      0.241564D+01
   zx         0.377778D+00      0.559809D-01      0.622872D-01
   zy         0.377462D+00      0.559342D-01      0.622351D-01
   zz         0.150870D+02      0.223566D+01      0.248750D+01

 First dipole hyperpolarizability, Beta (input orientation).
 ||, _|_  parallel and perpendicular components, (z) with respect to z axis,
 vector components x,y,z.  Values do not include the 1/n! factor of 1/2.
 (esu units = statvolt**-1 cm**4 , SI units = C**3 m**3 J**-2)
 Beta(0;0,0):
               (au)            (10**-30 esu)      (10**-50 SI)
   || (z)    -0.232675D+02     -0.201013D+00     -0.746040D-01
   _|_(z)    -0.775583D+01     -0.670043D-01     -0.248680D-01
   x          0.949883D+02      0.820625D+00      0.304567D+00
   y         -0.671686D+02     -0.580284D+00     -0.215367D+00
   z         -0.116337D+03     -0.100506D+01     -0.373020D+00
   ||         0.329052D+02      0.284275D+00      0.105506D+00
   xxx        0.150468D+02      0.129992D+00      0.482454D-01
   xxy       -0.273237D+01     -0.236055D-01     -0.876095D-02
   yxy        0.113932D+02      0.984286D-01      0.365308D-01
   yyy       -0.253908D+02     -0.219357D+00     -0.814121D-01
   xxz       -0.473289D+01     -0.408885D-01     -0.151754D-01
   yxz       -0.534412D+01     -0.461690D-01     -0.171352D-01
   yyz       -0.851146D+01     -0.735324D-01     -0.272908D-01
   zxz        0.522274D+01      0.451204D-01      0.167460D-01
   zyz        0.573365D+01      0.495342D-01      0.183841D-01
   zzz       -0.255348D+02     -0.220601D+00     -0.818737D-01

 ----------------------------------------------------------------------

 Dipole orientation:
     6          1.15623000         -0.36016652          0.76326894
     1          1.44858723          1.34394236          1.88999000
     1          0.86387278         -2.06427540          1.88999000
     9          3.21475400         -0.71332727         -0.73785231
     9         -0.90229399         -0.00700577         -0.73785231

 Electric dipole moment (dipole orientation):
 (Debye = 10**-18 statcoulomb cm , SI units = C m)
                  (au)            (Debye)         (10**-30 SI)
   Tot        0.842868D+00      0.214236D+01      0.714613D+01
   x          0.000000D+00      0.000000D+00      0.000000D+00
   y          0.000000D+00      0.000000D+00      0.000000D+00
   z          0.842868D+00      0.214236D+01      0.714613D+01

 Dipole polarizability, Alpha (dipole orientation).
 (esu units = cm**3 , SI units = C**2 m**2 J**-1)
 Alpha(0;0):
               (au)            (10**-24 esu)      (10**-40 SI)
   iso        0.151171D+02      0.224013D+01      0.249248D+01
   aniso      0.130184D+01      0.192912D+00      0.214644D+00
   xx         0.158792D+02      0.235306D+01      0.261813D+01
   yx        -0.248087D+00     -0.367627D-01     -0.409040D-01
   yy         0.144757D+02      0.214508D+01      0.238673D+01
   zx         0.000000D+00      0.000000D+00      0.000000D+00
   zy         0.000000D+00      0.000000D+00      0.000000D+00
   zz         0.149964D+02      0.222224D+01      0.247258D+01

 First dipole hyperpolarizability, Beta (dipole orientation).
 ||, _|_  parallel and perpendicular components, (z) with respect to z axis,
 vector components x,y,z.  Values do not include the 1/n! factor of 1/2.
 (esu units = statvolt**-1 cm**4 , SI units = C**3 m**3 J**-2)
 Beta(0;0,0):
               (au)            (10**-30 esu)      (10**-50 SI)
   || (z)     0.329052D+02      0.284275D+00      0.105506D+00
   _|_(z)     0.109684D+02      0.947584D-01      0.351686D-01
   x          0.000000D+00      0.000000D+00      0.000000D+00
   y          0.000000D+00      0.000000D+00      0.000000D+00
   z          0.164526D+03      0.142138D+01      0.527530D+00
   ||         0.329052D+02      0.284275D+00      0.105506D+00
   xxx        0.000000D+00      0.000000D+00      0.000000D+00
   xxy        0.000000D+00      0.000000D+00      0.000000D+00
   yxy        0.000000D+00      0.000000D+00      0.000000D+00
   yyy        0.000000D+00      0.000000D+00      0.000000D+00
   xxz        0.101245D+02      0.874682D-01      0.324629D-01
   yxz        0.256544D+01      0.221634D-01      0.822574D-02
   yyz        0.246380D+02      0.212853D+00      0.789984D-01
   zxz        0.000000D+00      0.000000D+00      0.000000D+00
   zyz        0.000000D+00      0.000000D+00      0.000000D+00
   zzz        0.200794D+02      0.173470D+00      0.643819D-01

 ----------------------------------------------------------------------
 1\1\GINC-JEFFSMACSTUDIO\Freq\RwB97XD\6-31+G(d)\C1H2F2\ROOT\31-Mar-2026
 \0\\#P Geom=AllCheck Guess=TCheck SCRF=Check GenChk RwB97XD/6-31+G(d) 
 Freq\\R32 - difluoromethane\\0,1\C,0.7518892309,0.0915670499,-0.010164
 7861\H,1.0961129775,-0.9442193386,0.0257084192\H,1.0961325023,0.640521
 0723,-0.8892417842\F,1.195697296,0.7349122332,1.1041513502\F,-0.609157
 8051,0.0968246414,-0.0010874136\\Version=EM64M-G16RevA.03\State=1-A1\H
 F=-238.9297213\RMSD=2.096e-10\RMSF=4.498e-05\ZeroPoint=0.0331946\Therm
 al=0.0363196\Dipole=0.4866259,-0.3441054,-0.5959978\DipoleDeriv=1.4911
 993,0.1298159,0.2248631,0.1298159,0.9060925,0.2318049,0.2248631,0.2318
 049,1.1737642,-0.0131137,0.0219047,-0.0031175,0.0556154,-0.1168466,-0.
 0275631,-0.0225797,0.0274865,0.0137253,-0.0131154,-0.0136526,0.0174136
 ,-0.0473633,-0.0188834,0.0840441,0.0368758,0.0289945,-0.0842362,-0.426
 0102,-0.0903271,-0.1564538,-0.156106,-0.4617989,-0.2768506,-0.2703862,
 -0.2768492,-0.7814838,-1.0389599,-0.0477409,-0.0827054,0.018038,-0.308
 5635,-0.0114354,0.0312271,-0.0114367,-0.3217695\Polar=15.6133453,0.218
 0957,14.6510918,0.3777781,0.3774624,15.0869586\PolarDeriv=2.1428599,0.
 5176902,-2.4045507,0.8968277,0.8643561,-1.4065402,-0.4225603,-2.445240
 5,4.0944004,0.120144,0.4555245,-2.4921918,-0.7317431,0.12017,0.9319221
 ,-2.306587,-2.7672235,1.8429965,1.6830225,-2.2946824,1.4232707,-0.1429
 364,-0.2668324,0.23892,-1.2699392,1.9143199,-7.7513902,-0.0286131,-0.2
 922252,-0.7250111,0.4646809,-0.1263538,-0.1165122,0.8357625,-1.4205958
 ,-0.1840467,1.6831326,1.0235714,0.766106,-2.058752,-0.6462675,0.896156
 3,1.0374191,1.1725264,2.0348881,-0.5546513,-2.0886263,1.9429358,-0.867
 4916,-0.4569221,-1.3983855,1.5776511,2.1385436,-6.0926044,1.928338,1.2
 02732,-0.0573692,2.0832203,0.4838548,0.5013571,0.6237647,1.2653882,1.8
 377105,0.5452113,2.143961,1.0407647,1.0803928,0.5452019,0.3488776,1.89
 49684,2.077139,4.6368386,-7.4373529,-0.4493111,0.2725428,-0.7783593,-0
 .4351112,-0.2298929,0.0313157,-1.9069938,-0.2156087,-0.082091,-0.21863
 39,0.2335024,0.0541611,-0.0820958,0.234098,-2.0017949,-0.0278634,-0.20
 31839\HyperPolar=15.0467837,-2.7323665,11.3932297,-25.3908125,-4.73289
 49,-5.3441183,-8.5114627,5.222742,5.7336474,-25.5347773\Quadrupole=-1.
 0156188,0.7665712,0.2490477,-0.711254,-1.2319717,-0.448158\PG=C02V [C2
 (C1),SGV(F2),SGV'(H2)]\NImag=0\\0.50211040,-0.03574429,0.66199128,-0.0
 6191513,-0.06311878,0.58910621,-0.07387882,0.07087745,0.00160460,0.092
 85860,0.07784339,-0.30553919,0.02166025,-0.08430952,0.32286893,-0.0024
 1705,0.03303563,-0.06296365,0.00677444,-0.00992772,0.06186922,-0.07388
 157,-0.03405167,0.06218784,0.00862913,0.00527412,-0.00682045,0.0928618
 6,-0.04101761,-0.14729018,0.12439837,-0.00854433,-0.00976997,0.0232404
 4,0.04802366,0.13571505,0.06620949,0.11302299,-0.22120991,0.00115736,0
 .00067491,0.00403749,-0.06963081,-0.11797826,0.24901984,-0.07234871,-0
 .02357514,-0.04083317,0.00740203,-0.00184937,0.00156758,0.00740227,0.0
 0228262,-0.00081725,0.09530686,-0.01457142,-0.13078718,-0.08686074,-0.
 01385239,-0.01607716,-0.04285813,0.00115263,0.01236659,0.00345851,0.04
 929786,0.12792193,-0.02523827,-0.08686093,-0.23108639,-0.00666680,-0.0
 1296356,-0.01038075,-0.01532992,-0.02643578,-0.03882473,0.08538734,0.1
 3218690,0.28056067,-0.28200130,0.02249365,0.03895585,-0.03501094,0.003
 04138,0.00089547,-0.03501168,-0.00074434,0.00308121,-0.03776245,-0.022
 02668,-0.03815235,0.38978638,0.01348993,-0.07837473,0.00392090,0.03582
 879,0.00851738,-0.00349022,-0.02039874,0.00897851,0.00082186,-0.026155
 97,0.00657582,-0.00592663,-0.00276401,0.05430302,0.02336096,0.00392110
 ,-0.07384625,-0.00286960,0.00055612,0.00743769,0.02959333,-0.00322477,
 0.00697731,-0.04530450,-0.00592654,-0.00026880,-0.00478019,0.00467408,
 0.05970005\\-0.00003764,0.00002662,0.00004611,0.00001258,-0.00008037,0
 .00002586,0.00001258,0.00006258,-0.00005667,-0.00005509,-0.00002610,-0
 .00004521,0.00006758,0.00001727,0.00002991\\\@


 WE MIGHT AS WELL ATTEMPT TO INTRODUCE A NEW PLANET 
 INTO THE SOLAR SYSTEM, OR TO ANNIHILATE ONE ALREADYIN EXISTENCE, 
 AS TO CREATE OR DESTROY A PARTICLE OF HYDROGEN.
 ALL THE CHANGES WE CAN PRODUCE CONSIST IN SEPARATING PARTICLES
 THAT ARE IN A STATE OF ... COMBINATION, AND JOINING 
 THOSE THAT WERE PREVIOUSLY AT A DISTANCE.

                                    -- JOHN DALTON, 1810
 Job cpu time:       0 days  0 hours  0 minutes 16.6 seconds.
 Elapsed time:       0 days  0 hours  0 minutes  4.5 seconds.
 File lengths (MBytes):  RWF=      6 Int=      0 D2E=      0 Chk=      1 Scr=      1
 Normal termination of Gaussian 16 at Tue Mar 31 17:24:16 2026.
