%chk=N2_DFT_uB3LPY_apVTZ_Opt_Freq_Full_NBO.chk
#p opt=tight freq=raman ub3lyp/aug-cc-pvtz guess=save
pop=(hirshfeld,full,nbo) geom=connectivity polar

N2 DFT uB3LPY aug-cc-pVTZ Opt Freq - Full - NBO

0 1
 N                  1.03978294    0.17179023    0.00000000
 N                 -0.05221706    0.17179023    0.00000000

 1 2 3.0
 2

