%chk=N2_PM6_Opt_Freq_Full.chk
#p opt freq=raman pm6 guess=save pop=(hirshfeld,full) geom=connectivity
polar

N2 Opt Freq PM6

0 1
 N                  0.63322366    0.52631578    0.00000000
 N                 -0.45877634    0.52631578    0.00000000

 1 2 3.0
 2

