%chk=O2_DFT_uB3LPY_apVTZ_Opt_Freq_Full_NBO.chk
#p opt=tight freq=raman ub3lyp/aug-cc-pvtz guess=save
pop=(hirshfeld,full,nbo) geom=connectivity polar

O2 DFT uB3LPY aug-cc-pVTZ Opt Freq - Full - NBO

0 1
 O                 -0.53345386    0.31645569    0.00000000
 O                 -1.69505386    0.31645569    0.00000000

 1 2 2.0
 2

