%chk=O2_PM6_Opt_Freq_Full.chk
#p opt freq=raman pm6 guess=save pop=(hirshfeld,full) geom=connectivity
polar

O2 PM6 Opt Freq

0 1
 O                  1.55159112   -0.69786534   -0.02031144
 O                  0.38999112   -0.69786534   -0.02031144

 1 2 2.0
 2

