%nprocshared=8
%mem=8GB
%chk=r1234yf_HF_6311pp2d3p_Opt_Freq_Full_Raman.chk
#p opt=tight freq=raman hf/6-311++g(2d,3p) guess=save pop=(hirshfeld,full)
geom=connectivity polar

r152a HF 6-311++g(2d,3p) Opt Freq - Full

0 1
 C                  0.33215500    0.19386700    0.00000000
 H                  1.29537100    0.75202700    0.00000000
 C                 -0.91693700    1.04888700    0.00000000
 H                 -0.96129800    1.69826200    0.88583700
 H                 -0.96129800    1.69826200   -0.88583700
 H                 -1.84286000    0.45179000    0.00000000
 F                  0.33215500   -0.66982600   -1.05204200
 F                  0.33215500   -0.66982600    1.05204200

 1 2 1.0 3 1.0 7 1.0 8 1.0
 2
 3 4 1.0 5 1.0 6 1.0
 4
 5
 6
 7
 8

